      1 T=   196. E= -.94212029E+03 F= -.94706458E+03 E0= -.94706458E+03  EK= 0.49443E+01 SP= 0.00E+00 SK= 0.00E+00
       N       E                     dE             d eps       ncg     rms          rms(c)
DAV:   1     0.399536591759E+04    0.39954E+04   -0.28953E+05 16318   0.161E+03
DAV:   2    -0.556175616180E+03   -0.45515E+04   -0.43987E+04 20077   0.342E+02
DAV:   3    -0.101234328765E+04   -0.45617E+03   -0.45389E+03 19756   0.111E+02
DAV:   4    -0.101998501638E+04   -0.76417E+01   -0.76273E+01 19212   0.158E+01
DAV:   5    -0.102014626249E+04   -0.16125E+00   -0.16116E+00 19676   0.212E+00    0.563E+01
DAV:   6    -0.939206987308E+03    0.80939E+02   -0.28410E+02 19140   0.274E+01    0.209E+01
DAV:   7    -0.937273901645E+03    0.19331E+01   -0.11886E+01 18636   0.512E+00    0.133E+01
DAV:   8    -0.936009144221E+03    0.12648E+01   -0.30445E+00 18572   0.342E+00    0.184E+00
DAV:   9    -0.935938749671E+03    0.70395E-01   -0.34338E-01 18708   0.103E+00    0.698E-01
DAV:  10    -0.935917553244E+03    0.21196E-01   -0.76308E-02 16996   0.629E-01    0.223E-01
DAV:  11    -0.935907967498E+03    0.95857E-02   -0.10074E-02 18212   0.246E-01    0.110E-01
DAV:  12    -0.935907099636E+03    0.86786E-03   -0.22828E-03 18060   0.111E-01    0.347E-02
DAV:  13    -0.935907018704E+03    0.80932E-04   -0.22855E-04 14516   0.428E-02
      2 T=   188. E= -.94212762E+03 F= -.94685603E+03 E0= -.94685603E+03  EK= 0.47284E+01 SP= 0.00E+00 SK= 0.00E+00
      3 T=   167. E= -.94214617E+03 F= -.94634878E+03 E0= -.94634878E+03  EK= 0.42026E+01 SP= 0.00E+00 SK= 0.00E+00
       N       E                     dE             d eps       ncg     rms          rms(c)
DAV:   1    -0.934672560950E+03    0.12345E+01   -0.10362E+02 16350   0.201E+01
DAV:   2    -0.934915387367E+03   -0.24283E+00   -0.24282E+00 19028   0.286E+00
DAV:   3    -0.934917801259E+03   -0.24139E-02   -0.24139E-02 19444   0.272E-01
DAV:   4    -0.934917858765E+03   -0.57506E-04   -0.57506E-04 15348   0.411E-02    0.212E+00
DAV:   5    -0.934861625441E+03    0.56233E-01   -0.13123E-01 21428   0.101E+00    0.107E+00
DAV:   6    -0.934857257494E+03    0.43679E-02   -0.72384E-02 19412   0.612E-01    0.414E-01
DAV:   7    -0.934857391818E+03   -0.13432E-03   -0.15233E-02 19452   0.312E-01    0.141E-01
DAV:   8    -0.934857056738E+03    0.33508E-03   -0.20142E-03 20332   0.128E-01    0.636E-02
DAV:   9    -0.934856821194E+03    0.23554E-03   -0.57897E-04 17020   0.573E-02    0.344E-02
DAV:  10    -0.934856718205E+03    0.10299E-03   -0.11020E-04 13012   0.406E-02    0.119E-02
DAV:  11    -0.934856684132E+03    0.34073E-04   -0.10389E-04 12660   0.291E-02
      4 T=   144. E= -.94216142E+03 F= -.94579988E+03 E0= -.94579988E+03  EK= 0.36385E+01 SP= 0.00E+00 SK= 0.00E+00
       N       E                     dE             d eps       ncg     rms          rms(c)
DAV:   1    -0.934452562440E+03    0.40416E+00   -0.19647E+01 16260   0.867E+00    0.941E-01
DAV:   2    -0.934487333605E+03   -0.34771E-01   -0.40131E-01 19020   0.119E+00    0.541E-01
DAV:   3    -0.934485362087E+03    0.19715E-02   -0.84798E-03 19644   0.213E-01    0.330E-01
DAV:   4    -0.934484692140E+03    0.66995E-03   -0.59338E-03 18796   0.190E-01    0.909E-02
DAV:   5    -0.934484695831E+03   -0.36915E-05   -0.12571E-03 19396   0.852E-02    0.591E-02
DAV:   6    -0.934484638463E+03    0.57368E-04   -0.53150E-04 18196   0.510E-02
      5 T=   131. E= -.94213049E+03 F= -.94542289E+03 E0= -.94542289E+03  EK= 0.32924E+01 SP= 0.00E+00 SK= 0.00E+00
       N       E                     dE             d eps       ncg     rms          rms(c)
DAV:   1    -0.934319453381E+03    0.16524E+00   -0.18570E+01 16240   0.842E+00    0.960E-01
DAV:   2    -0.934353616336E+03   -0.34163E-01   -0.40823E-01 18948   0.119E+00    0.548E-01
DAV:   3    -0.934351396619E+03    0.22197E-02   -0.83398E-03 19676   0.213E-01    0.331E-01
DAV:   4    -0.934350613874E+03    0.78275E-03   -0.55890E-03 18780   0.188E-01    0.893E-02
DAV:   5    -0.934350591374E+03    0.22500E-04   -0.13804E-03 19580   0.940E-02    0.560E-02
DAV:   6    -0.934350524357E+03    0.67017E-04   -0.49749E-04 18420   0.510E-02
      6 T=   127. E= -.94209132E+03 F= -.94528249E+03 E0= -.94528249E+03  EK= 0.31912E+01 SP= 0.00E+00 SK= 0.00E+00
       N       E                     dE             d eps       ncg     rms          rms(c)
DAV:   1    -0.934312581181E+03    0.38010E-01   -0.18234E+01 16244   0.839E+00    0.981E-01
DAV:   2    -0.934349797012E+03   -0.37216E-01   -0.45539E-01 19060   0.126E+00    0.609E-01
DAV:   3    -0.934346472046E+03    0.33250E-02   -0.12029E-02 19756   0.268E-01    0.365E-01
DAV:   4    -0.934345178386E+03    0.12937E-02   -0.54207E-03 18868   0.196E-01    0.117E-01
DAV:   5    -0.934345042981E+03    0.13540E-03   -0.17255E-03 19788   0.122E-01    0.548E-02
DAV:   6    -0.934344961970E+03    0.81012E-04   -0.64547E-04 18812   0.601E-02
      7 T=   127. E= -.94205764E+03 F= -.94527086E+03 E0= -.94527086E+03  EK= 0.32132E+01 SP= 0.00E+00 SK= 0.00E+00
       N       E                     dE             d eps       ncg     rms          rms(c)
DAV:   1    -0.934253068688E+03    0.91974E-01   -0.18670E+01 16314   0.851E+00    0.997E-01
DAV:   2    -0.934295672045E+03   -0.42603E-01   -0.51544E-01 19196   0.135E+00    0.663E-01
DAV:   3    -0.934291396069E+03    0.42760E-02   -0.15747E-02 19828   0.314E-01    0.402E-01
DAV:   4    -0.934289555972E+03    0.18401E-02   -0.61835E-03 18924   0.211E-01    0.145E-01
DAV:   5    -0.934289197416E+03    0.35856E-03   -0.20916E-03 20012   0.152E-01    0.581E-02
DAV:   6    -0.934289095256E+03    0.10216E-03   -0.11401E-03 18964   0.830E-02    0.467E-02
DAV:   7    -0.934288975662E+03    0.11959E-03   -0.11708E-04 13308   0.373E-02    0.215E-02
DAV:   8    -0.934288861410E+03    0.11425E-03   -0.89379E-05 12884   0.513E-02    0.174E-02
DAV:   9    -0.934288830202E+03    0.31208E-04   -0.93411E-05 13484   0.413E-02
      8 T=   127. E= -.94199614E+03 F= -.94520942E+03 E0= -.94520942E+03  EK= 0.32133E+01 SP= 0.00E+00 SK= 0.00E+00
       N       E                     dE             d eps       ncg     rms          rms(c)
DAV:   1    -0.934085112980E+03    0.20375E+00   -0.18939E+01 16690   0.860E+00    0.975E-01
DAV:   2    -0.934130983571E+03   -0.45871E-01   -0.54133E-01 19364   0.139E+00    0.693E-01
DAV:   3    -0.934126223855E+03    0.47597E-02   -0.16702E-02 19852   0.324E-01    0.429E-01
DAV:   4    -0.934124086459E+03    0.21374E-02   -0.70501E-03 18980   0.219E-01    0.157E-01
DAV:   5    -0.934123710439E+03    0.37602E-03   -0.23218E-03 19724   0.156E-01    0.605E-02
DAV:   6    -0.934123631911E+03    0.78528E-04   -0.12560E-03 19188   0.855E-02    0.493E-02
DAV:   7    -0.934123522996E+03    0.10891E-03   -0.12455E-04 13228   0.364E-02    0.229E-02
DAV:   8    -0.934123422680E+03    0.10032E-03   -0.10420E-04 12860   0.468E-02    0.173E-02
DAV:   9    -0.934123394367E+03    0.28313E-04   -0.77502E-05 13492   0.355E-02
      9 T=   125. E= -.94188838E+03 F= -.94504008E+03 E0= -.94504008E+03  EK= 0.31517E+01 SP= 0.00E+00 SK= 0.00E+00
       N       E                     dE             d eps       ncg     rms          rms(c)
DAV:   1    -0.933800001172E+03    0.32342E+00   -0.18816E+01 16740   0.858E+00    0.955E-01
DAV:   2    -0.933847123793E+03   -0.47123E-01   -0.54359E-01 19532   0.139E+00    0.697E-01
DAV:   3    -0.933842490835E+03    0.46330E-02   -0.17325E-02 19836   0.325E-01    0.435E-01
DAV:   4    -0.933840448326E+03    0.20425E-02   -0.72478E-03 18996   0.212E-01    0.165E-01
DAV:   5    -0.933840082641E+03    0.36568E-03   -0.21407E-03 19756   0.148E-01    0.605E-02
DAV:   6    -0.933840032697E+03    0.49945E-04   -0.12315E-03 19244   0.834E-02    0.485E-02
DAV:   7    -0.933839942772E+03    0.89925E-04   -0.11549E-04 12908   0.344E-02
     10 T=   118. E= -.94178737E+03 F= -.94475456E+03 E0= -.94475456E+03  EK= 0.29672E+01 SP= 0.00E+00 SK= 0.00E+00
       N       E                     dE             d eps       ncg     rms          rms(c)
DAV:   1    -0.933452989865E+03    0.38704E+00   -0.17910E+01 16496   0.837E+00    0.919E-01
DAV:   2    -0.933497113017E+03   -0.44123E-01   -0.50854E-01 19524   0.135E+00    0.670E-01
DAV:   3    -0.933492869892E+03    0.42431E-02   -0.16696E-02 19836   0.315E-01    0.419E-01
DAV:   4    -0.933491027004E+03    0.18429E-02   -0.68134E-03 18964   0.202E-01    0.164E-01
DAV:   5    -0.933490658061E+03    0.36894E-03   -0.18752E-03 19708   0.137E-01    0.594E-02
DAV:   6    -0.933490610446E+03    0.47615E-04   -0.11441E-03 19180   0.800E-02    0.461E-02
DAV:   7    -0.933490529193E+03    0.81253E-04   -0.10605E-04 12908   0.334E-02
     11 T=   107. E= -.94170735E+03 F= -.94440490E+03 E0= -.94440490E+03  EK= 0.26976E+01 SP= 0.00E+00 SK= 0.00E+00
       N       E                     dE             d eps       ncg     rms          rms(c)
DAV:   1    -0.933113338100E+03    0.37727E+00   -0.16690E+01 16308   0.806E+00    0.891E-01
DAV:   2    -0.933151614171E+03   -0.38276E-01   -0.44746E-01 19340   0.127E+00    0.626E-01
DAV:   3    -0.933147922941E+03    0.36912E-02   -0.15396E-02 19836   0.300E-01    0.380E-01
DAV:   4    -0.933146532428E+03    0.13905E-02   -0.54712E-03 18972   0.178E-01    0.150E-01
DAV:   5    -0.933146272419E+03    0.26001E-03   -0.14713E-03 19780   0.116E-01    0.512E-02
DAV:   6    -0.933146246618E+03    0.25801E-04   -0.80520E-04 18972   0.646E-02
     12 T=    99. E= -.94157898E+03 F= -.94406221E+03 E0= -.94406221E+03  EK= 0.24832E+01 SP= 0.00E+00 SK= 0.00E+00
       N       E                     dE             d eps       ncg     rms          rms(c)
DAV:   1    -0.932875197261E+03    0.27108E+00   -0.15345E+01 16266   0.770E+00    0.857E-01
DAV:   2    -0.932907472727E+03   -0.32275E-01   -0.37798E-01 19180   0.116E+00    0.560E-01
DAV:   3    -0.932904656883E+03    0.28158E-02   -0.11713E-02 19828   0.259E-01    0.333E-01
DAV:   4    -0.932903729748E+03    0.92714E-03   -0.44140E-03 18924   0.158E-01    0.122E-01
DAV:   5    -0.932903620474E+03    0.10927E-03   -0.10617E-03 19652   0.910E-02    0.447E-02
DAV:   6    -0.932903600206E+03    0.20268E-04   -0.45477E-04 18156   0.474E-02
     13 T=    95. E= -.94141809E+03 F= -.94382269E+03 E0= -.94382269E+03  EK= 0.24046E+01 SP= 0.00E+00 SK= 0.00E+00
     14 T=    96. E= -.94134790E+03 F= -.94377387E+03 E0= -.94377387E+03  EK= 0.24260E+01 SP= 0.00E+00 SK= 0.00E+00
     15 T=   106. E= -.94126811E+03 F= -.94393562E+03 E0= -.94393562E+03  EK= 0.26675E+01 SP= 0.00E+00 SK= 0.00E+00
     16 T=   121. E= -.94117289E+03 F= -.94421924E+03 E0= -.94421924E+03  EK= 0.30464E+01 SP= 0.00E+00 SK= 0.00E+00
     17 T=   133. E= -.94111798E+03 F= -.94446294E+03 E0= -.94446294E+03  EK= 0.33450E+01 SP= 0.00E+00 SK= 0.00E+00
     18 T=   137. E= -.94106276E+03 F= -.94451616E+03 E0= -.94451616E+03  EK= 0.34534E+01 SP= 0.00E+00 SK= 0.00E+00
     19 T=   132. E= -.94102032E+03 F= -.94433703E+03 E0= -.94433703E+03  EK= 0.33167E+01 SP= 0.00E+00 SK= 0.00E+00
     20 T=   121. E= -.94095395E+03 F= -.94400776E+03 E0= -.94400776E+03  EK= 0.30538E+01 SP= 0.00E+00 SK= 0.00E+00
       N       E                     dE             d eps       ncg     rms          rms(c)
DAV:   1    -0.930914439629E+03    0.19892E+01   -0.90383E+02 16238   0.593E+01
DAV:   2    -0.933329144462E+03   -0.24147E+01   -0.24144E+01 19012   0.890E+00
DAV:   3    -0.933352816996E+03   -0.23673E-01   -0.23672E-01 19444   0.884E-01
DAV:   4    -0.933353343118E+03   -0.52612E-03   -0.52612E-03 19020   0.129E-01    0.655E+00
DAV:   5    -0.932797606332E+03    0.55574E+00   -0.12529E+00 19660   0.290E+00    0.334E+00
DAV:   6    -0.932737703498E+03    0.59903E-01   -0.64047E-01 19524   0.192E+00    0.128E+00
DAV:   7    -0.932734929360E+03    0.27741E-02   -0.15272E-01 19244   0.109E+00    0.465E-01
DAV:   8    -0.932731490677E+03    0.34387E-02   -0.25208E-02 19396   0.409E-01    0.251E-01
DAV:   9    -0.932727698376E+03    0.37923E-02   -0.78838E-03 18468   0.239E-01    0.116E-01
DAV:  10    -0.932726278921E+03    0.14195E-02   -0.16534E-03 21388   0.170E-01    0.736E-02
DAV:  11    -0.932725368019E+03    0.91090E-03   -0.16373E-03 18956   0.165E-01    0.523E-02
DAV:  12    -0.932725071411E+03    0.29661E-03   -0.95808E-04 19308   0.106E-01    0.488E-02
DAV:  13    -0.932724876182E+03    0.19523E-03   -0.37584E-04 17236   0.717E-02    0.201E-02
DAV:  14    -0.932724807648E+03    0.68534E-04   -0.73665E-05 13076   0.593E-02
     21 T=   113. E= -.94082885E+03 F= -.94367501E+03 E0= -.94367501E+03  EK= 0.28462E+01 SP= 0.00E+00 SK= 0.00E+00
     22 T=   109. E= -.94079598E+03 F= -.94354939E+03 E0= -.94354939E+03  EK= 0.27534E+01 SP= 0.00E+00 SK= 0.00E+00
     23 T=   115. E= -.94072454E+03 F= -.94362130E+03 E0= -.94362130E+03  EK= 0.28968E+01 SP= 0.00E+00 SK= 0.00E+00
     24 T=   125. E= -.94060489E+03 F= -.94374970E+03 E0= -.94374970E+03  EK= 0.31448E+01 SP= 0.00E+00 SK= 0.00E+00
     25 T=   133. E= -.94048054E+03 F= -.94383493E+03 E0= -.94383493E+03  EK= 0.33544E+01 SP= 0.00E+00 SK= 0.00E+00
     26 T=   136. E= -.94038364E+03 F= -.94381505E+03 E0= -.94381505E+03  EK= 0.34314E+01 SP= 0.00E+00 SK= 0.00E+00
       N       E                     dE             d eps       ncg     rms          rms(c)
DAV:   1    -0.931482524788E+03    0.12424E+01   -0.62458E+02 16246   0.491E+01
DAV:   2    -0.933188181368E+03   -0.17057E+01   -0.17055E+01 19188   0.749E+00
DAV:   3    -0.933204510344E+03   -0.16329E-01   -0.16329E-01 19452   0.738E-01
DAV:   4    -0.933204897284E+03   -0.38694E-03   -0.38694E-03 19076   0.108E-01    0.532E+00
DAV:   5    -0.932817481883E+03    0.38742E+00   -0.75776E-01 20268   0.222E+00    0.275E+00
DAV:   6    -0.932764113514E+03    0.53368E-01   -0.50626E-01 19548   0.163E+00    0.939E-01
DAV:   7    -0.932764898233E+03   -0.78472E-03   -0.10022E-01 18556   0.793E-01    0.379E-01
DAV:   8    -0.932762992535E+03    0.19057E-02   -0.11682E-02 18852   0.270E-01    0.180E-01
DAV:   9    -0.932761176916E+03    0.18156E-02   -0.32192E-03 18332   0.164E-01    0.765E-02
DAV:  10    -0.932760499276E+03    0.67764E-03   -0.84343E-04 20284   0.113E-01    0.408E-02
DAV:  11    -0.932760194418E+03    0.30486E-03   -0.61715E-04 18612   0.853E-02    0.322E-02
DAV:  12    -0.932760009160E+03    0.18526E-03   -0.13399E-04 13116   0.659E-02    0.141E-02
DAV:  13    -0.932759930002E+03    0.79158E-04   -0.14739E-04 13644   0.624E-02
     27 T=   134. E= -.94029677E+03 F= -.94367617E+03 E0= -.94367617E+03  EK= 0.33794E+01 SP= 0.00E+00 SK= 0.00E+00
     28 T=   129. E= -.94028643E+03 F= -.94354116E+03 E0= -.94354116E+03  EK= 0.32547E+01 SP= 0.00E+00 SK= 0.00E+00
     29 T=   129. E= -.94020034E+03 F= -.94344933E+03 E0= -.94344933E+03  EK= 0.32490E+01 SP= 0.00E+00 SK= 0.00E+00
     30 T=   135. E= -.94010375E+03 F= -.94349992E+03 E0= -.94349992E+03  EK= 0.33962E+01 SP= 0.00E+00 SK= 0.00E+00
     31 T=   144. E= -.94005694E+03 F= -.94367972E+03 E0= -.94367972E+03  EK= 0.36228E+01 SP= 0.00E+00 SK= 0.00E+00
     32 T=   154. E= -.94001920E+03 F= -.94390682E+03 E0= -.94390682E+03  EK= 0.38876E+01 SP= 0.00E+00 SK= 0.00E+00
     33 T=   161. E= -.94001054E+03 F= -.94407280E+03 E0= -.94407280E+03  EK= 0.40623E+01 SP= 0.00E+00 SK= 0.00E+00
     34 T=   162. E= -.93999790E+03 F= -.94408818E+03 E0= -.94408818E+03  EK= 0.40903E+01 SP= 0.00E+00 SK= 0.00E+00
     35 T=   157. E= -.93994596E+03 F= -.94391021E+03 E0= -.94391021E+03  EK= 0.39643E+01 SP= 0.00E+00 SK= 0.00E+00
     36 T=   150. E= -.93985814E+03 F= -.94363847E+03 E0= -.94363847E+03  EK= 0.37803E+01 SP= 0.00E+00 SK= 0.00E+00
       N       E                     dE             d eps       ncg     rms          rms(c)
DAV:   1    -0.929521595175E+03    0.32384E+01   -0.14716E+03 16238   0.755E+01
DAV:   2    -0.933102974136E+03   -0.35814E+01   -0.35808E+01 18956   0.107E+01
DAV:   3    -0.933140861759E+03   -0.37888E-01   -0.37886E-01 19436   0.111E+00
DAV:   4    -0.933141737190E+03   -0.87543E-03   -0.87542E-03 18980   0.162E-01    0.755E+00
DAV:   5    -0.932550749116E+03    0.59099E+00   -0.12254E+00 19620   0.292E+00    0.408E+00
DAV:   6    -0.932492209968E+03    0.58539E-01   -0.88345E-01 19468   0.228E+00    0.133E+00
DAV:   7    -0.932494833841E+03   -0.26239E-02   -0.19828E-01 18868   0.120E+00    0.496E-01
DAV:   8    -0.932490250313E+03    0.45835E-02   -0.26980E-02 18940   0.397E-01    0.273E-01
DAV:   9    -0.932485360246E+03    0.48901E-02   -0.87862E-03 18556   0.260E-01    0.132E-01
DAV:  10    -0.932483124993E+03    0.22353E-02   -0.19483E-03 21172   0.196E-01    0.782E-02
DAV:  11    -0.932481974606E+03    0.11504E-02   -0.27699E-03 19052   0.194E-01    0.717E-02
DAV:  12    -0.932481447702E+03    0.52690E-03   -0.12368E-03 19516   0.128E-01    0.374E-02
DAV:  13    -0.932481263505E+03    0.18420E-03   -0.47901E-04 16964   0.712E-02    0.345E-02
DAV:  14    -0.932481173099E+03    0.90406E-04   -0.84966E-05 13148   0.565E-02
     37 T=   146. E= -.93975638E+03 F= -.94343188E+03 E0= -.94343188E+03  EK= 0.36755E+01 SP= 0.00E+00 SK= 0.00E+00
     38 T=   146. E= -.93968198E+03 F= -.94336194E+03 E0= -.94336194E+03  EK= 0.36800E+01 SP= 0.00E+00 SK= 0.00E+00
     39 T=   150. E= -.93959648E+03 F= -.94338938E+03 E0= -.94338938E+03  EK= 0.37929E+01 SP= 0.00E+00 SK= 0.00E+00
     40 T=   156. E= -.93949747E+03 F= -.94342544E+03 E0= -.94342544E+03  EK= 0.39280E+01 SP= 0.00E+00 SK= 0.00E+00
     41 T=   156. E= -.93946704E+03 F= -.94340276E+03 E0= -.94340276E+03  EK= 0.39357E+01 SP= 0.00E+00 SK= 0.00E+00
     42 T=   155. E= -.93940286E+03 F= -.94330653E+03 E0= -.94330653E+03  EK= 0.39037E+01 SP= 0.00E+00 SK= 0.00E+00
     43 T=   153. E= -.93932645E+03 F= -.94318952E+03 E0= -.94318952E+03  EK= 0.38631E+01 SP= 0.00E+00 SK= 0.00E+00
     44 T=   151. E= -.93930564E+03 F= -.94311724E+03 E0= -.94311724E+03  EK= 0.38116E+01 SP= 0.00E+00 SK= 0.00E+00
     45 T=   153. E= -.93927893E+03 F= -.94312744E+03 E0= -.94312744E+03  EK= 0.38485E+01 SP= 0.00E+00 SK= 0.00E+00
     46 T=   155. E= -.93930429E+03 F= -.94321730E+03 E0= -.94321730E+03  EK= 0.39130E+01 SP= 0.00E+00 SK= 0.00E+00
       N       E                     dE             d eps       ncg     rms          rms(c)
DAV:   1    -0.928686890456E+03    0.37944E+01   -0.16908E+03 16238   0.801E+01
DAV:   2    -0.933196945645E+03   -0.45101E+01   -0.45092E+01 19052   0.119E+01
DAV:   3    -0.933243428455E+03   -0.46483E-01   -0.46481E-01 19460   0.124E+00
DAV:   4    -0.933244522630E+03   -0.10942E-02   -0.10942E-02 19044   0.181E-01    0.797E+00
DAV:   5    -0.932525693202E+03    0.71883E+00   -0.14668E+00 20908   0.326E+00    0.426E+00
DAV:   6    -0.932454355664E+03    0.71338E-01   -0.10603E+00 19604   0.239E+00    0.138E+00
DAV:   7    -0.932463031996E+03   -0.86763E-02   -0.20509E-01 18612   0.114E+00    0.509E-01
DAV:   8    -0.932459652040E+03    0.33800E-02   -0.20530E-02 18852   0.359E-01    0.273E-01
DAV:   9    -0.932456328506E+03    0.33235E-02   -0.10419E-02 18380   0.277E-01    0.153E-01
DAV:  10    -0.932454743312E+03    0.15852E-02   -0.24269E-03 21316   0.181E-01    0.644E-02
DAV:  11    -0.932454100728E+03    0.64258E-03   -0.16079E-03 18644   0.125E-01    0.520E-02
DAV:  12    -0.932453661124E+03    0.43960E-03   -0.41990E-04 16756   0.103E-01    0.258E-02
DAV:  13    -0.932453490416E+03    0.17071E-03   -0.30669E-04 15980   0.772E-02    0.239E-02
DAV:  14    -0.932453460103E+03    0.30313E-04   -0.19890E-04 14388   0.465E-02
     47 T=   162. E= -.93930265E+03 F= -.94338948E+03 E0= -.94338948E+03  EK= 0.40868E+01 SP= 0.00E+00 SK= 0.00E+00
     48 T=   170. E= -.93918022E+03 F= -.94346920E+03 E0= -.94346920E+03  EK= 0.42890E+01 SP= 0.00E+00 SK= 0.00E+00
     49 T=   172. E= -.93916548E+03 F= -.94350764E+03 E0= -.94350764E+03  EK= 0.43422E+01 SP= 0.00E+00 SK= 0.00E+00
     50 T=   171. E= -.93917324E+03 F= -.94349336E+03 E0= -.94349336E+03  EK= 0.43201E+01 SP= 0.00E+00 SK= 0.00E+00
     51 T=   167. E= -.93923983E+03 F= -.94344361E+03 E0= -.94344361E+03  EK= 0.42038E+01 SP= 0.00E+00 SK= 0.00E+00
     52 T=   164. E= -.93927621E+03 F= -.94341548E+03 E0= -.94341548E+03  EK= 0.41393E+01 SP= 0.00E+00 SK= 0.00E+00
       N       E                     dE             d eps       ncg     rms          rms(c)
DAV:   1    -0.930862984829E+03    0.15905E+01   -0.81039E+02 16246   0.561E+01
DAV:   2    -0.932981286871E+03   -0.21183E+01   -0.21180E+01 19092   0.830E+00
DAV:   3    -0.933002807899E+03   -0.21521E-01   -0.21521E-01 19460   0.835E-01
DAV:   4    -0.933003313695E+03   -0.50580E-03   -0.50579E-03 19116   0.123E-01    0.585E+00
DAV:   5    -0.932559092879E+03    0.44422E+00   -0.87949E-01 20724   0.254E+00    0.306E+00
DAV:   6    -0.932506301777E+03    0.52791E-01   -0.62115E-01 19532   0.181E+00    0.105E+00
DAV:   7    -0.932507225742E+03   -0.92397E-03   -0.13174E-01 18844   0.946E-01    0.405E-01
DAV:   8    -0.932504189358E+03    0.30364E-02   -0.16826E-02 19476   0.368E-01    0.189E-01
DAV:   9    -0.932501737111E+03    0.24522E-02   -0.51148E-03 18380   0.190E-01    0.100E-01
DAV:  10    -0.932500782614E+03    0.95450E-03   -0.14377E-03 21052   0.136E-01    0.424E-02
DAV:  11    -0.932500342054E+03    0.44056E-03   -0.69378E-04 18628   0.887E-02    0.373E-02
DAV:  12    -0.932500050233E+03    0.29182E-03   -0.13038E-04 13132   0.737E-02    0.187E-02
DAV:  13    -0.932499924763E+03    0.12547E-03   -0.27385E-04 14916   0.792E-02    0.192E-02
DAV:  14    -0.932499930094E+03   -0.53309E-05   -0.23456E-04 15220   0.343E-02
     53 T=   166. E= -.93926670E+03 F= -.94344465E+03 E0= -.94344465E+03  EK= 0.41779E+01 SP= 0.00E+00 SK= 0.00E+00
     54 T=   166. E= -.93926665E+03 F= -.94345240E+03 E0= -.94345240E+03  EK= 0.41858E+01 SP= 0.00E+00 SK= 0.00E+00
     55 T=   165. E= -.93926407E+03 F= -.94342435E+03 E0= -.94342435E+03  EK= 0.41603E+01 SP= 0.00E+00 SK= 0.00E+00
     56 T=   162. E= -.93922564E+03 F= -.94330556E+03 E0= -.94330556E+03  EK= 0.40799E+01 SP= 0.00E+00 SK= 0.00E+00
     57 T=   155. E= -.93921511E+03 F= -.94311386E+03 E0= -.94311386E+03  EK= 0.38988E+01 SP= 0.00E+00 SK= 0.00E+00
     58 T=   151. E= -.93912750E+03 F= -.94293257E+03 E0= -.94293257E+03  EK= 0.38051E+01 SP= 0.00E+00 SK= 0.00E+00
     59 T=   149. E= -.93902932E+03 F= -.94277332E+03 E0= -.94277332E+03  EK= 0.37440E+01 SP= 0.00E+00 SK= 0.00E+00
     60 T=   150. E= -.93898712E+03 F= -.94275668E+03 E0= -.94275668E+03  EK= 0.37696E+01 SP= 0.00E+00 SK= 0.00E+00
       N       E                     dE             d eps       ncg     rms          rms(c)
DAV:   1    -0.929469125380E+03    0.30308E+01   -0.11673E+03 16238   0.670E+01
DAV:   2    -0.932534332514E+03   -0.30652E+01   -0.30648E+01 19092   0.100E+01
DAV:   3    -0.932565053841E+03   -0.30721E-01   -0.30720E-01 19468   0.101E+00
DAV:   4    -0.932565770577E+03   -0.71674E-03   -0.71673E-03 19100   0.147E-01    0.696E+00
DAV:   5    -0.931975932843E+03    0.58984E+00   -0.11522E+00 20500   0.296E+00    0.370E+00
DAV:   6    -0.931906995206E+03    0.68938E-01   -0.85641E-01 19516   0.218E+00    0.125E+00
DAV:   7    -0.931908386930E+03   -0.13917E-02   -0.17611E-01 18812   0.112E+00    0.464E-01
DAV:   8    -0.931905176969E+03    0.32100E-02   -0.22059E-02 18652   0.388E-01    0.238E-01
DAV:   9    -0.931902492476E+03    0.26845E-02   -0.10293E-02 18388   0.244E-01    0.159E-01
DAV:  10    -0.931900916262E+03    0.15762E-02   -0.22436E-03 22580   0.177E-01    0.556E-02
DAV:  11    -0.931900331815E+03    0.58445E-03   -0.14433E-03 18556   0.116E-01    0.488E-02
DAV:  12    -0.931899966590E+03    0.36523E-03   -0.35024E-04 16428   0.845E-02    0.249E-02
DAV:  13    -0.931899820764E+03    0.14583E-03   -0.22500E-04 13556   0.642E-02    0.199E-02
DAV:  14    -0.931899801799E+03    0.18966E-04   -0.14713E-04 13732   0.374E-02
     61 T=   154. E= -.93899068E+03 F= -.94286375E+03 E0= -.94286375E+03  EK= 0.38731E+01 SP= 0.00E+00 SK= 0.00E+00
     62 T=   160. E= -.93896738E+03 F= -.94300360E+03 E0= -.94300360E+03  EK= 0.40362E+01 SP= 0.00E+00 SK= 0.00E+00
     63 T=   169. E= -.93889636E+03 F= -.94314508E+03 E0= -.94314508E+03  EK= 0.42487E+01 SP= 0.00E+00 SK= 0.00E+00
     64 T=   173. E= -.93883788E+03 F= -.94319742E+03 E0= -.94319742E+03  EK= 0.43595E+01 SP= 0.00E+00 SK= 0.00E+00
     65 T=   169. E= -.93885106E+03 F= -.94312241E+03 E0= -.94312241E+03  EK= 0.42713E+01 SP= 0.00E+00 SK= 0.00E+00
     66 T=   163. E= -.93883416E+03 F= -.94294521E+03 E0= -.94294521E+03  EK= 0.41111E+01 SP= 0.00E+00 SK= 0.00E+00
     67 T=   158. E= -.93879689E+03 F= -.94277897E+03 E0= -.94277897E+03  EK= 0.39821E+01 SP= 0.00E+00 SK= 0.00E+00
     68 T=   159. E= -.93876782E+03 F= -.94276467E+03 E0= -.94276467E+03  EK= 0.39969E+01 SP= 0.00E+00 SK= 0.00E+00
     69 T=   165. E= -.93874831E+03 F= -.94291641E+03 E0= -.94291641E+03  EK= 0.41681E+01 SP= 0.00E+00 SK= 0.00E+00
     70 T=   173. E= -.93872320E+03 F= -.94309534E+03 E0= -.94309534E+03  EK= 0.43721E+01 SP= 0.00E+00 SK= 0.00E+00
       N       E                     dE             d eps       ncg     rms          rms(c)
DAV:   1    -0.928745948834E+03    0.31539E+01   -0.16729E+03 16238   0.805E+01
DAV:   2    -0.932881093271E+03   -0.41351E+01   -0.41344E+01 18996   0.116E+01
DAV:   3    -0.932923510535E+03   -0.42417E-01   -0.42416E-01 19452   0.119E+00
DAV:   4    -0.932924501852E+03   -0.99132E-03   -0.99130E-03 19028   0.175E-01    0.807E+00
DAV:   5    -0.932265517233E+03    0.65898E+00   -0.14044E+00 20772   0.307E+00    0.434E+00
DAV:   6    -0.932220598732E+03    0.44919E-01   -0.99452E-01 19156   0.217E+00    0.136E+00
DAV:   7    -0.932232615905E+03   -0.12017E-01   -0.17955E-01 19228   0.110E+00    0.478E-01
DAV:   8    -0.932230544630E+03    0.20713E-02   -0.20190E-02 18812   0.353E-01    0.254E-01
DAV:   9    -0.932228591942E+03    0.19527E-02   -0.97826E-03 18204   0.231E-01    0.150E-01
DAV:  10    -0.932227444725E+03    0.11472E-02   -0.21657E-03 22428   0.166E-01    0.463E-02
DAV:  11    -0.932227127605E+03    0.31712E-03   -0.10876E-03 18652   0.902E-02    0.405E-02
DAV:  12    -0.932226837357E+03    0.29025E-03   -0.10952E-04 12804   0.676E-02    0.174E-02
DAV:  13    -0.932226712728E+03    0.12463E-03   -0.27454E-04 15284   0.741E-02    0.218E-02
DAV:  14    -0.932226704582E+03    0.81457E-05   -0.18611E-04 13748   0.372E-02
     71 T=   181. E= -.93861446E+03 F= -.94318405E+03 E0= -.94318405E+03  EK= 0.45696E+01 SP= 0.00E+00 SK= 0.00E+00
     72 T=   182. E= -.93861269E+03 F= -.94320563E+03 E0= -.94320563E+03  EK= 0.45929E+01 SP= 0.00E+00 SK= 0.00E+00
     73 T=   176. E= -.93862150E+03 F= -.94304754E+03 E0= -.94304754E+03  EK= 0.44260E+01 SP= 0.00E+00 SK= 0.00E+00
     74 T=   167. E= -.93861509E+03 F= -.94282843E+03 E0= -.94282843E+03  EK= 0.42133E+01 SP= 0.00E+00 SK= 0.00E+00
     75 T=   161. E= -.93862647E+03 F= -.94268856E+03 E0= -.94268856E+03  EK= 0.40621E+01 SP= 0.00E+00 SK= 0.00E+00
     76 T=   161. E= -.93863119E+03 F= -.94269792E+03 E0= -.94269792E+03  EK= 0.40667E+01 SP= 0.00E+00 SK= 0.00E+00
       N       E                     dE             d eps       ncg     rms          rms(c)
DAV:   1    -0.930363763859E+03    0.18629E+01   -0.74701E+02 16238   0.540E+01
DAV:   2    -0.932281112549E+03   -0.19173E+01   -0.19171E+01 19108   0.799E+00
DAV:   3    -0.932300501819E+03   -0.19389E-01   -0.19389E-01 19484   0.796E-01
DAV:   4    -0.932300951477E+03   -0.44966E-03   -0.44965E-03 19044   0.117E-01    0.593E+00
DAV:   5    -0.931860202330E+03    0.44075E+00   -0.97730E-01 20372   0.270E+00    0.304E+00
DAV:   6    -0.931820013867E+03    0.40188E-01   -0.57727E-01 19476   0.175E+00    0.114E+00
DAV:   7    -0.931818814879E+03    0.11990E-02   -0.12303E-01 19476   0.963E-01    0.402E-01
DAV:   8    -0.931815857589E+03    0.29573E-02   -0.18432E-02 19388   0.371E-01    0.202E-01
DAV:   9    -0.931813122863E+03    0.27347E-02   -0.68592E-03 18316   0.212E-01    0.119E-01
DAV:  10    -0.931812018186E+03    0.11047E-02   -0.14576E-03 21508   0.145E-01    0.592E-02
DAV:  11    -0.931811419627E+03    0.59856E-03   -0.10873E-03 18612   0.119E-01    0.427E-02
DAV:  12    -0.931811145414E+03    0.27421E-03   -0.41606E-04 17884   0.822E-02    0.324E-02
DAV:  13    -0.931810971001E+03    0.17441E-03   -0.11996E-04 13332   0.667E-02    0.110E-02
DAV:  14    -0.931810952419E+03    0.18582E-04   -0.21037E-04 15028   0.469E-02
     77 T=   168. E= -.93855106E+03 F= -.94277880E+03 E0= -.94277880E+03  EK= 0.42277E+01 SP= 0.00E+00 SK= 0.00E+00
     78 T=   170. E= -.93862111E+03 F= -.94291149E+03 E0= -.94291149E+03  EK= 0.42904E+01 SP= 0.00E+00 SK= 0.00E+00
     79 T=   171. E= -.93872897E+03 F= -.94303034E+03 E0= -.94303034E+03  EK= 0.43014E+01 SP= 0.00E+00 SK= 0.00E+00
     80 T=   169. E= -.93878468E+03 F= -.94305002E+03 E0= -.94305002E+03  EK= 0.42653E+01 SP= 0.00E+00 SK= 0.00E+00
     81 T=   164. E= -.93881573E+03 F= -.94294759E+03 E0= -.94294759E+03  EK= 0.41319E+01 SP= 0.00E+00 SK= 0.00E+00
     82 T=   158. E= -.93883576E+03 F= -.94281257E+03 E0= -.94281257E+03  EK= 0.39768E+01 SP= 0.00E+00 SK= 0.00E+00
     83 T=   153. E= -.93886490E+03 F= -.94273137E+03 E0= -.94273137E+03  EK= 0.38665E+01 SP= 0.00E+00 SK= 0.00E+00
     84 T=   150. E= -.93893851E+03 F= -.94271747E+03 E0= -.94271747E+03  EK= 0.37790E+01 SP= 0.00E+00 SK= 0.00E+00
     85 T=   153. E= -.93892805E+03 F= -.94278478E+03 E0= -.94278478E+03  EK= 0.38567E+01 SP= 0.00E+00 SK= 0.00E+00
     86 T=   161. E= -.93882471E+03 F= -.94288663E+03 E0= -.94288663E+03  EK= 0.40619E+01 SP= 0.00E+00 SK= 0.00E+00
       N       E                     dE             d eps       ncg     rms          rms(c)
DAV:   1    -0.928724890475E+03    0.30861E+01   -0.15462E+03 16238   0.771E+01
DAV:   2    -0.932615941169E+03   -0.38911E+01   -0.38904E+01 19052   0.112E+01
DAV:   3    -0.932655770697E+03   -0.39830E-01   -0.39828E-01 19476   0.115E+00
DAV:   4    -0.932656688969E+03   -0.91827E-03   -0.91825E-03 19076   0.168E-01    0.781E+00
DAV:   5    -0.932004435516E+03    0.65225E+00   -0.14379E+00 20780   0.314E+00    0.415E+00
DAV:   6    -0.931953895671E+03    0.50540E-01   -0.93463E-01 19484   0.217E+00    0.139E+00
DAV:   7    -0.931964364299E+03   -0.10469E-01   -0.19959E-01 19572   0.117E+00    0.502E-01
DAV:   8    -0.931961304785E+03    0.30595E-02   -0.25534E-02 19076   0.406E-01    0.261E-01
DAV:   9    -0.931958942691E+03    0.23621E-02   -0.97050E-03 18100   0.209E-01    0.140E-01
DAV:  10    -0.931957738007E+03    0.12047E-02   -0.17889E-03 22300   0.155E-01    0.452E-02
DAV:  11    -0.931957410677E+03    0.32733E-03   -0.10639E-03 18564   0.842E-02    0.442E-02
DAV:  12    -0.931957146295E+03    0.26438E-03   -0.16413E-04 13084   0.532E-02    0.160E-02
DAV:  13    -0.931957044192E+03    0.10210E-03   -0.19927E-04 13924   0.506E-02    0.251E-02
DAV:  14    -0.931957024562E+03    0.19629E-04   -0.12871E-04 13716   0.341E-02
     87 T=   165. E= -.93873959E+03 F= -.94289746E+03 E0= -.94289746E+03  EK= 0.41579E+01 SP= 0.00E+00 SK= 0.00E+00
     88 T=   165. E= -.93867071E+03 F= -.94283379E+03 E0= -.94283379E+03  EK= 0.41631E+01 SP= 0.00E+00 SK= 0.00E+00
     89 T=   160. E= -.93864096E+03 F= -.94266605E+03 E0= -.94266605E+03  EK= 0.40251E+01 SP= 0.00E+00 SK= 0.00E+00
     90 T=   154. E= -.93859877E+03 F= -.94248780E+03 E0= -.94248780E+03  EK= 0.38890E+01 SP= 0.00E+00 SK= 0.00E+00
     91 T=   153. E= -.93853845E+03 F= -.94239293E+03 E0= -.94239293E+03  EK= 0.38545E+01 SP= 0.00E+00 SK= 0.00E+00
     92 T=   155. E= -.93853707E+03 F= -.94245258E+03 E0= -.94245258E+03  EK= 0.39155E+01 SP= 0.00E+00 SK= 0.00E+00
     93 T=   167. E= -.93841034E+03 F= -.94261137E+03 E0= -.94261137E+03  EK= 0.42010E+01 SP= 0.00E+00 SK= 0.00E+00
     94 T=   178. E= -.93827229E+03 F= -.94276422E+03 E0= -.94276422E+03  EK= 0.44919E+01 SP= 0.00E+00 SK= 0.00E+00
     95 T=   181. E= -.93821993E+03 F= -.94278751E+03 E0= -.94278751E+03  EK= 0.45676E+01 SP= 0.00E+00 SK= 0.00E+00
     96 T=   178. E= -.93817988E+03 F= -.94266159E+03 E0= -.94266159E+03  EK= 0.44817E+01 SP= 0.00E+00 SK= 0.00E+00
       N       E                     dE             d eps       ncg     rms          rms(c)
DAV:   1    -0.928152481895E+03    0.38046E+01   -0.16209E+03 16238   0.791E+01
DAV:   2    -0.932185517389E+03   -0.40330E+01   -0.40323E+01 19044   0.114E+01
DAV:   3    -0.932228559730E+03   -0.43042E-01   -0.43041E-01 19476   0.118E+00
DAV:   4    -0.932229575231E+03   -0.10155E-02   -0.10155E-02 19068   0.174E-01    0.803E+00
DAV:   5    -0.931548048378E+03    0.68153E+00   -0.15081E+00 20740   0.331E+00    0.425E+00
DAV:   6    -0.931494180780E+03    0.53868E-01   -0.96807E-01 19340   0.222E+00    0.146E+00
DAV:   7    -0.931500987487E+03   -0.68067E-02   -0.19875E-01 18596   0.116E+00    0.505E-01
DAV:   8    -0.931497503124E+03    0.34844E-02   -0.23980E-02 18716   0.415E-01    0.253E-01
DAV:   9    -0.931495016646E+03    0.24865E-02   -0.10994E-02 18156   0.231E-01    0.154E-01
DAV:  10    -0.931493761041E+03    0.12556E-02   -0.23150E-03 23044   0.163E-01    0.458E-02
DAV:  11    -0.931493359265E+03    0.40178E-03   -0.96380E-04 18372   0.826E-02    0.410E-02
DAV:  12    -0.931493090586E+03    0.26868E-03   -0.14037E-04 13036   0.603E-02    0.191E-02
DAV:  13    -0.931492974088E+03    0.11650E-03   -0.23807E-04 14188   0.621E-02    0.190E-02
DAV:  14    -0.931492966992E+03    0.70960E-05   -0.14010E-04 13772   0.303E-02
     97 T=   169. E= -.93818682E+03 F= -.94244609E+03 E0= -.94244609E+03  EK= 0.42593E+01 SP= 0.00E+00 SK= 0.00E+00
     98 T=   165. E= -.93822942E+03 F= -.94237895E+03 E0= -.94237895E+03  EK= 0.41495E+01 SP= 0.00E+00 SK= 0.00E+00
     99 T=   169. E= -.93819095E+03 F= -.94244338E+03 E0= -.94244338E+03  EK= 0.42524E+01 SP= 0.00E+00 SK= 0.00E+00
    100 T=   177. E= -.93818397E+03 F= -.94265799E+03 E0= -.94265799E+03  EK= 0.44740E+01 SP= 0.00E+00 SK= 0.00E+00
    101 T=   185. E= -.93824289E+03 F= -.94290630E+03 E0= -.94290630E+03  EK= 0.46634E+01 SP= 0.00E+00 SK= 0.00E+00
       N       E                     dE             d eps       ncg     rms          rms(c)
DAV:   1    -0.930945439295E+03    0.54753E+00   -0.58046E+02 16238   0.476E+01
DAV:   2    -0.932481488882E+03   -0.15360E+01   -0.15359E+01 19172   0.706E+00
DAV:   3    -0.932496717491E+03   -0.15229E-01   -0.15228E-01 19436   0.700E-01
DAV:   4    -0.932497073857E+03   -0.35637E-03   -0.35636E-03 19148   0.104E-01    0.524E+00
DAV:   5    -0.932154221044E+03    0.34285E+00   -0.77548E-01 20684   0.236E+00    0.266E+00
DAV:   6    -0.932119230873E+03    0.34990E-01   -0.41153E-01 19428   0.147E+00    0.101E+00
DAV:   7    -0.932118208442E+03    0.10224E-02   -0.98034E-02 19620   0.863E-01    0.362E-01
DAV:   8    -0.932116103535E+03    0.21049E-02   -0.15931E-02 19828   0.332E-01    0.186E-01
DAV:   9    -0.932114317859E+03    0.17857E-02   -0.51989E-03 18196   0.162E-01    0.100E-01
DAV:  10    -0.932113528809E+03    0.78905E-03   -0.77535E-04 19980   0.116E-01    0.446E-02
DAV:  11    -0.932113187545E+03    0.34126E-03   -0.83157E-04 18556   0.963E-02    0.369E-02
DAV:  12    -0.932113036993E+03    0.15055E-03   -0.23688E-04 14908   0.552E-02    0.199E-02
DAV:  13    -0.932112949018E+03    0.87975E-04   -0.10747E-04 12844   0.503E-02
    102 T=   191. E= -.93823292E+03 F= -.94305543E+03 E0= -.94305543E+03  EK= 0.48225E+01 SP= 0.00E+00 SK= 0.00E+00
    103 T=   194. E= -.93823284E+03 F= -.94312155E+03 E0= -.94312155E+03  EK= 0.48887E+01 SP= 0.00E+00 SK= 0.00E+00
    104 T=   190. E= -.93825794E+03 F= -.94304453E+03 E0= -.94304453E+03  EK= 0.47866E+01 SP= 0.00E+00 SK= 0.00E+00
    105 T=   183. E= -.93825600E+03 F= -.94287142E+03 E0= -.94287142E+03  EK= 0.46154E+01 SP= 0.00E+00 SK= 0.00E+00
    106 T=   177. E= -.93828251E+03 F= -.94273444E+03 E0= -.94273444E+03  EK= 0.44519E+01 SP= 0.00E+00 SK= 0.00E+00
    107 T=   176. E= -.93829346E+03 F= -.94271832E+03 E0= -.94271832E+03  EK= 0.44249E+01 SP= 0.00E+00 SK= 0.00E+00
    108 T=   182. E= -.93822618E+03 F= -.94281956E+03 E0= -.94281956E+03  EK= 0.45934E+01 SP= 0.00E+00 SK= 0.00E+00
    109 T=   188. E= -.93820286E+03 F= -.94293216E+03 E0= -.94293216E+03  EK= 0.47293E+01 SP= 0.00E+00 SK= 0.00E+00
    110 T=   188. E= -.93820509E+03 F= -.94293584E+03 E0= -.94293584E+03  EK= 0.47308E+01 SP= 0.00E+00 SK= 0.00E+00
    111 T=   185. E= -.93816955E+03 F= -.94283058E+03 E0= -.94283058E+03  EK= 0.46610E+01 SP= 0.00E+00 SK= 0.00E+00
       N       E                     dE             d eps       ncg     rms          rms(c)
DAV:   1    -0.927724304878E+03    0.43887E+01   -0.19568E+03 16238   0.868E+01
DAV:   2    -0.932510879468E+03   -0.47866E+01   -0.47857E+01 19028   0.124E+01
DAV:   3    -0.932562151173E+03   -0.51272E-01   -0.51270E-01 19508   0.130E+00
DAV:   4    -0.932563370935E+03   -0.12198E-02   -0.12197E-02 19092   0.190E-01    0.846E+00
DAV:   5    -0.931830429159E+03    0.73294E+00   -0.15508E+00 20084   0.333E+00    0.456E+00
DAV:   6    -0.931767861890E+03    0.62567E-01   -0.10848E+00 19324   0.230E+00    0.149E+00
DAV:   7    -0.931775157779E+03   -0.72959E-02   -0.23275E-01 19052   0.134E+00    0.545E-01
DAV:   8    -0.931771351142E+03    0.38066E-02   -0.36359E-02 18780   0.504E-01    0.262E-01
DAV:   9    -0.931768491442E+03    0.28597E-02   -0.10425E-02 18292   0.215E-01    0.143E-01
DAV:  10    -0.931767208617E+03    0.12828E-02   -0.20827E-03 22572   0.168E-01    0.492E-02
DAV:  11    -0.931766851118E+03    0.35750E-03   -0.12570E-03 18556   0.963E-02    0.499E-02
DAV:  12    -0.931766527354E+03    0.32376E-03   -0.16637E-04 13108   0.610E-02    0.189E-02
DAV:  13    -0.931766405625E+03    0.12173E-03   -0.27249E-04 15412   0.678E-02    0.270E-02
DAV:  14    -0.931766388302E+03    0.17323E-04   -0.19129E-04 13772   0.418E-02
    112 T=   179. E= -.93819305E+03 F= -.94270955E+03 E0= -.94270955E+03  EK= 0.45165E+01 SP= 0.00E+00 SK= 0.00E+00
    113 T=   175. E= -.93819244E+03 F= -.94260464E+03 E0= -.94260464E+03  EK= 0.44122E+01 SP= 0.00E+00 SK= 0.00E+00
    114 T=   177. E= -.93812601E+03 F= -.94258207E+03 E0= -.94258207E+03  EK= 0.44561E+01 SP= 0.00E+00 SK= 0.00E+00
    115 T=   182. E= -.93801703E+03 F= -.94261152E+03 E0= -.94261152E+03  EK= 0.45945E+01 SP= 0.00E+00 SK= 0.00E+00
    116 T=   181. E= -.93801905E+03 F= -.94258614E+03 E0= -.94258614E+03  EK= 0.45671E+01 SP= 0.00E+00 SK= 0.00E+00
    117 T=   177. E= -.93806681E+03 F= -.94252355E+03 E0= -.94252355E+03  EK= 0.44567E+01 SP= 0.00E+00 SK= 0.00E+00
    118 T=   175. E= -.93802474E+03 F= -.94242600E+03 E0= -.94242600E+03  EK= 0.44013E+01 SP= 0.00E+00 SK= 0.00E+00
    119 T=   172. E= -.93801236E+03 F= -.94234678E+03 E0= -.94234678E+03  EK= 0.43344E+01 SP= 0.00E+00 SK= 0.00E+00
    120 T=   168. E= -.93809394E+03 F= -.94232338E+03 E0= -.94232338E+03  EK= 0.42294E+01 SP= 0.00E+00 SK= 0.00E+00
    121 T=   169. E= -.93813450E+03 F= -.94238536E+03 E0= -.94238536E+03  EK= 0.42509E+01 SP= 0.00E+00 SK= 0.00E+00
       N       E                     dE             d eps       ncg     rms          rms(c)
DAV:   1    -0.927694990158E+03    0.40714E+01   -0.18741E+03 16238   0.850E+01
DAV:   2    -0.932388406255E+03   -0.46934E+01   -0.46925E+01 19116   0.123E+01
DAV:   3    -0.932437973869E+03   -0.49568E-01   -0.49565E-01 19508   0.128E+00
DAV:   4    -0.932439146989E+03   -0.11731E-02   -0.11731E-02 19132   0.188E-01    0.840E+00
DAV:   5    -0.931650460234E+03    0.78869E+00   -0.15887E+00 20668   0.344E+00    0.449E+00
DAV:   6    -0.931565522760E+03    0.84937E-01   -0.11431E+00 19548   0.254E+00    0.146E+00
DAV:   7    -0.931573183376E+03   -0.76606E-02   -0.24343E-01 18732   0.127E+00    0.545E-01
DAV:   8    -0.931568758393E+03    0.44250E-02   -0.27222E-02 18668   0.416E-01    0.290E-01
DAV:   9    -0.931565232472E+03    0.35259E-02   -0.11877E-02 18212   0.264E-01    0.162E-01
DAV:  10    -0.931563393231E+03    0.18392E-02   -0.26098E-03 22156   0.194E-01    0.547E-02
DAV:  11    -0.931562798202E+03    0.59503E-03   -0.15540E-03 18660   0.117E-01    0.532E-02
DAV:  12    -0.931562389803E+03    0.40840E-03   -0.38247E-04 17084   0.853E-02    0.231E-02
DAV:  13    -0.931562236996E+03    0.15281E-03   -0.21139E-04 13348   0.681E-02    0.251E-02
DAV:  14    -0.931562219821E+03    0.17175E-04   -0.21724E-04 14788   0.410E-02
    122 T=   174. E= -.93810717E+03 F= -.94249454E+03 E0= -.94249454E+03  EK= 0.43874E+01 SP= 0.00E+00 SK= 0.00E+00
    123 T=   178. E= -.93808725E+03 F= -.94257823E+03 E0= -.94257823E+03  EK= 0.44910E+01 SP= 0.00E+00 SK= 0.00E+00
    124 T=   178. E= -.93809107E+03 F= -.94258268E+03 E0= -.94258268E+03  EK= 0.44916E+01 SP= 0.00E+00 SK= 0.00E+00
    125 T=   174. E= -.93812340E+03 F= -.94250680E+03 E0= -.94250680E+03  EK= 0.43834E+01 SP= 0.00E+00 SK= 0.00E+00
    126 T=   169. E= -.93812859E+03 F= -.94239441E+03 E0= -.94239441E+03  EK= 0.42658E+01 SP= 0.00E+00 SK= 0.00E+00
    127 T=   170. E= -.93805547E+03 F= -.94235125E+03 E0= -.94235125E+03  EK= 0.42958E+01 SP= 0.00E+00 SK= 0.00E+00
    128 T=   174. E= -.93796582E+03 F= -.94235823E+03 E0= -.94235823E+03  EK= 0.43924E+01 SP= 0.00E+00 SK= 0.00E+00
    129 T=   179. E= -.93793405E+03 F= -.94245680E+03 E0= -.94245680E+03  EK= 0.45227E+01 SP= 0.00E+00 SK= 0.00E+00
    130 T=   186. E= -.93789645E+03 F= -.94258604E+03 E0= -.94258604E+03  EK= 0.46896E+01 SP= 0.00E+00 SK= 0.00E+00
    131 T=   190. E= -.93790115E+03 F= -.94268779E+03 E0= -.94268779E+03  EK= 0.47866E+01 SP= 0.00E+00 SK= 0.00E+00
       N       E                     dE             d eps       ncg     rms          rms(c)
DAV:   1    -0.928349457248E+03    0.32128E+01   -0.16598E+03 16238   0.800E+01
DAV:   2    -0.932396775556E+03   -0.40473E+01   -0.40466E+01 19076   0.115E+01
DAV:   3    -0.932439458017E+03   -0.42682E-01   -0.42681E-01 19460   0.118E+00
DAV:   4    -0.932440455827E+03   -0.99781E-03   -0.99779E-03 19076   0.173E-01    0.804E+00
DAV:   5    -0.931845125356E+03    0.59533E+00   -0.12539E+00 19692   0.297E+00    0.438E+00
DAV:   6    -0.931806991009E+03    0.38134E-01   -0.98248E-01 19404   0.230E+00    0.134E+00
DAV:   7    -0.931815251379E+03   -0.82604E-02   -0.19979E-01 18804   0.118E+00    0.509E-01
DAV:   8    -0.931811797020E+03    0.34544E-02   -0.24918E-02 18844   0.404E-01    0.254E-01
DAV:   9    -0.931809138199E+03    0.26588E-02   -0.88489E-03 18388   0.231E-01    0.135E-01
DAV:  10    -0.931807752152E+03    0.13860E-02   -0.16947E-03 21660   0.169E-01    0.506E-02
DAV:  11    -0.931807329843E+03    0.42231E-03   -0.14173E-03 18860   0.115E-01    0.510E-02
DAV:  12    -0.931807001435E+03    0.32841E-03   -0.33924E-04 16204   0.839E-02    0.204E-02
DAV:  13    -0.931806882134E+03    0.11930E-03   -0.19323E-04 13596   0.719E-02    0.305E-02
DAV:  14    -0.931806854153E+03    0.27981E-04   -0.23412E-04 14612   0.500E-02
    132 T=   190. E= -.93798802E+03 F= -.94276606E+03 E0= -.94276606E+03  EK= 0.47780E+01 SP= 0.00E+00 SK= 0.00E+00
    133 T=   190. E= -.93791117E+03 F= -.94270298E+03 E0= -.94270298E+03  EK= 0.47918E+01 SP= 0.00E+00 SK= 0.00E+00
    134 T=   192. E= -.93782227E+03 F= -.94266005E+03 E0= -.94266005E+03  EK= 0.48378E+01 SP= 0.00E+00 SK= 0.00E+00
    135 T=   193. E= -.93779457E+03 F= -.94265941E+03 E0= -.94265941E+03  EK= 0.48648E+01 SP= 0.00E+00 SK= 0.00E+00
    136 T=   192. E= -.93783036E+03 F= -.94267790E+03 E0= -.94267790E+03  EK= 0.48475E+01 SP= 0.00E+00 SK= 0.00E+00
    137 T=   193. E= -.93785701E+03 F= -.94271406E+03 E0= -.94271406E+03  EK= 0.48571E+01 SP= 0.00E+00 SK= 0.00E+00
    138 T=   198. E= -.93775340E+03 F= -.94274269E+03 E0= -.94274269E+03  EK= 0.49893E+01 SP= 0.00E+00 SK= 0.00E+00
    139 T=   203. E= -.93756973E+03 F= -.94269645E+03 E0= -.94269645E+03  EK= 0.51267E+01 SP= 0.00E+00 SK= 0.00E+00
    140 T=   198. E= -.93759731E+03 F= -.94258332E+03 E0= -.94258332E+03  EK= 0.49860E+01 SP= 0.00E+00 SK= 0.00E+00
    141 T=   191. E= -.93766287E+03 F= -.94247689E+03 E0= -.94247689E+03  EK= 0.48140E+01 SP= 0.00E+00 SK= 0.00E+00
       N       E                     dE             d eps       ncg     rms          rms(c)
DAV:   1    -0.927043349123E+03    0.47635E+01   -0.20239E+03 16238   0.882E+01
DAV:   2    -0.932151133490E+03   -0.51078E+01   -0.51068E+01 19044   0.128E+01
DAV:   3    -0.932203692691E+03   -0.52559E-01   -0.52557E-01 19444   0.132E+00
DAV:   4    -0.932204892644E+03   -0.12000E-02   -0.11999E-02 19068   0.192E-01    0.868E+00
DAV:   5    -0.931459421583E+03    0.74547E+00   -0.15420E+00 20716   0.336E+00    0.470E+00
DAV:   6    -0.931400008127E+03    0.59413E-01   -0.12080E+00 19572   0.260E+00    0.147E+00
DAV:   7    -0.931412632877E+03   -0.12625E-01   -0.25216E-01 18588   0.129E+00    0.554E-01
DAV:   8    -0.931408830084E+03    0.38028E-02   -0.26604E-02 18572   0.407E-01    0.300E-01
DAV:   9    -0.931406061740E+03    0.27683E-02   -0.14690E-02 18300   0.289E-01    0.184E-01
DAV:  10    -0.931404446239E+03    0.16155E-02   -0.31789E-03 22308   0.196E-01    0.569E-02
DAV:  11    -0.931403994198E+03    0.45204E-03   -0.15279E-03 18460   0.108E-01    0.477E-02
DAV:  12    -0.931403698901E+03    0.29530E-03   -0.30318E-04 15588   0.742E-02    0.249E-02
DAV:  13    -0.931403558514E+03    0.14039E-03   -0.17303E-04 12916   0.612E-02    0.189E-02
DAV:  14    -0.931403537858E+03    0.20656E-04   -0.14520E-04 13700   0.402E-02
    142 T=   187. E= -.93766756E+03 F= -.94237087E+03 E0= -.94237087E+03  EK= 0.47033E+01 SP= 0.00E+00 SK= 0.00E+00
    143 T=   180. E= -.93764951E+03 F= -.94219786E+03 E0= -.94219786E+03  EK= 0.45484E+01 SP= 0.00E+00 SK= 0.00E+00
    144 T=   175. E= -.93765335E+03 F= -.94205829E+03 E0= -.94205829E+03  EK= 0.44049E+01 SP= 0.00E+00 SK= 0.00E+00
    145 T=   171. E= -.93765039E+03 F= -.94195532E+03 E0= -.94195532E+03  EK= 0.43049E+01 SP= 0.00E+00 SK= 0.00E+00
    146 T=   171. E= -.93763490E+03 F= -.94193640E+03 E0= -.94193640E+03  EK= 0.43015E+01 SP= 0.00E+00 SK= 0.00E+00
    147 T=   175. E= -.93761272E+03 F= -.94201221E+03 E0= -.94201221E+03  EK= 0.43995E+01 SP= 0.00E+00 SK= 0.00E+00
    148 T=   181. E= -.93755706E+03 F= -.94213177E+03 E0= -.94213177E+03  EK= 0.45747E+01 SP= 0.00E+00 SK= 0.00E+00
    149 T=   184. E= -.93758231E+03 F= -.94221580E+03 E0= -.94221580E+03  EK= 0.46335E+01 SP= 0.00E+00 SK= 0.00E+00
    150 T=   182. E= -.93763851E+03 F= -.94222687E+03 E0= -.94222687E+03  EK= 0.45884E+01 SP= 0.00E+00 SK= 0.00E+00
    151 T=   180. E= -.93764908E+03 F= -.94219458E+03 E0= -.94219458E+03  EK= 0.45455E+01 SP= 0.00E+00 SK= 0.00E+00
       N       E                     dE             d eps       ncg     rms          rms(c)
DAV:   1    -0.926963667284E+03    0.44399E+01   -0.19158E+03 16238   0.858E+01
DAV:   2    -0.932086234845E+03   -0.51226E+01   -0.51216E+01 19036   0.127E+01
DAV:   3    -0.932139950544E+03   -0.53716E-01   -0.53714E-01 19444   0.134E+00
DAV:   4    -0.932141178025E+03   -0.12275E-02   -0.12275E-02 19108   0.194E-01    0.856E+00
DAV:   5    -0.931338135906E+03    0.80304E+00   -0.16195E+00 20588   0.345E+00    0.458E+00
DAV:   6    -0.931251401952E+03    0.86734E-01   -0.11856E+00 19540   0.251E+00    0.148E+00
DAV:   7    -0.931258958099E+03   -0.75561E-02   -0.23967E-01 18748   0.123E+00    0.555E-01
DAV:   8    -0.931254424109E+03    0.45340E-02   -0.25341E-02 18596   0.404E-01    0.282E-01
DAV:   9    -0.931250957916E+03    0.34662E-02   -0.11779E-02 18028   0.255E-01    0.162E-01
DAV:  10    -0.931249268690E+03    0.16892E-02   -0.26734E-03 21588   0.180E-01    0.508E-02
DAV:  11    -0.931248746234E+03    0.52246E-03   -0.12555E-03 18540   0.983E-02    0.464E-02
DAV:  12    -0.931248386149E+03    0.36008E-03   -0.24529E-04 14340   0.717E-02    0.200E-02
DAV:  13    -0.931248269131E+03    0.11702E-03   -0.27091E-04 15692   0.629E-02    0.268E-02
DAV:  14    -0.931248251460E+03    0.17671E-04   -0.15993E-04 13692   0.358E-02
    152 T=   181. E= -.93766545E+03 F= -.94221729E+03 E0= -.94221729E+03  EK= 0.45518E+01 SP= 0.00E+00 SK= 0.00E+00
    153 T=   182. E= -.93764127E+03 F= -.94222065E+03 E0= -.94222065E+03  EK= 0.45794E+01 SP= 0.00E+00 SK= 0.00E+00
    154 T=   185. E= -.93763490E+03 F= -.94228806E+03 E0= -.94228806E+03  EK= 0.46532E+01 SP= 0.00E+00 SK= 0.00E+00
    155 T=   187. E= -.93765732E+03 F= -.94237974E+03 E0= -.94237974E+03  EK= 0.47224E+01 SP= 0.00E+00 SK= 0.00E+00
    156 T=   189. E= -.93771063E+03 F= -.94246310E+03 E0= -.94246310E+03  EK= 0.47525E+01 SP= 0.00E+00 SK= 0.00E+00
    157 T=   191. E= -.93774359E+03 F= -.94255058E+03 E0= -.94255058E+03  EK= 0.48070E+01 SP= 0.00E+00 SK= 0.00E+00
    158 T=   194. E= -.93768711E+03 F= -.94257805E+03 E0= -.94257805E+03  EK= 0.48909E+01 SP= 0.00E+00 SK= 0.00E+00
    159 T=   192. E= -.93766194E+03 F= -.94249894E+03 E0= -.94249894E+03  EK= 0.48370E+01 SP= 0.00E+00 SK= 0.00E+00
    160 T=   182. E= -.93777149E+03 F= -.94235194E+03 E0= -.94235194E+03  EK= 0.45805E+01 SP= 0.00E+00 SK= 0.00E+00
    161 T=   174. E= -.93785171E+03 F= -.94223725E+03 E0= -.94223725E+03  EK= 0.43855E+01 SP= 0.00E+00 SK= 0.00E+00
       N       E                     dE             d eps       ncg     rms          rms(c)
DAV:   1    -0.926966633912E+03    0.42816E+01   -0.19742E+03 16238   0.871E+01
DAV:   2    -0.932033592082E+03   -0.50670E+01   -0.50660E+01 19084   0.127E+01
DAV:   3    -0.932086669207E+03   -0.53077E-01   -0.53075E-01 19468   0.132E+00
DAV:   4    -0.932087904402E+03   -0.12352E-02   -0.12352E-02 19100   0.192E-01    0.858E+00
DAV:   5    -0.931295166751E+03    0.79274E+00   -0.15879E+00 20244   0.332E+00    0.462E+00
DAV:   6    -0.931216455841E+03    0.78711E-01   -0.12142E+00 19524   0.251E+00    0.145E+00
DAV:   7    -0.931228900483E+03   -0.12445E-01   -0.22908E-01 18708   0.119E+00    0.567E-01
DAV:   8    -0.931225860536E+03    0.30399E-02   -0.25746E-02 18660   0.386E-01    0.290E-01
DAV:   9    -0.931222944330E+03    0.29162E-02   -0.88296E-03 18356   0.246E-01    0.141E-01
DAV:  10    -0.931221336701E+03    0.16076E-02   -0.19116E-03 20868   0.178E-01    0.521E-02
DAV:  11    -0.931220847075E+03    0.48963E-03   -0.15120E-03 19004   0.117E-01    0.495E-02
DAV:  12    -0.931220486403E+03    0.36067E-03   -0.35774E-04 16604   0.800E-02    0.220E-02
DAV:  13    -0.931220320128E+03    0.16627E-03   -0.14183E-04 12932   0.764E-02    0.273E-02
DAV:  14    -0.931220299644E+03    0.20484E-04   -0.30274E-04 16900   0.529E-02
    162 T=   172. E= -.93784073E+03 F= -.94218636E+03 E0= -.94218636E+03  EK= 0.43456E+01 SP= 0.00E+00 SK= 0.00E+00
    163 T=   173. E= -.93784695E+03 F= -.94220679E+03 E0= -.94220679E+03  EK= 0.43598E+01 SP= 0.00E+00 SK= 0.00E+00
    164 T=   176. E= -.93780721E+03 F= -.94223834E+03 E0= -.94223834E+03  EK= 0.44311E+01 SP= 0.00E+00 SK= 0.00E+00
    165 T=   180. E= -.93771317E+03 F= -.94224175E+03 E0= -.94224175E+03  EK= 0.45286E+01 SP= 0.00E+00 SK= 0.00E+00
    166 T=   181. E= -.93770304E+03 F= -.94225976E+03 E0= -.94225976E+03  EK= 0.45567E+01 SP= 0.00E+00 SK= 0.00E+00
    167 T=   187. E= -.93767225E+03 F= -.94239658E+03 E0= -.94239658E+03  EK= 0.47243E+01 SP= 0.00E+00 SK= 0.00E+00
    168 T=   194. E= -.93765282E+03 F= -.94253678E+03 E0= -.94253678E+03  EK= 0.48840E+01 SP= 0.00E+00 SK= 0.00E+00
    169 T=   195. E= -.93767249E+03 F= -.94259007E+03 E0= -.94259007E+03  EK= 0.49176E+01 SP= 0.00E+00 SK= 0.00E+00
    170 T=   193. E= -.93762792E+03 F= -.94249022E+03 E0= -.94249022E+03  EK= 0.48623E+01 SP= 0.00E+00 SK= 0.00E+00
    171 T=   186. E= -.93760309E+03 F= -.94230393E+03 E0= -.94230393E+03  EK= 0.47008E+01 SP= 0.00E+00 SK= 0.00E+00
       N       E                     dE             d eps       ncg     rms          rms(c)
DAV:   1    -0.927169359507E+03    0.40510E+01   -0.19417E+03 16238   0.865E+01
DAV:   2    -0.931983920631E+03   -0.48146E+01   -0.48135E+01 19084   0.125E+01
DAV:   3    -0.932035022649E+03   -0.51102E-01   -0.51100E-01 19508   0.130E+00
DAV:   4    -0.932036211399E+03   -0.11888E-02   -0.11887E-02 19068   0.188E-01    0.843E+00
DAV:   5    -0.931260446303E+03    0.77577E+00   -0.15537E+00 20732   0.333E+00    0.455E+00
DAV:   6    -0.931161885689E+03    0.98561E-01   -0.11730E+00 19556   0.250E+00    0.144E+00
DAV:   7    -0.931164837690E+03   -0.29520E-02   -0.24508E-01 18740   0.127E+00    0.558E-01
DAV:   8    -0.931158940222E+03    0.58975E-02   -0.27608E-02 18764   0.407E-01    0.298E-01
DAV:   9    -0.931153850739E+03    0.50895E-02   -0.12447E-02 18172   0.267E-01    0.163E-01
DAV:  10    -0.931151476270E+03    0.23745E-02   -0.26447E-03 21620   0.200E-01    0.633E-02
DAV:  11    -0.931150669692E+03    0.80658E-03   -0.20547E-03 18732   0.134E-01    0.636E-02
DAV:  12    -0.931150128432E+03    0.54126E-03   -0.63573E-04 18284   0.992E-02    0.267E-02
DAV:  13    -0.931149972969E+03    0.15546E-03   -0.28323E-04 14868   0.652E-02    0.317E-02
DAV:  14    -0.931149935268E+03    0.37701E-04   -0.18946E-04 14036   0.428E-02
    172 T=   181. E= -.93755528E+03 F= -.94211216E+03 E0= -.94211216E+03  EK= 0.45569E+01 SP= 0.00E+00 SK= 0.00E+00
    173 T=   179. E= -.93755682E+03 F= -.94206002E+03 E0= -.94206002E+03  EK= 0.45032E+01 SP= 0.00E+00 SK= 0.00E+00
    174 T=   179. E= -.93760429E+03 F= -.94211043E+03 E0= -.94211043E+03  EK= 0.45061E+01 SP= 0.00E+00 SK= 0.00E+00
    175 T=   184. E= -.93756557E+03 F= -.94220216E+03 E0= -.94220216E+03  EK= 0.46366E+01 SP= 0.00E+00 SK= 0.00E+00
    176 T=   190. E= -.93746458E+03 F= -.94224170E+03 E0= -.94224170E+03  EK= 0.47771E+01 SP= 0.00E+00 SK= 0.00E+00
    177 T=   191. E= -.93741371E+03 F= -.94222898E+03 E0= -.94222898E+03  EK= 0.48153E+01 SP= 0.00E+00 SK= 0.00E+00
    178 T=   192. E= -.93736380E+03 F= -.94219827E+03 E0= -.94219827E+03  EK= 0.48345E+01 SP= 0.00E+00 SK= 0.00E+00
    179 T=   190. E= -.93736351E+03 F= -.94216416E+03 E0= -.94216416E+03  EK= 0.48006E+01 SP= 0.00E+00 SK= 0.00E+00
    180 T=   192. E= -.93735949E+03 F= -.94218836E+03 E0= -.94218836E+03  EK= 0.48289E+01 SP= 0.00E+00 SK= 0.00E+00
    181 T=   194. E= -.93734206E+03 F= -.94223885E+03 E0= -.94223885E+03  EK= 0.48968E+01 SP= 0.00E+00 SK= 0.00E+00
       N       E                     dE             d eps       ncg     rms          rms(c)
DAV:   1    -0.927311088479E+03    0.38389E+01   -0.18917E+03 16238   0.855E+01
DAV:   2    -0.932131277555E+03   -0.48202E+01   -0.48191E+01 19164   0.125E+01
DAV:   3    -0.932181256958E+03   -0.49979E-01   -0.49977E-01 19500   0.129E+00
DAV:   4    -0.932182423095E+03   -0.11661E-02   -0.11661E-02 19156   0.188E-01    0.856E+00
DAV:   5    -0.931396192221E+03    0.78623E+00   -0.15709E+00 20628   0.329E+00    0.461E+00
DAV:   6    -0.931315855013E+03    0.80337E-01   -0.12007E+00 19532   0.251E+00    0.142E+00
DAV:   7    -0.931328912455E+03   -0.13057E-01   -0.23824E-01 18556   0.120E+00    0.562E-01
DAV:   8    -0.931325106228E+03    0.38062E-02   -0.23451E-02 18564   0.375E-01    0.285E-01
DAV:   9    -0.931322485283E+03    0.26209E-02   -0.10888E-02 18164   0.254E-01    0.154E-01
DAV:  10    -0.931321099325E+03    0.13860E-02   -0.25667E-03 21924   0.174E-01    0.457E-02
DAV:  11    -0.931320763610E+03    0.33572E-03   -0.10652E-03 18772   0.842E-02    0.428E-02
DAV:  12    -0.931320490322E+03    0.27329E-03   -0.18687E-04 13796   0.652E-02    0.174E-02
DAV:  13    -0.931320401396E+03    0.88925E-04   -0.22403E-04 14436   0.579E-02
    182 T=   198. E= -.93728036E+03 F= -.94227664E+03 E0= -.94227664E+03  EK= 0.49963E+01 SP= 0.00E+00 SK= 0.00E+00
    183 T=   202. E= -.93731988E+03 F= -.94240115E+03 E0= -.94240115E+03  EK= 0.50813E+01 SP= 0.00E+00 SK= 0.00E+00
    184 T=   200. E= -.93742842E+03 F= -.94247686E+03 E0= -.94247686E+03  EK= 0.50484E+01 SP= 0.00E+00 SK= 0.00E+00
    185 T=   201. E= -.93744731E+03 F= -.94252586E+03 E0= -.94252586E+03  EK= 0.50785E+01 SP= 0.00E+00 SK= 0.00E+00
    186 T=   198. E= -.93750891E+03 F= -.94248903E+03 E0= -.94248903E+03  EK= 0.49801E+01 SP= 0.00E+00 SK= 0.00E+00
    187 T=   190. E= -.93755806E+03 F= -.94235468E+03 E0= -.94235468E+03  EK= 0.47966E+01 SP= 0.00E+00 SK= 0.00E+00
    188 T=   185. E= -.93754069E+03 F= -.94221025E+03 E0= -.94221025E+03  EK= 0.46696E+01 SP= 0.00E+00 SK= 0.00E+00
    189 T=   184. E= -.93752329E+03 F= -.94214992E+03 E0= -.94214992E+03  EK= 0.46266E+01 SP= 0.00E+00 SK= 0.00E+00
    190 T=   186. E= -.93751478E+03 F= -.94220637E+03 E0= -.94220637E+03  EK= 0.46916E+01 SP= 0.00E+00 SK= 0.00E+00
    191 T=   194. E= -.93743983E+03 F= -.94232978E+03 E0= -.94232978E+03  EK= 0.48900E+01 SP= 0.00E+00 SK= 0.00E+00
       N       E                     dE             d eps       ncg     rms          rms(c)
DAV:   1    -0.927283418356E+03    0.40371E+01   -0.20087E+03 16238   0.881E+01
DAV:   2    -0.932269207398E+03   -0.49858E+01   -0.49847E+01 19068   0.127E+01
DAV:   3    -0.932321111285E+03   -0.51904E-01   -0.51901E-01 19492   0.131E+00
DAV:   4    -0.932322310296E+03   -0.11990E-02   -0.11990E-02 19108   0.190E-01    0.864E+00
DAV:   5    -0.931540629797E+03    0.78168E+00   -0.15609E+00 20628   0.341E+00    0.466E+00
DAV:   6    -0.931459980827E+03    0.80649E-01   -0.11861E+00 19500   0.253E+00    0.147E+00
DAV:   7    -0.931470689456E+03   -0.10709E-01   -0.24700E-01 18636   0.127E+00    0.559E-01
DAV:   8    -0.931466538137E+03    0.41513E-02   -0.26481E-02 18492   0.419E-01    0.292E-01
DAV:   9    -0.931463663953E+03    0.28742E-02   -0.13655E-02 18356   0.270E-01    0.175E-01
DAV:  10    -0.931462091231E+03    0.15727E-02   -0.28977E-03 21900   0.187E-01    0.563E-02
DAV:  11    -0.931461589025E+03    0.50221E-03   -0.14825E-03 18420   0.108E-01    0.512E-02
DAV:  12    -0.931461260757E+03    0.32827E-03   -0.35432E-04 16516   0.765E-02    0.256E-02
DAV:  13    -0.931461110399E+03    0.15036E-03   -0.17834E-04 13068   0.573E-02    0.201E-02
DAV:  14    -0.931461082371E+03    0.28028E-04   -0.12257E-04 13652   0.372E-02
    192 T=   203. E= -.93731465E+03 F= -.94242483E+03 E0= -.94242483E+03  EK= 0.51102E+01 SP= 0.00E+00 SK= 0.00E+00
    193 T=   204. E= -.93738105E+03 F= -.94252574E+03 E0= -.94252574E+03  EK= 0.51447E+01 SP= 0.00E+00 SK= 0.00E+00
    194 T=   200. E= -.93743174E+03 F= -.94246451E+03 E0= -.94246451E+03  EK= 0.50328E+01 SP= 0.00E+00 SK= 0.00E+00
    195 T=   194. E= -.93742846E+03 F= -.94231714E+03 E0= -.94231714E+03  EK= 0.48887E+01 SP= 0.00E+00 SK= 0.00E+00
    196 T=   185. E= -.93748575E+03 F= -.94215869E+03 E0= -.94215869E+03  EK= 0.46729E+01 SP= 0.00E+00 SK= 0.00E+00
    197 T=   182. E= -.93750835E+03 F= -.94210713E+03 E0= -.94210713E+03  EK= 0.45988E+01 SP= 0.00E+00 SK= 0.00E+00
    198 T=   189. E= -.93746248E+03 F= -.94221454E+03 E0= -.94221454E+03  EK= 0.47521E+01 SP= 0.00E+00 SK= 0.00E+00
    199 T=   198. E= -.93742858E+03 F= -.94241257E+03 E0= -.94241257E+03  EK= 0.49840E+01 SP= 0.00E+00 SK= 0.00E+00
    200 T=   203. E= -.93744931E+03 F= -.94256494E+03 E0= -.94256494E+03  EK= 0.51156E+01 SP= 0.00E+00 SK= 0.00E+00
    201 T=   203. E= -.93747192E+03 F= -.94259725E+03 E0= -.94259725E+03  EK= 0.51253E+01 SP= 0.00E+00 SK= 0.00E+00
       N       E                     dE             d eps       ncg     rms          rms(c)
DAV:   1    -0.927664931557E+03    0.37962E+01   -0.18643E+03 16238   0.849E+01
DAV:   2    -0.932141177416E+03   -0.44762E+01   -0.44754E+01 19036   0.119E+01
DAV:   3    -0.932189607415E+03   -0.48430E-01   -0.48428E-01 19492   0.126E+00
DAV:   4    -0.932190747272E+03   -0.11399E-02   -0.11398E-02 19124   0.185E-01    0.848E+00
DAV:   5    -0.931544862263E+03    0.64589E+00   -0.13694E+00 20196   0.311E+00    0.463E+00
DAV:   6    -0.931495586337E+03    0.49276E-01   -0.10789E+00 19412   0.237E+00    0.139E+00
DAV:   7    -0.931506265505E+03   -0.10679E-01   -0.22841E-01 18596   0.124E+00    0.545E-01
DAV:   8    -0.931502370578E+03    0.38949E-02   -0.26735E-02 18780   0.422E-01    0.278E-01
DAV:   9    -0.931499453556E+03    0.29170E-02   -0.11527E-02 18172   0.250E-01    0.157E-01
DAV:  10    -0.931497911966E+03    0.15416E-02   -0.25777E-03 21684   0.191E-01    0.514E-02
DAV:  11    -0.931497472101E+03    0.43986E-03   -0.15193E-03 18724   0.112E-01    0.520E-02
DAV:  12    -0.931497117495E+03    0.35461E-03   -0.23808E-04 14252   0.729E-02    0.221E-02
DAV:  13    -0.931496962355E+03    0.15514E-03   -0.29988E-04 16044   0.777E-02    0.310E-02
DAV:  14    -0.931496937895E+03    0.24460E-04   -0.23761E-04 14500   0.480E-02
    202 T=   199. E= -.93745662E+03 F= -.94246379E+03 E0= -.94246379E+03  EK= 0.50072E+01 SP= 0.00E+00 SK= 0.00E+00
    203 T=   188. E= -.93749811E+03 F= -.94224799E+03 E0= -.94224799E+03  EK= 0.47499E+01 SP= 0.00E+00 SK= 0.00E+00
    204 T=   180. E= -.93748726E+03 F= -.94202212E+03 E0= -.94202212E+03  EK= 0.45349E+01 SP= 0.00E+00 SK= 0.00E+00
    205 T=   175. E= -.93748453E+03 F= -.94189737E+03 E0= -.94189737E+03  EK= 0.44128E+01 SP= 0.00E+00 SK= 0.00E+00
    206 T=   173. E= -.93750430E+03 F= -.94187169E+03 E0= -.94187169E+03  EK= 0.43674E+01 SP= 0.00E+00 SK= 0.00E+00
    207 T=   175. E= -.93753724E+03 F= -.94193872E+03 E0= -.94193872E+03  EK= 0.44015E+01 SP= 0.00E+00 SK= 0.00E+00
    208 T=   179. E= -.93753305E+03 F= -.94203598E+03 E0= -.94203598E+03  EK= 0.45029E+01 SP= 0.00E+00 SK= 0.00E+00
    209 T=   182. E= -.93749484E+03 F= -.94207057E+03 E0= -.94207057E+03  EK= 0.45757E+01 SP= 0.00E+00 SK= 0.00E+00
    210 T=   180. E= -.93749282E+03 F= -.94203636E+03 E0= -.94203636E+03  EK= 0.45435E+01 SP= 0.00E+00 SK= 0.00E+00
    211 T=   179. E= -.93748726E+03 F= -.94200952E+03 E0= -.94200952E+03  EK= 0.45223E+01 SP= 0.00E+00 SK= 0.00E+00
       N       E                     dE             d eps       ncg     rms          rms(c)
DAV:   1    -0.927098098369E+03    0.43989E+01   -0.18036E+03 16238   0.832E+01
DAV:   2    -0.931814553071E+03   -0.47165E+01   -0.47155E+01 19052   0.122E+01
DAV:   3    -0.931864401461E+03   -0.49848E-01   -0.49846E-01 19516   0.128E+00
DAV:   4    -0.931865553630E+03   -0.11522E-02   -0.11521E-02 19076   0.186E-01    0.848E+00
DAV:   5    -0.931150851529E+03    0.71470E+00   -0.13887E+00 20324   0.318E+00    0.459E+00
DAV:   6    -0.931061256558E+03    0.89595E-01   -0.10920E+00 19612   0.256E+00    0.138E+00
DAV:   7    -0.931066407192E+03   -0.51506E-02   -0.25393E-01 18876   0.132E+00    0.566E-01
DAV:   8    -0.931060493066E+03    0.59141E-02   -0.30766E-02 19020   0.438E-01    0.294E-01
DAV:   9    -0.931055215141E+03    0.52779E-02   -0.98918E-03 18404   0.279E-01    0.145E-01
DAV:  10    -0.931052643337E+03    0.25718E-02   -0.25458E-03 21492   0.231E-01    0.675E-02
DAV:  11    -0.931051685809E+03    0.95753E-03   -0.28922E-03 19076   0.184E-01    0.773E-02
DAV:  12    -0.931051106041E+03    0.57977E-03   -0.12254E-03 19108   0.124E-01    0.368E-02
DAV:  13    -0.931050851459E+03    0.25458E-03   -0.25066E-04 15068   0.949E-02    0.409E-02
DAV:  14    -0.931050811418E+03    0.40040E-04   -0.49023E-04 19580   0.665E-02
    212 T=   182. E= -.93744624E+03 F= -.94203622E+03 E0= -.94203622E+03  EK= 0.45900E+01 SP= 0.00E+00 SK= 0.00E+00
    213 T=   188. E= -.93742607E+03 F= -.94215381E+03 E0= -.94215381E+03  EK= 0.47277E+01 SP= 0.00E+00 SK= 0.00E+00
    214 T=   194. E= -.93743539E+03 F= -.94233230E+03 E0= -.94233230E+03  EK= 0.48969E+01 SP= 0.00E+00 SK= 0.00E+00
    215 T=   201. E= -.93746939E+03 F= -.94254565E+03 E0= -.94254565E+03  EK= 0.50763E+01 SP= 0.00E+00 SK= 0.00E+00
    216 T=   204. E= -.93753747E+03 F= -.94269196E+03 E0= -.94269196E+03  EK= 0.51545E+01 SP= 0.00E+00 SK= 0.00E+00
    217 T=   206. E= -.93755922E+03 F= -.94274413E+03 E0= -.94274413E+03  EK= 0.51849E+01 SP= 0.00E+00 SK= 0.00E+00
    218 T=   205. E= -.93756219E+03 F= -.94272172E+03 E0= -.94272172E+03  EK= 0.51595E+01 SP= 0.00E+00 SK= 0.00E+00
    219 T=   201. E= -.93762398E+03 F= -.94270125E+03 E0= -.94270125E+03  EK= 0.50773E+01 SP= 0.00E+00 SK= 0.00E+00
    220 T=   202. E= -.93760097E+03 F= -.94268850E+03 E0= -.94268850E+03  EK= 0.50875E+01 SP= 0.00E+00 SK= 0.00E+00
    221 T=   202. E= -.93760524E+03 F= -.94268617E+03 E0= -.94268617E+03  EK= 0.50809E+01 SP= 0.00E+00 SK= 0.00E+00
       N       E                     dE             d eps       ncg     rms          rms(c)
DAV:   1    -0.927678775891E+03    0.33721E+01   -0.19701E+03 16238   0.875E+01
DAV:   2    -0.932511210923E+03   -0.48324E+01   -0.48312E+01 19116   0.124E+01
DAV:   3    -0.932562492441E+03   -0.51282E-01   -0.51279E-01 19476   0.131E+00
DAV:   4    -0.932563689534E+03   -0.11971E-02   -0.11971E-02 19108   0.192E-01    0.877E+00
DAV:   5    -0.931772885515E+03    0.79080E+00   -0.16568E+00 20396   0.333E+00    0.476E+00
DAV:   6    -0.931685674847E+03    0.87211E-01   -0.12380E+00 19572   0.256E+00    0.148E+00
DAV:   7    -0.931691274368E+03   -0.55995E-02   -0.28799E-01 18932   0.146E+00    0.590E-01
DAV:   8    -0.931684737108E+03    0.65373E-02   -0.38471E-02 19052   0.505E-01    0.317E-01
DAV:   9    -0.931678943684E+03    0.57934E-02   -0.15804E-02 18316   0.297E-01    0.185E-01
DAV:  10    -0.931676118319E+03    0.28254E-02   -0.32464E-03 22164   0.242E-01    0.771E-02
DAV:  11    -0.931675186079E+03    0.93224E-03   -0.34737E-03 18988   0.180E-01    0.852E-02
DAV:  12    -0.931674572528E+03    0.61355E-03   -0.90449E-04 19156   0.101E-01    0.350E-02
DAV:  13    -0.931674204799E+03    0.36773E-03   -0.27004E-04 15404   0.966E-02    0.302E-02
DAV:  14    -0.931674160033E+03    0.44767E-04   -0.35150E-04 17700   0.659E-02
    222 T=   199. E= -.93761944E+03 F= -.94264277E+03 E0= -.94264277E+03  EK= 0.50233E+01 SP= 0.00E+00 SK= 0.00E+00
    223 T=   199. E= -.93760065E+03 F= -.94262738E+03 E0= -.94262738E+03  EK= 0.50267E+01 SP= 0.00E+00 SK= 0.00E+00
    224 T=   196. E= -.93757943E+03 F= -.94252428E+03 E0= -.94252428E+03  EK= 0.49448E+01 SP= 0.00E+00 SK= 0.00E+00
    225 T=   188. E= -.93761058E+03 F= -.94236159E+03 E0= -.94236159E+03  EK= 0.47510E+01 SP= 0.00E+00 SK= 0.00E+00
    226 T=   181. E= -.93765242E+03 F= -.94220916E+03 E0= -.94220916E+03  EK= 0.45567E+01 SP= 0.00E+00 SK= 0.00E+00
    227 T=   178. E= -.93766676E+03 F= -.94216189E+03 E0= -.94216189E+03  EK= 0.44951E+01 SP= 0.00E+00 SK= 0.00E+00
    228 T=   183. E= -.93765179E+03 F= -.94227193E+03 E0= -.94227193E+03  EK= 0.46201E+01 SP= 0.00E+00 SK= 0.00E+00
    229 T=   193. E= -.93761608E+03 F= -.94248265E+03 E0= -.94248265E+03  EK= 0.48666E+01 SP= 0.00E+00 SK= 0.00E+00
    230 T=   206. E= -.93752877E+03 F= -.94270971E+03 E0= -.94270971E+03  EK= 0.51809E+01 SP= 0.00E+00 SK= 0.00E+00
    231 T=   214. E= -.93743928E+03 F= -.94282084E+03 E0= -.94282084E+03  EK= 0.53816E+01 SP= 0.00E+00 SK= 0.00E+00
       N       E                     dE             d eps       ncg     rms          rms(c)
DAV:   1    -0.927648091916E+03    0.40261E+01   -0.19354E+03 16238   0.862E+01
DAV:   2    -0.932514761424E+03   -0.48667E+01   -0.48658E+01 19036   0.125E+01
DAV:   3    -0.932565321278E+03   -0.50560E-01   -0.50558E-01 19452   0.130E+00
DAV:   4    -0.932566479834E+03   -0.11586E-02   -0.11585E-02 19076   0.189E-01    0.865E+00
DAV:   5    -0.931841805073E+03    0.72467E+00   -0.14609E+00 20564   0.330E+00    0.470E+00
DAV:   6    -0.931769543234E+03    0.72262E-01   -0.11401E+00 19572   0.262E+00    0.144E+00
DAV:   7    -0.931779860056E+03   -0.10317E-01   -0.26283E-01 18948   0.135E+00    0.571E-01
DAV:   8    -0.931775575367E+03    0.42847E-02   -0.31683E-02 19204   0.418E-01    0.340E-01
DAV:   9    -0.931771269347E+03    0.43060E-02   -0.14681E-02 18460   0.291E-01    0.178E-01
DAV:  10    -0.931768882583E+03    0.23868E-02   -0.23722E-03 21620   0.216E-01    0.808E-02
DAV:  11    -0.931768020186E+03    0.86240E-03   -0.32598E-03 19260   0.182E-01    0.759E-02
DAV:  12    -0.931767513445E+03    0.50674E-03   -0.10963E-03 19044   0.111E-01    0.332E-02
DAV:  13    -0.931767307072E+03    0.20637E-03   -0.30302E-04 15412   0.690E-02    0.348E-02
DAV:  14    -0.931767225346E+03    0.81726E-04   -0.14148E-04 13852   0.592E-02
    232 T=   211. E= -.93740919E+03 F= -.94272998E+03 E0= -.94272998E+03  EK= 0.53208E+01 SP= 0.00E+00 SK= 0.00E+00
    233 T=   201. E= -.93749217E+03 F= -.94254659E+03 E0= -.94254659E+03  EK= 0.50544E+01 SP= 0.00E+00 SK= 0.00E+00
    234 T=   190. E= -.93758454E+03 F= -.94238026E+03 E0= -.94238026E+03  EK= 0.47957E+01 SP= 0.00E+00 SK= 0.00E+00
    235 T=   189. E= -.93759035E+03 F= -.94235511E+03 E0= -.94235511E+03  EK= 0.47648E+01 SP= 0.00E+00 SK= 0.00E+00
    236 T=   194. E= -.93752429E+03 F= -.94240751E+03 E0= -.94240751E+03  EK= 0.48832E+01 SP= 0.00E+00 SK= 0.00E+00
    237 T=   199. E= -.93745055E+03 F= -.94247576E+03 E0= -.94247576E+03  EK= 0.50252E+01 SP= 0.00E+00 SK= 0.00E+00
    238 T=   201. E= -.93742235E+03 F= -.94248742E+03 E0= -.94248742E+03  EK= 0.50651E+01 SP= 0.00E+00 SK= 0.00E+00
    239 T=   199. E= -.93739838E+03 F= -.94242528E+03 E0= -.94242528E+03  EK= 0.50269E+01 SP= 0.00E+00 SK= 0.00E+00
    240 T=   195. E= -.93734881E+03 F= -.94225281E+03 E0= -.94225281E+03  EK= 0.49040E+01 SP= 0.00E+00 SK= 0.00E+00
    241 T=   186. E= -.93735954E+03 F= -.94204579E+03 E0= -.94204579E+03  EK= 0.46862E+01 SP= 0.00E+00 SK= 0.00E+00
       N       E                     dE             d eps       ncg     rms          rms(c)
DAV:   1    -0.926010536914E+03    0.57568E+01   -0.22010E+03 16238   0.917E+01
DAV:   2    -0.931852630405E+03   -0.58421E+01   -0.58409E+01 19116   0.136E+01
DAV:   3    -0.931910773502E+03   -0.58143E-01   -0.58141E-01 19436   0.140E+00
DAV:   4    -0.931912068138E+03   -0.12946E-02   -0.12946E-02 19092   0.201E-01    0.879E+00
DAV:   5    -0.931093892882E+03    0.81818E+00   -0.15587E+00 20692   0.346E+00    0.476E+00
DAV:   6    -0.931006360610E+03    0.87532E-01   -0.13370E+00 19596   0.281E+00    0.146E+00
DAV:   7    -0.931017426735E+03   -0.11066E-01   -0.27846E-01 18604   0.131E+00    0.576E-01
DAV:   8    -0.931012982123E+03    0.44446E-02   -0.26211E-02 18852   0.412E-01    0.295E-01
DAV:   9    -0.931009889468E+03    0.30927E-02   -0.13458E-02 18508   0.297E-01    0.176E-01
DAV:  10    -0.931008210693E+03    0.16788E-02   -0.31905E-03 21844   0.192E-01    0.596E-02
DAV:  11    -0.931007671148E+03    0.53955E-03   -0.15498E-03 18620   0.118E-01    0.530E-02
DAV:  12    -0.931007340295E+03    0.33085E-03   -0.47652E-04 18556   0.868E-02    0.277E-02
DAV:  13    -0.931007213046E+03    0.12725E-03   -0.21163E-04 13980   0.564E-02    0.227E-02
DAV:  14    -0.931007176465E+03    0.36581E-04   -0.84087E-05 13628   0.404E-02
    242 T=   182. E= -.93736759E+03 F= -.94195616E+03 E0= -.94195616E+03  EK= 0.45886E+01 SP= 0.00E+00 SK= 0.00E+00
    243 T=   187. E= -.93733242E+03 F= -.94204315E+03 E0= -.94204315E+03  EK= 0.47107E+01 SP= 0.00E+00 SK= 0.00E+00
    244 T=   195. E= -.93728467E+03 F= -.94219443E+03 E0= -.94219443E+03  EK= 0.49098E+01 SP= 0.00E+00 SK= 0.00E+00
    245 T=   198. E= -.93733928E+03 F= -.94232414E+03 E0= -.94232414E+03  EK= 0.49849E+01 SP= 0.00E+00 SK= 0.00E+00
    246 T=   199. E= -.93738756E+03 F= -.94240116E+03 E0= -.94240116E+03  EK= 0.50136E+01 SP= 0.00E+00 SK= 0.00E+00
    247 T=   199. E= -.93741028E+03 F= -.94241814E+03 E0= -.94241814E+03  EK= 0.50079E+01 SP= 0.00E+00 SK= 0.00E+00
    248 T=   197. E= -.93740611E+03 F= -.94237418E+03 E0= -.94237418E+03  EK= 0.49681E+01 SP= 0.00E+00 SK= 0.00E+00
    249 T=   197. E= -.93734635E+03 F= -.94230244E+03 E0= -.94230244E+03  EK= 0.49561E+01 SP= 0.00E+00 SK= 0.00E+00
    250 T=   198. E= -.93729605E+03 F= -.94229477E+03 E0= -.94229477E+03  EK= 0.49987E+01 SP= 0.00E+00 SK= 0.00E+00
    251 T=   201. E= -.93726282E+03 F= -.94233522E+03 E0= -.94233522E+03  EK= 0.50724E+01 SP= 0.00E+00 SK= 0.00E+00
       N       E                     dE             d eps       ncg     rms          rms(c)
DAV:   1    -0.926367185540E+03    0.46400E+01   -0.22295E+03 16238   0.922E+01
DAV:   2    -0.932310663597E+03   -0.59435E+01   -0.59421E+01 19052   0.136E+01
DAV:   3    -0.932371564666E+03   -0.60901E-01   -0.60898E-01 19492   0.141E+00
DAV:   4    -0.932372936866E+03   -0.13722E-02   -0.13722E-02 19044   0.203E-01    0.896E+00
DAV:   5    -0.931521149129E+03    0.85179E+00   -0.17788E+00 20932   0.369E+00    0.481E+00
DAV:   6    -0.931443500573E+03    0.77649E-01   -0.12642E+00 19548   0.263E+00    0.161E+00
DAV:   7    -0.931449669541E+03   -0.61690E-02   -0.25906E-01 18732   0.131E+00    0.552E-01
DAV:   8    -0.931444033568E+03    0.56360E-02   -0.28901E-02 19276   0.446E-01    0.294E-01
DAV:   9    -0.931439417807E+03    0.46158E-02   -0.13811E-02 18196   0.298E-01    0.168E-01
DAV:  10    -0.931437718130E+03    0.16997E-02   -0.30091E-03 21620   0.191E-01    0.738E-02
DAV:  11    -0.931436974587E+03    0.74354E-03   -0.17745E-03 18620   0.131E-01    0.522E-02
DAV:  12    -0.931436538291E+03    0.43630E-03   -0.44697E-04 18124   0.102E-01    0.314E-02
DAV:  13    -0.931436289481E+03    0.24881E-03   -0.22262E-04 14916   0.921E-02    0.169E-02
DAV:  14    -0.931436267323E+03    0.22158E-04   -0.32077E-04 17308   0.560E-02
    252 T=   206. E= -.93721345E+03 F= -.94239628E+03 E0= -.94239628E+03  EK= 0.51828E+01 SP= 0.00E+00 SK= 0.00E+00
    253 T=   209. E= -.93717003E+03 F= -.94242869E+03 E0= -.94242869E+03  EK= 0.52587E+01 SP= 0.00E+00 SK= 0.00E+00
    254 T=   206. E= -.93722242E+03 F= -.94240553E+03 E0= -.94240553E+03  EK= 0.51831E+01 SP= 0.00E+00 SK= 0.00E+00
    255 T=   201. E= -.93726050E+03 F= -.94232426E+03 E0= -.94232426E+03  EK= 0.50638E+01 SP= 0.00E+00 SK= 0.00E+00
    256 T=   198. E= -.93725890E+03 F= -.94223721E+03 E0= -.94223721E+03  EK= 0.49783E+01 SP= 0.00E+00 SK= 0.00E+00
    257 T=   194. E= -.93731717E+03 F= -.94220139E+03 E0= -.94220139E+03  EK= 0.48842E+01 SP= 0.00E+00 SK= 0.00E+00
    258 T=   195. E= -.93736240E+03 F= -.94226780E+03 E0= -.94226780E+03  EK= 0.49054E+01 SP= 0.00E+00 SK= 0.00E+00
    259 T=   202. E= -.93731558E+03 F= -.94240560E+03 E0= -.94240560E+03  EK= 0.50900E+01 SP= 0.00E+00 SK= 0.00E+00
    260 T=   208. E= -.93729164E+03 F= -.94253209E+03 E0= -.94253209E+03  EK= 0.52404E+01 SP= 0.00E+00 SK= 0.00E+00
    261 T=   207. E= -.93734757E+03 F= -.94256618E+03 E0= -.94256618E+03  EK= 0.52186E+01 SP= 0.00E+00 SK= 0.00E+00
       N       E                     dE             d eps       ncg     rms          rms(c)
DAV:   1    -0.926219312736E+03    0.52170E+01   -0.23941E+03 16238   0.953E+01
DAV:   2    -0.932427659299E+03   -0.62083E+01   -0.62071E+01 19012   0.140E+01
DAV:   3    -0.932491472649E+03   -0.63813E-01   -0.63810E-01 19476   0.145E+00
DAV:   4    -0.932492959973E+03   -0.14873E-02   -0.14873E-02 19068   0.211E-01    0.918E+00
DAV:   5    -0.931632399944E+03    0.86056E+00   -0.18374E+00 20508   0.367E+00    0.492E+00
DAV:   6    -0.931564014967E+03    0.68385E-01   -0.12394E+00 19508   0.252E+00    0.161E+00
DAV:   7    -0.931579458732E+03   -0.15444E-01   -0.23577E-01 19012   0.123E+00    0.549E-01
DAV:   8    -0.931576378313E+03    0.30804E-02   -0.25952E-02 19148   0.427E-01    0.272E-01
DAV:   9    -0.931574326859E+03    0.20515E-02   -0.10387E-02 18420   0.241E-01    0.148E-01
DAV:  10    -0.931573181164E+03    0.11457E-02   -0.24360E-03 22012   0.172E-01    0.442E-02
DAV:  11    -0.931572895101E+03    0.28606E-03   -0.93060E-04 18700   0.816E-02    0.423E-02
DAV:  12    -0.931572592762E+03    0.30234E-03   -0.16465E-04 13852   0.747E-02    0.144E-02
DAV:  13    -0.931572514498E+03    0.78265E-04   -0.27678E-04 15820   0.643E-02
    262 T=   205. E= -.93738066E+03 F= -.94253947E+03 E0= -.94253947E+03  EK= 0.51588E+01 SP= 0.00E+00 SK= 0.00E+00
    263 T=   204. E= -.93734665E+03 F= -.94249148E+03 E0= -.94249148E+03  EK= 0.51448E+01 SP= 0.00E+00 SK= 0.00E+00
    264 T=   204. E= -.93731603E+03 F= -.94246676E+03 E0= -.94246676E+03  EK= 0.51507E+01 SP= 0.00E+00 SK= 0.00E+00
    265 T=   206. E= -.93731712E+03 F= -.94249739E+03 E0= -.94249739E+03  EK= 0.51803E+01 SP= 0.00E+00 SK= 0.00E+00
    266 T=   209. E= -.93731140E+03 F= -.94257242E+03 E0= -.94257242E+03  EK= 0.52610E+01 SP= 0.00E+00 SK= 0.00E+00
    267 T=   211. E= -.93735845E+03 F= -.94266511E+03 E0= -.94266511E+03  EK= 0.53067E+01 SP= 0.00E+00 SK= 0.00E+00
    268 T=   208. E= -.93745277E+03 F= -.94270807E+03 E0= -.94270807E+03  EK= 0.52553E+01 SP= 0.00E+00 SK= 0.00E+00
    269 T=   207. E= -.93741004E+03 F= -.94262323E+03 E0= -.94262323E+03  EK= 0.52132E+01 SP= 0.00E+00 SK= 0.00E+00
    270 T=   200. E= -.93737763E+03 F= -.94242578E+03 E0= -.94242578E+03  EK= 0.50481E+01 SP= 0.00E+00 SK= 0.00E+00
    271 T=   190. E= -.93740324E+03 F= -.94220416E+03 E0= -.94220416E+03  EK= 0.48009E+01 SP= 0.00E+00 SK= 0.00E+00
       N       E                     dE             d eps       ncg     rms          rms(c)
DAV:   1    -0.925440714226E+03    0.61319E+01   -0.24443E+03 16238   0.964E+01
DAV:   2    -0.931988351516E+03   -0.65476E+01   -0.65461E+01 18996   0.142E+01
DAV:   3    -0.932057123724E+03   -0.68772E-01   -0.68769E-01 19508   0.150E+00
DAV:   4    -0.932058670327E+03   -0.15466E-02   -0.15466E-02 19060   0.216E-01    0.912E+00
DAV:   5    -0.931195205126E+03    0.86347E+00   -0.16392E+00 20148   0.336E+00    0.497E+00
DAV:   6    -0.931078158619E+03    0.11705E+00   -0.13384E+00 19516   0.272E+00    0.147E+00
DAV:   7    -0.931082108842E+03   -0.39502E-02   -0.27488E-01 18716   0.130E+00    0.603E-01
DAV:   8    -0.931075273695E+03    0.68351E-02   -0.29148E-02 18428   0.415E-01    0.300E-01
DAV:   9    -0.931070490502E+03    0.47832E-02   -0.12057E-02 18212   0.272E-01    0.165E-01
DAV:  10    -0.931068026960E+03    0.24635E-02   -0.31208E-03 21380   0.199E-01    0.571E-02
DAV:  11    -0.931067356792E+03    0.67017E-03   -0.16703E-03 18812   0.109E-01    0.583E-02
DAV:  12    -0.931066881691E+03    0.47510E-03   -0.41076E-04 17012   0.748E-02    0.241E-02
DAV:  13    -0.931066713597E+03    0.16809E-03   -0.23052E-04 13868   0.648E-02    0.297E-02
DAV:  14    -0.931066693062E+03    0.20535E-04   -0.19447E-04 14052   0.376E-02
    272 T=   186. E= -.93737334E+03 F= -.94205811E+03 E0= -.94205811E+03  EK= 0.46848E+01 SP= 0.00E+00 SK= 0.00E+00
    273 T=   182. E= -.93746413E+03 F= -.94206414E+03 E0= -.94206414E+03  EK= 0.46000E+01 SP= 0.00E+00 SK= 0.00E+00
    274 T=   181. E= -.93758309E+03 F= -.94214987E+03 E0= -.94214987E+03  EK= 0.45668E+01 SP= 0.00E+00 SK= 0.00E+00
    275 T=   185. E= -.93763239E+03 F= -.94229396E+03 E0= -.94229396E+03  EK= 0.46616E+01 SP= 0.00E+00 SK= 0.00E+00
    276 T=   191. E= -.93756847E+03 F= -.94238844E+03 E0= -.94238844E+03  EK= 0.48200E+01 SP= 0.00E+00 SK= 0.00E+00
    277 T=   194. E= -.93747550E+03 F= -.94235905E+03 E0= -.94235905E+03  EK= 0.48836E+01 SP= 0.00E+00 SK= 0.00E+00
    278 T=   191. E= -.93744231E+03 F= -.94226174E+03 E0= -.94226174E+03  EK= 0.48194E+01 SP= 0.00E+00 SK= 0.00E+00
    279 T=   186. E= -.93747374E+03 F= -.94215888E+03 E0= -.94215888E+03  EK= 0.46851E+01 SP= 0.00E+00 SK= 0.00E+00
    280 T=   183. E= -.93753339E+03 F= -.94213630E+03 E0= -.94213630E+03  EK= 0.46029E+01 SP= 0.00E+00 SK= 0.00E+00
    281 T=   185. E= -.93755757E+03 F= -.94221991E+03 E0= -.94221991E+03  EK= 0.46623E+01 SP= 0.00E+00 SK= 0.00E+00
       N       E                     dE             d eps       ncg     rms          rms(c)
DAV:   1    -0.926920195857E+03    0.41465E+01   -0.20359E+03 16238   0.883E+01
DAV:   2    -0.932188223329E+03   -0.52680E+01   -0.52669E+01 19060   0.130E+01
DAV:   3    -0.932243827661E+03   -0.55604E-01   -0.55602E-01 19452   0.136E+00
DAV:   4    -0.932245116569E+03   -0.12889E-02   -0.12889E-02 19076   0.198E-01    0.877E+00
DAV:   5    -0.931464379784E+03    0.78074E+00   -0.14902E+00 20172   0.332E+00    0.479E+00
DAV:   6    -0.931363679733E+03    0.10070E+00   -0.12283E+00 19548   0.266E+00    0.146E+00
DAV:   7    -0.931370180906E+03   -0.65012E-02   -0.27643E-01 18852   0.138E+00    0.608E-01
DAV:   8    -0.931365409471E+03    0.47714E-02   -0.35072E-02 19020   0.445E-01    0.318E-01
DAV:   9    -0.931361230083E+03    0.41794E-02   -0.11629E-02 18468   0.268E-01    0.162E-01
DAV:  10    -0.931358954368E+03    0.22757E-02   -0.24295E-03 21548   0.221E-01    0.640E-02
DAV:  11    -0.931358292173E+03    0.66219E-03   -0.25508E-03 19316   0.157E-01    0.681E-02
DAV:  12    -0.931357828520E+03    0.46365E-03   -0.73947E-04 18948   0.932E-02    0.282E-02
DAV:  13    -0.931357606084E+03    0.22244E-03   -0.17226E-04 13660   0.853E-02    0.326E-02
DAV:  14    -0.931357562689E+03    0.43395E-04   -0.33684E-04 17116   0.633E-02
    282 T=   191. E= -.93754419E+03 F= -.94236113E+03 E0= -.94236113E+03  EK= 0.48169E+01 SP= 0.00E+00 SK= 0.00E+00
    283 T=   195. E= -.93758841E+03 F= -.94251414E+03 E0= -.94251414E+03  EK= 0.49257E+01 SP= 0.00E+00 SK= 0.00E+00
    284 T=   195. E= -.93761836E+03 F= -.94254235E+03 E0= -.94254235E+03  EK= 0.49240E+01 SP= 0.00E+00 SK= 0.00E+00
    285 T=   192. E= -.93762314E+03 F= -.94246243E+03 E0= -.94246243E+03  EK= 0.48393E+01 SP= 0.00E+00 SK= 0.00E+00
    286 T=   183. E= -.93762476E+03 F= -.94224866E+03 E0= -.94224866E+03  EK= 0.46239E+01 SP= 0.00E+00 SK= 0.00E+00
    287 T=   176. E= -.93758688E+03 F= -.94201209E+03 E0= -.94201209E+03  EK= 0.44252E+01 SP= 0.00E+00 SK= 0.00E+00
    288 T=   174. E= -.93749699E+03 F= -.94188096E+03 E0= -.94188096E+03  EK= 0.43840E+01 SP= 0.00E+00 SK= 0.00E+00
    289 T=   177. E= -.93743709E+03 F= -.94190287E+03 E0= -.94190287E+03  EK= 0.44658E+01 SP= 0.00E+00 SK= 0.00E+00
    290 T=   182. E= -.93741250E+03 F= -.94200725E+03 E0= -.94200725E+03  EK= 0.45948E+01 SP= 0.00E+00 SK= 0.00E+00
    291 T=   187. E= -.93738296E+03 F= -.94210435E+03 E0= -.94210435E+03  EK= 0.47214E+01 SP= 0.00E+00 SK= 0.00E+00
       N       E                     dE             d eps       ncg     rms          rms(c)
DAV:   1    -0.927103186597E+03    0.42544E+01   -0.19037E+03 16238   0.855E+01
DAV:   2    -0.931769772404E+03   -0.46666E+01   -0.46657E+01 19132   0.122E+01
DAV:   3    -0.931819997198E+03   -0.50225E-01   -0.50223E-01 19492   0.128E+00
DAV:   4    -0.931821190035E+03   -0.11928E-02   -0.11928E-02 19140   0.187E-01    0.847E+00
DAV:   5    -0.931152285064E+03    0.66890E+00   -0.13726E+00 19868   0.305E+00    0.460E+00
DAV:   6    -0.931091752831E+03    0.60532E-01   -0.10816E+00 19244   0.226E+00    0.138E+00
DAV:   7    -0.931096750906E+03   -0.49981E-02   -0.22271E-01 18772   0.129E+00    0.535E-01
DAV:   8    -0.931092864838E+03    0.38861E-02   -0.32545E-02 18748   0.453E-01    0.274E-01
DAV:   9    -0.931089602457E+03    0.32624E-02   -0.12427E-02 18124   0.232E-01    0.172E-01
DAV:  10    -0.931087790162E+03    0.18123E-02   -0.30857E-03 22916   0.212E-01    0.514E-02
DAV:  11    -0.931087447600E+03    0.34256E-03   -0.16562E-03 19052   0.102E-01    0.543E-02
DAV:  12    -0.931087039951E+03    0.40765E-03   -0.20473E-04 13820   0.631E-02    0.213E-02
DAV:  13    -0.931086908115E+03    0.13184E-03   -0.32816E-04 16948   0.698E-02    0.315E-02
DAV:  14    -0.931086884615E+03    0.23500E-04   -0.23150E-04 15092   0.474E-02
    292 T=   190. E= -.93730047E+03 F= -.94208811E+03 E0= -.94208811E+03  EK= 0.47876E+01 SP= 0.00E+00 SK= 0.00E+00
    293 T=   191. E= -.93732857E+03 F= -.94213820E+03 E0= -.94213820E+03  EK= 0.48096E+01 SP= 0.00E+00 SK= 0.00E+00
    294 T=   190. E= -.93729992E+03 F= -.94208520E+03 E0= -.94208520E+03  EK= 0.47853E+01 SP= 0.00E+00 SK= 0.00E+00
    295 T=   186. E= -.93735898E+03 F= -.94204906E+03 E0= -.94204906E+03  EK= 0.46901E+01 SP= 0.00E+00 SK= 0.00E+00
    296 T=   185. E= -.93736616E+03 F= -.94203309E+03 E0= -.94203309E+03  EK= 0.46669E+01 SP= 0.00E+00 SK= 0.00E+00
    297 T=   190. E= -.93727238E+03 F= -.94206351E+03 E0= -.94206351E+03  EK= 0.47911E+01 SP= 0.00E+00 SK= 0.00E+00
    298 T=   196. E= -.93718027E+03 F= -.94211527E+03 E0= -.94211527E+03  EK= 0.49350E+01 SP= 0.00E+00 SK= 0.00E+00
    299 T=   200. E= -.93715585E+03 F= -.94219239E+03 E0= -.94219239E+03  EK= 0.50365E+01 SP= 0.00E+00 SK= 0.00E+00
    300 T=   201. E= -.93717942E+03 F= -.94225443E+03 E0= -.94225443E+03  EK= 0.50750E+01 SP= 0.00E+00 SK= 0.00E+00
    301 T=   198. E= -.93723091E+03 F= -.94223334E+03 E0= -.94223334E+03  EK= 0.50024E+01 SP= 0.00E+00 SK= 0.00E+00
       N       E                     dE             d eps       ncg     rms          rms(c)
DAV:   1    -0.926668447800E+03    0.44185E+01   -0.21105E+03 16238   0.902E+01
DAV:   2    -0.931832961342E+03   -0.51645E+01   -0.51633E+01 19132   0.128E+01
DAV:   3    -0.931889683288E+03   -0.56722E-01   -0.56719E-01 19484   0.135E+00
DAV:   4    -0.931891026653E+03   -0.13434E-02   -0.13433E-02 19196   0.198E-01    0.859E+00
DAV:   5    -0.931176529542E+03    0.71450E+00   -0.13256E+00 19804   0.302E+00    0.474E+00
DAV:   6    -0.931082138997E+03    0.94391E-01   -0.11797E+00 19548   0.260E+00    0.134E+00
DAV:   7    -0.931087431356E+03   -0.52924E-02   -0.25603E-01 18780   0.129E+00    0.579E-01
DAV:   8    -0.931081658247E+03    0.57731E-02   -0.30273E-02 18708   0.403E-01    0.298E-01
DAV:   9    -0.931077050318E+03    0.46079E-02   -0.90904E-03 18324   0.247E-01    0.146E-01
DAV:  10    -0.931074336628E+03    0.27137E-02   -0.21886E-03 20468   0.205E-01    0.629E-02
DAV:  11    -0.931073536830E+03    0.79980E-03   -0.24182E-03 19300   0.148E-01    0.673E-02
DAV:  12    -0.931073043829E+03    0.49300E-03   -0.84288E-04 18652   0.948E-02    0.344E-02
DAV:  13    -0.931072860990E+03    0.18284E-03   -0.20944E-04 13444   0.700E-02    0.417E-02
DAV:  14    -0.931072819896E+03    0.41094E-04   -0.32196E-04 17140   0.511E-02
    302 T=   192. E= -.93721716E+03 F= -.94206920E+03 E0= -.94206920E+03  EK= 0.48520E+01 SP= 0.00E+00 SK= 0.00E+00
    303 T=   183. E= -.93729606E+03 F= -.94191783E+03 E0= -.94191783E+03  EK= 0.46218E+01 SP= 0.00E+00 SK= 0.00E+00
    304 T=   177. E= -.93732975E+03 F= -.94179317E+03 E0= -.94179317E+03  EK= 0.44634E+01 SP= 0.00E+00 SK= 0.00E+00
    305 T=   176. E= -.93727061E+03 F= -.94170794E+03 E0= -.94170794E+03  EK= 0.44373E+01 SP= 0.00E+00 SK= 0.00E+00
    306 T=   174. E= -.93726822E+03 F= -.94165017E+03 E0= -.94165017E+03  EK= 0.43819E+01 SP= 0.00E+00 SK= 0.00E+00
    307 T=   171. E= -.93727886E+03 F= -.94158356E+03 E0= -.94158356E+03  EK= 0.43047E+01 SP= 0.00E+00 SK= 0.00E+00
    308 T=   170. E= -.93725099E+03 F= -.94153807E+03 E0= -.94153807E+03  EK= 0.42871E+01 SP= 0.00E+00 SK= 0.00E+00
    309 T=   172. E= -.93724471E+03 F= -.94157000E+03 E0= -.94157000E+03  EK= 0.43253E+01 SP= 0.00E+00 SK= 0.00E+00
    310 T=   175. E= -.93724777E+03 F= -.94165208E+03 E0= -.94165208E+03  EK= 0.44043E+01 SP= 0.00E+00 SK= 0.00E+00
    311 T=   178. E= -.93723857E+03 F= -.94172798E+03 E0= -.94172798E+03  EK= 0.44894E+01 SP= 0.00E+00 SK= 0.00E+00
       N       E                     dE             d eps       ncg     rms          rms(c)
DAV:   1    -0.926548857620E+03    0.45240E+01   -0.19805E+03 16238   0.870E+01
DAV:   2    -0.931660537070E+03   -0.51117E+01   -0.51107E+01 19092   0.128E+01
DAV:   3    -0.931713322735E+03   -0.52786E-01   -0.52784E-01 19468   0.132E+00
DAV:   4    -0.931714542270E+03   -0.12195E-02   -0.12195E-02 19108   0.192E-01    0.850E+00
DAV:   5    -0.930898152942E+03    0.81639E+00   -0.15817E+00 20580   0.339E+00    0.453E+00
DAV:   6    -0.930808028131E+03    0.90125E-01   -0.12085E+00 19524   0.248E+00    0.144E+00
DAV:   7    -0.930815112591E+03   -0.70845E-02   -0.24561E-01 18716   0.133E+00    0.544E-01
DAV:   8    -0.930811053521E+03    0.40591E-02   -0.32233E-02 19036   0.487E-01    0.272E-01
DAV:   9    -0.930808093118E+03    0.29604E-02   -0.12631E-02 18324   0.253E-01    0.175E-01
DAV:  10    -0.930806358822E+03    0.17343E-02   -0.29582E-03 23060   0.201E-01    0.531E-02
DAV:  11    -0.930805834242E+03    0.52458E-03   -0.14659E-03 18844   0.110E-01    0.507E-02
DAV:  12    -0.930805356147E+03    0.47809E-03   -0.20599E-04 14404   0.869E-02    0.221E-02
DAV:  13    -0.930805133435E+03    0.22271E-03   -0.37231E-04 16884   0.972E-02    0.274E-02
DAV:  14    -0.930805132870E+03    0.56490E-06   -0.39804E-04 18908   0.499E-02
    312 T=   180. E= -.93728363E+03 F= -.94181059E+03 E0= -.94181059E+03  EK= 0.45270E+01 SP= 0.00E+00 SK= 0.00E+00
    313 T=   182. E= -.93715433E+03 F= -.94174954E+03 E0= -.94174954E+03  EK= 0.45952E+01 SP= 0.00E+00 SK= 0.00E+00
    314 T=   186. E= -.93703564E+03 F= -.94171453E+03 E0= -.94171453E+03  EK= 0.46789E+01 SP= 0.00E+00 SK= 0.00E+00
    315 T=   188. E= -.93700170E+03 F= -.94174480E+03 E0= -.94174480E+03  EK= 0.47431E+01 SP= 0.00E+00 SK= 0.00E+00
    316 T=   190. E= -.93701961E+03 F= -.94180734E+03 E0= -.94180734E+03  EK= 0.47877E+01 SP= 0.00E+00 SK= 0.00E+00
    317 T=   192. E= -.93702180E+03 F= -.94185799E+03 E0= -.94185799E+03  EK= 0.48362E+01 SP= 0.00E+00 SK= 0.00E+00
    318 T=   197. E= -.93690953E+03 F= -.94188096E+03 E0= -.94188096E+03  EK= 0.49714E+01 SP= 0.00E+00 SK= 0.00E+00
    319 T=   201. E= -.93686868E+03 F= -.94192368E+03 E0= -.94192368E+03  EK= 0.50550E+01 SP= 0.00E+00 SK= 0.00E+00
    320 T=   198. E= -.93694284E+03 F= -.94194278E+03 E0= -.94194278E+03  EK= 0.49999E+01 SP= 0.00E+00 SK= 0.00E+00
    321 T=   195. E= -.93699845E+03 F= -.94191181E+03 E0= -.94191181E+03  EK= 0.49134E+01 SP= 0.00E+00 SK= 0.00E+00
       N       E                     dE             d eps       ncg     rms          rms(c)
DAV:   1    -0.926976861194E+03    0.38283E+01   -0.19076E+03 16238   0.861E+01
DAV:   2    -0.931568841422E+03   -0.45920E+01   -0.45910E+01 19164   0.122E+01
DAV:   3    -0.931617009409E+03   -0.48168E-01   -0.48166E-01 19468   0.127E+00
DAV:   4    -0.931618142726E+03   -0.11333E-02   -0.11333E-02 19132   0.186E-01    0.863E+00
DAV:   5    -0.930875562254E+03    0.74258E+00   -0.15184E+00 20844   0.340E+00    0.468E+00
DAV:   6    -0.930813135643E+03    0.62427E-01   -0.11807E+00 19572   0.254E+00    0.147E+00
DAV:   7    -0.930823783427E+03   -0.10648E-01   -0.23482E-01 18668   0.125E+00    0.544E-01
DAV:   8    -0.930819838865E+03    0.39446E-02   -0.25745E-02 18908   0.404E-01    0.287E-01
DAV:   9    -0.930816460031E+03    0.33788E-02   -0.11690E-02 18276   0.276E-01    0.160E-01
DAV:  10    -0.930814702608E+03    0.17574E-02   -0.26679E-03 21852   0.196E-01    0.562E-02
DAV:  11    -0.930814101264E+03    0.60134E-03   -0.15787E-03 18708   0.122E-01    0.528E-02
DAV:  12    -0.930813692716E+03    0.40855E-03   -0.38692E-04 16892   0.918E-02    0.240E-02
DAV:  13    -0.930813509390E+03    0.18333E-03   -0.20469E-04 13756   0.789E-02    0.240E-02
DAV:  14    -0.930813489651E+03    0.19740E-04   -0.26703E-04 16468   0.497E-02
    322 T=   191. E= -.93700645E+03 F= -.94181803E+03 E0= -.94181803E+03  EK= 0.48116E+01 SP= 0.00E+00 SK= 0.00E+00
    323 T=   190. E= -.93690000E+03 F= -.94168115E+03 E0= -.94168115E+03  EK= 0.47812E+01 SP= 0.00E+00 SK= 0.00E+00
    324 T=   188. E= -.93682312E+03 F= -.94157309E+03 E0= -.94157309E+03  EK= 0.47500E+01 SP= 0.00E+00 SK= 0.00E+00
    325 T=   188. E= -.93681694E+03 F= -.94155732E+03 E0= -.94155732E+03  EK= 0.47404E+01 SP= 0.00E+00 SK= 0.00E+00
    326 T=   190. E= -.93681002E+03 F= -.94159725E+03 E0= -.94159725E+03  EK= 0.47872E+01 SP= 0.00E+00 SK= 0.00E+00
    327 T=   193. E= -.93682859E+03 F= -.94168304E+03 E0= -.94168304E+03  EK= 0.48544E+01 SP= 0.00E+00 SK= 0.00E+00
    328 T=   195. E= -.93682916E+03 F= -.94174763E+03 E0= -.94174763E+03  EK= 0.49185E+01 SP= 0.00E+00 SK= 0.00E+00
    329 T=   197. E= -.93683418E+03 F= -.94180441E+03 E0= -.94180441E+03  EK= 0.49702E+01 SP= 0.00E+00 SK= 0.00E+00
    330 T=   195. E= -.93687473E+03 F= -.94180131E+03 E0= -.94180131E+03  EK= 0.49266E+01 SP= 0.00E+00 SK= 0.00E+00
    331 T=   195. E= -.93683275E+03 F= -.94176031E+03 E0= -.94176031E+03  EK= 0.49276E+01 SP= 0.00E+00 SK= 0.00E+00
       N       E                     dE             d eps       ncg     rms          rms(c)
DAV:   1    -0.926019175196E+03    0.47943E+01   -0.21217E+03 16238   0.898E+01
DAV:   2    -0.931583012150E+03   -0.55638E+01   -0.55626E+01 19132   0.133E+01
DAV:   3    -0.931641565240E+03   -0.58553E-01   -0.58550E-01 19516   0.139E+00
DAV:   4    -0.931642919003E+03   -0.13538E-02   -0.13537E-02 19180   0.201E-01    0.881E+00
DAV:   5    -0.930818449465E+03    0.82447E+00   -0.15908E+00 19876   0.329E+00    0.477E+00
DAV:   6    -0.930712908979E+03    0.10554E+00   -0.12035E+00 19636   0.259E+00    0.146E+00
DAV:   7    -0.930720807037E+03   -0.78981E-02   -0.26157E-01 19076   0.131E+00    0.584E-01
DAV:   8    -0.930714553473E+03    0.62536E-02   -0.29597E-02 19188   0.440E-01    0.295E-01
DAV:   9    -0.930709218702E+03    0.53348E-02   -0.90880E-03 18652   0.288E-01    0.136E-01
DAV:  10    -0.930706635020E+03    0.25837E-02   -0.25111E-03 21476   0.232E-01    0.681E-02
DAV:  11    -0.930705660054E+03    0.97497E-03   -0.26593E-03 19100   0.180E-01    0.715E-02
DAV:  12    -0.930704970440E+03    0.68961E-03   -0.87662E-04 19236   0.139E-01    0.340E-02
DAV:  13    -0.930704785153E+03    0.18529E-03   -0.51423E-04 19068   0.104E-01    0.506E-02
DAV:  14    -0.930704752413E+03    0.32740E-04   -0.63965E-04 19628   0.650E-02
    332 T=   193. E= -.93686736E+03 F= -.94171980E+03 E0= -.94171980E+03  EK= 0.48524E+01 SP= 0.00E+00 SK= 0.00E+00
    333 T=   190. E= -.93683948E+03 F= -.94161622E+03 E0= -.94161622E+03  EK= 0.47767E+01 SP= 0.00E+00 SK= 0.00E+00
    334 T=   194. E= -.93678459E+03 F= -.94168709E+03 E0= -.94168709E+03  EK= 0.49025E+01 SP= 0.00E+00 SK= 0.00E+00
    335 T=   204. E= -.93668037E+03 F= -.94183440E+03 E0= -.94183440E+03  EK= 0.51540E+01 SP= 0.00E+00 SK= 0.00E+00
    336 T=   212. E= -.93664269E+03 F= -.94198785E+03 E0= -.94198785E+03  EK= 0.53452E+01 SP= 0.00E+00 SK= 0.00E+00
    337 T=   215. E= -.93661682E+03 F= -.94203299E+03 E0= -.94203299E+03  EK= 0.54162E+01 SP= 0.00E+00 SK= 0.00E+00
    338 T=   214. E= -.93658708E+03 F= -.94197923E+03 E0= -.94197923E+03  EK= 0.53922E+01 SP= 0.00E+00 SK= 0.00E+00
    339 T=   208. E= -.93660773E+03 F= -.94185230E+03 E0= -.94185230E+03  EK= 0.52446E+01 SP= 0.00E+00 SK= 0.00E+00
    340 T=   205. E= -.93658500E+03 F= -.94173997E+03 E0= -.94173997E+03  EK= 0.51550E+01 SP= 0.00E+00 SK= 0.00E+00
    341 T=   204. E= -.93656334E+03 F= -.94169954E+03 E0= -.94169954E+03  EK= 0.51362E+01 SP= 0.00E+00 SK= 0.00E+00
       N       E                     dE             d eps       ncg     rms          rms(c)
DAV:   1    -0.926005803797E+03    0.46990E+01   -0.21531E+03 16238   0.910E+01
DAV:   2    -0.931478762900E+03   -0.54730E+01   -0.54716E+01 19172   0.132E+01
DAV:   3    -0.931536365426E+03   -0.57603E-01   -0.57599E-01 19468   0.138E+00
DAV:   4    -0.931537715255E+03   -0.13498E-02   -0.13498E-02 19196   0.201E-01    0.899E+00
DAV:   5    -0.930779795026E+03    0.75792E+00   -0.15563E+00 20300   0.331E+00    0.492E+00
DAV:   6    -0.930717037420E+03    0.62758E-01   -0.11891E+00 19380   0.248E+00    0.149E+00
DAV:   7    -0.930727752239E+03   -0.10715E-01   -0.24110E-01 18788   0.129E+00    0.559E-01
DAV:   8    -0.930723576716E+03    0.41755E-02   -0.30125E-02 18404   0.435E-01    0.288E-01
DAV:   9    -0.930720375729E+03    0.32010E-02   -0.11701E-02 18268   0.250E-01    0.160E-01
DAV:  10    -0.930718553438E+03    0.18223E-02   -0.24552E-03 21932   0.199E-01    0.510E-02
DAV:  11    -0.930718070768E+03    0.48267E-03   -0.16434E-03 18988   0.118E-01    0.550E-02
DAV:  12    -0.930717643419E+03    0.42735E-03   -0.38179E-04 17004   0.857E-02    0.209E-02
DAV:  13    -0.930717516620E+03    0.12680E-03   -0.23402E-04 14132   0.745E-02    0.324E-02
DAV:  14    -0.930717496029E+03    0.20592E-04   -0.30202E-04 16836   0.499E-02
    342 T=   203. E= -.93659996E+03 F= -.94172739E+03 E0= -.94172739E+03  EK= 0.51274E+01 SP= 0.00E+00 SK= 0.00E+00
    343 T=   202. E= -.93658973E+03 F= -.94169035E+03 E0= -.94169035E+03  EK= 0.51006E+01 SP= 0.00E+00 SK= 0.00E+00
    344 T=   201. E= -.93670190E+03 F= -.94175873E+03 E0= -.94175873E+03  EK= 0.50568E+01 SP= 0.00E+00 SK= 0.00E+00
    345 T=   201. E= -.93676317E+03 F= -.94182743E+03 E0= -.94182743E+03  EK= 0.50643E+01 SP= 0.00E+00 SK= 0.00E+00
    346 T=   204. E= -.93675652E+03 F= -.94188973E+03 E0= -.94188973E+03  EK= 0.51332E+01 SP= 0.00E+00 SK= 0.00E+00
    347 T=   205. E= -.93674836E+03 F= -.94191425E+03 E0= -.94191425E+03  EK= 0.51659E+01 SP= 0.00E+00 SK= 0.00E+00
    348 T=   206. E= -.93671585E+03 F= -.94189733E+03 E0= -.94189733E+03  EK= 0.51815E+01 SP= 0.00E+00 SK= 0.00E+00
    349 T=   205. E= -.93670133E+03 F= -.94188053E+03 E0= -.94188053E+03  EK= 0.51792E+01 SP= 0.00E+00 SK= 0.00E+00
    350 T=   203. E= -.93678356E+03 F= -.94188996E+03 E0= -.94188996E+03  EK= 0.51064E+01 SP= 0.00E+00 SK= 0.00E+00
    351 T=   201. E= -.93687287E+03 F= -.94194052E+03 E0= -.94194052E+03  EK= 0.50677E+01 SP= 0.00E+00 SK= 0.00E+00
       N       E                     dE             d eps       ncg     rms          rms(c)
DAV:   1    -0.925627470978E+03    0.50900E+01   -0.24075E+03 16238   0.958E+01
DAV:   2    -0.931935998336E+03   -0.63085E+01   -0.63071E+01 19084   0.141E+01
DAV:   3    -0.932002701679E+03   -0.66703E-01   -0.66700E-01 19444   0.148E+00
DAV:   4    -0.932004241445E+03   -0.15398E-02   -0.15397E-02 19156   0.214E-01    0.918E+00
DAV:   5    -0.931107657682E+03    0.89658E+00   -0.16091E+00 20396   0.346E+00    0.499E+00
DAV:   6    -0.930993345706E+03    0.11431E+00   -0.14105E+00 19508   0.280E+00    0.147E+00
DAV:   7    -0.931005738605E+03   -0.12393E-01   -0.27213E-01 18596   0.129E+00    0.609E-01
DAV:   8    -0.931002429440E+03    0.33092E-02   -0.29822E-02 18460   0.390E-01    0.305E-01
DAV:   9    -0.930999875946E+03    0.25535E-02   -0.94232E-03 18484   0.249E-01    0.153E-01
DAV:  10    -0.930998406551E+03    0.14694E-02   -0.20472E-03 21156   0.170E-01    0.524E-02
DAV:  11    -0.930998065681E+03    0.34087E-03   -0.13595E-03 19228   0.993E-02    0.473E-02
DAV:  12    -0.930997822525E+03    0.24316E-03   -0.33388E-04 16516   0.625E-02    0.226E-02
DAV:  13    -0.930997703448E+03    0.11908E-03   -0.10091E-04 12788   0.531E-02    0.236E-02
DAV:  14    -0.930997681274E+03    0.22174E-04   -0.14085E-04 13700   0.374E-02
    352 T=   203. E= -.93691538E+03 F= -.94202524E+03 E0= -.94202524E+03  EK= 0.51099E+01 SP= 0.00E+00 SK= 0.00E+00
    353 T=   204. E= -.93690780E+03 F= -.94204956E+03 E0= -.94204956E+03  EK= 0.51418E+01 SP= 0.00E+00 SK= 0.00E+00
    354 T=   201. E= -.93702206E+03 F= -.94209353E+03 E0= -.94209353E+03  EK= 0.50715E+01 SP= 0.00E+00 SK= 0.00E+00
    355 T=   199. E= -.93710801E+03 F= -.94212388E+03 E0= -.94212388E+03  EK= 0.50159E+01 SP= 0.00E+00 SK= 0.00E+00
    356 T=   203. E= -.93705027E+03 F= -.94216670E+03 E0= -.94216670E+03  EK= 0.51164E+01 SP= 0.00E+00 SK= 0.00E+00
    357 T=   208. E= -.93695572E+03 F= -.94218856E+03 E0= -.94218856E+03  EK= 0.52328E+01 SP= 0.00E+00 SK= 0.00E+00
    358 T=   204. E= -.93698001E+03 F= -.94213456E+03 E0= -.94213456E+03  EK= 0.51545E+01 SP= 0.00E+00 SK= 0.00E+00
    359 T=   195. E= -.93710003E+03 F= -.94200567E+03 E0= -.94200567E+03  EK= 0.49056E+01 SP= 0.00E+00 SK= 0.00E+00
    360 T=   186. E= -.93715466E+03 F= -.94185295E+03 E0= -.94185295E+03  EK= 0.46983E+01 SP= 0.00E+00 SK= 0.00E+00
    361 T=   184. E= -.93713919E+03 F= -.94177247E+03 E0= -.94177247E+03  EK= 0.46333E+01 SP= 0.00E+00 SK= 0.00E+00
       N       E                     dE             d eps       ncg     rms          rms(c)
DAV:   1    -0.926157606530E+03    0.48401E+01   -0.22035E+03 16238   0.921E+01
DAV:   2    -0.931663042363E+03   -0.55054E+01   -0.55042E+01 19116   0.132E+01
DAV:   3    -0.931721237162E+03   -0.58195E-01   -0.58192E-01 19484   0.139E+00
DAV:   4    -0.931722580499E+03   -0.13433E-02   -0.13433E-02 19148   0.201E-01    0.889E+00
DAV:   5    -0.930888119150E+03    0.83446E+00   -0.15924E+00 20012   0.331E+00    0.485E+00
DAV:   6    -0.930779308844E+03    0.10881E+00   -0.13120E+00 19532   0.265E+00    0.146E+00
DAV:   7    -0.930783223996E+03   -0.39152E-02   -0.28780E-01 18756   0.141E+00    0.592E-01
DAV:   8    -0.930776962997E+03    0.62610E-02   -0.34172E-02 19052   0.466E-01    0.317E-01
DAV:   9    -0.930771785304E+03    0.51777E-02   -0.15698E-02 18276   0.297E-01    0.190E-01
DAV:  10    -0.930769165876E+03    0.26194E-02   -0.35266E-03 22220   0.232E-01    0.672E-02
DAV:  11    -0.930768424804E+03    0.74107E-03   -0.25867E-03 19012   0.146E-01    0.694E-02
DAV:  12    -0.930767844049E+03    0.58076E-03   -0.54330E-04 18484   0.954E-02    0.266E-02
DAV:  13    -0.930767598911E+03    0.24514E-03   -0.28491E-04 15324   0.915E-02    0.311E-02
DAV:  14    -0.930767578878E+03    0.20033E-04   -0.37157E-04 18380   0.560E-02
    362 T=   182. E= -.93720764E+03 F= -.94180231E+03 E0= -.94180231E+03  EK= 0.45947E+01 SP= 0.00E+00 SK= 0.00E+00
    363 T=   183. E= -.93725292E+03 F= -.94185526E+03 E0= -.94185526E+03  EK= 0.46023E+01 SP= 0.00E+00 SK= 0.00E+00
    364 T=   186. E= -.93723661E+03 F= -.94192550E+03 E0= -.94192550E+03  EK= 0.46889E+01 SP= 0.00E+00 SK= 0.00E+00
    365 T=   190. E= -.93718307E+03 F= -.94196663E+03 E0= -.94196663E+03  EK= 0.47836E+01 SP= 0.00E+00 SK= 0.00E+00
    366 T=   191. E= -.93715104E+03 F= -.94196253E+03 E0= -.94196253E+03  EK= 0.48115E+01 SP= 0.00E+00 SK= 0.00E+00
    367 T=   191. E= -.93709328E+03 F= -.94189692E+03 E0= -.94189692E+03  EK= 0.48036E+01 SP= 0.00E+00 SK= 0.00E+00
    368 T=   190. E= -.93701819E+03 F= -.94180344E+03 E0= -.94180344E+03  EK= 0.47852E+01 SP= 0.00E+00 SK= 0.00E+00
    369 T=   189. E= -.93698714E+03 F= -.94175869E+03 E0= -.94175869E+03  EK= 0.47716E+01 SP= 0.00E+00 SK= 0.00E+00
    370 T=   190. E= -.93699889E+03 F= -.94179396E+03 E0= -.94179396E+03  EK= 0.47951E+01 SP= 0.00E+00 SK= 0.00E+00
    371 T=   195. E= -.93697724E+03 F= -.94188315E+03 E0= -.94188315E+03  EK= 0.49059E+01 SP= 0.00E+00 SK= 0.00E+00
       N       E                     dE             d eps       ncg     rms          rms(c)
DAV:   1    -0.926433038517E+03    0.43346E+01   -0.20755E+03 16238   0.891E+01
DAV:   2    -0.931709893408E+03   -0.52769E+01   -0.52757E+01 19172   0.130E+01
DAV:   3    -0.931766268449E+03   -0.56375E-01   -0.56372E-01 19492   0.137E+00
DAV:   4    -0.931767594816E+03   -0.13264E-02   -0.13263E-02 19148   0.199E-01    0.877E+00
DAV:   5    -0.931028918449E+03    0.73868E+00   -0.14506E+00 19884   0.313E+00    0.479E+00
DAV:   6    -0.930955887961E+03    0.73030E-01   -0.11919E+00 19460   0.246E+00    0.139E+00
DAV:   7    -0.930967979026E+03   -0.12091E-01   -0.24655E-01 18980   0.128E+00    0.562E-01
DAV:   8    -0.930964146854E+03    0.38322E-02   -0.27877E-02 18828   0.412E-01    0.309E-01
DAV:   9    -0.930960736762E+03    0.34101E-02   -0.13124E-02 18428   0.272E-01    0.168E-01
DAV:  10    -0.930958987996E+03    0.17488E-02   -0.25297E-03 21892   0.194E-01    0.673E-02
DAV:  11    -0.930958463140E+03    0.52486E-03   -0.20440E-03 18980   0.128E-01    0.595E-02
DAV:  12    -0.930958007225E+03    0.45592E-03   -0.37827E-04 16580   0.882E-02    0.235E-02
DAV:  13    -0.930957781123E+03    0.22610E-03   -0.24641E-04 14676   0.849E-02    0.269E-02
DAV:  14    -0.930957753171E+03    0.27952E-04   -0.29449E-04 16612   0.543E-02
    372 T=   198. E= -.93700457E+03 F= -.94198949E+03 E0= -.94198949E+03  EK= 0.49849E+01 SP= 0.00E+00 SK= 0.00E+00
    373 T=   198. E= -.93698274E+03 F= -.94197519E+03 E0= -.94197519E+03  EK= 0.49924E+01 SP= 0.00E+00 SK= 0.00E+00
    374 T=   196. E= -.93697025E+03 F= -.94190492E+03 E0= -.94190492E+03  EK= 0.49347E+01 SP= 0.00E+00 SK= 0.00E+00
    375 T=   190. E= -.93700299E+03 F= -.94179715E+03 E0= -.94179715E+03  EK= 0.47942E+01 SP= 0.00E+00 SK= 0.00E+00
    376 T=   183. E= -.93705522E+03 F= -.94167313E+03 E0= -.94167313E+03  EK= 0.46179E+01 SP= 0.00E+00 SK= 0.00E+00
    377 T=   180. E= -.93708654E+03 F= -.94161836E+03 E0= -.94161836E+03  EK= 0.45318E+01 SP= 0.00E+00 SK= 0.00E+00
    378 T=   181. E= -.93706490E+03 F= -.94163673E+03 E0= -.94163673E+03  EK= 0.45718E+01 SP= 0.00E+00 SK= 0.00E+00
    379 T=   190. E= -.93695964E+03 F= -.94174729E+03 E0= -.94174729E+03  EK= 0.47877E+01 SP= 0.00E+00 SK= 0.00E+00
    380 T=   197. E= -.93689319E+03 F= -.94186776E+03 E0= -.94186776E+03  EK= 0.49746E+01 SP= 0.00E+00 SK= 0.00E+00
    381 T=   198. E= -.93694940E+03 F= -.94193349E+03 E0= -.94193349E+03  EK= 0.49841E+01 SP= 0.00E+00 SK= 0.00E+00
       N       E                     dE             d eps       ncg     rms          rms(c)
DAV:   1    -0.926199403045E+03    0.47584E+01   -0.21207E+03 16238   0.899E+01
DAV:   2    -0.931641934003E+03   -0.54425E+01   -0.54415E+01 19020   0.131E+01
DAV:   3    -0.931699859416E+03   -0.57925E-01   -0.57923E-01 19460   0.138E+00
DAV:   4    -0.931701216076E+03   -0.13567E-02   -0.13566E-02 19116   0.201E-01    0.857E+00
DAV:   5    -0.930983246225E+03    0.71797E+00   -0.13695E+00 20508   0.316E+00    0.469E+00
DAV:   6    -0.930904899323E+03    0.78347E-01   -0.11757E+00 19516   0.256E+00    0.137E+00
DAV:   7    -0.930913856383E+03   -0.89571E-02   -0.23936E-01 18900   0.122E+00    0.566E-01
DAV:   8    -0.930909513903E+03    0.43425E-02   -0.26233E-02 18964   0.376E-01    0.312E-01
DAV:   9    -0.930905483205E+03    0.40307E-02   -0.11455E-02 18508   0.287E-01    0.164E-01
DAV:  10    -0.930903226223E+03    0.22570E-02   -0.26247E-03 21340   0.201E-01    0.669E-02
DAV:  11    -0.930902517113E+03    0.70911E-03   -0.21445E-03 19252   0.137E-01    0.628E-02
DAV:  12    -0.930901951947E+03    0.56517E-03   -0.63733E-04 17756   0.106E-01    0.281E-02
DAV:  13    -0.930901773031E+03    0.17892E-03   -0.33204E-04 17108   0.765E-02    0.344E-02
DAV:  14    -0.930901736030E+03    0.37001E-04   -0.30169E-04 17124   0.510E-02
    382 T=   195. E= -.93701329E+03 F= -.94192030E+03 E0= -.94192030E+03  EK= 0.49070E+01 SP= 0.00E+00 SK= 0.00E+00
    383 T=   189. E= -.93703505E+03 F= -.94179843E+03 E0= -.94179843E+03  EK= 0.47634E+01 SP= 0.00E+00 SK= 0.00E+00
    384 T=   186. E= -.93704681E+03 F= -.94172777E+03 E0= -.94172777E+03  EK= 0.46810E+01 SP= 0.00E+00 SK= 0.00E+00
    385 T=   188. E= -.93702602E+03 F= -.94175743E+03 E0= -.94175743E+03  EK= 0.47314E+01 SP= 0.00E+00 SK= 0.00E+00
    386 T=   195. E= -.93694094E+03 F= -.94186694E+03 E0= -.94186694E+03  EK= 0.49260E+01 SP= 0.00E+00 SK= 0.00E+00
    387 T=   203. E= -.93688410E+03 F= -.94200556E+03 E0= -.94200556E+03  EK= 0.51215E+01 SP= 0.00E+00 SK= 0.00E+00
    388 T=   207. E= -.93688929E+03 F= -.94210459E+03 E0= -.94210459E+03  EK= 0.52153E+01 SP= 0.00E+00 SK= 0.00E+00
    389 T=   208. E= -.93688696E+03 F= -.94212743E+03 E0= -.94212743E+03  EK= 0.52405E+01 SP= 0.00E+00 SK= 0.00E+00
    390 T=   206. E= -.93687110E+03 F= -.94206659E+03 E0= -.94206659E+03  EK= 0.51955E+01 SP= 0.00E+00 SK= 0.00E+00
    391 T=   203. E= -.93685030E+03 F= -.94196156E+03 E0= -.94196156E+03  EK= 0.51113E+01 SP= 0.00E+00 SK= 0.00E+00
       N       E                     dE             d eps       ncg     rms          rms(c)
DAV:   1    -0.926695179751E+03    0.42066E+01   -0.20007E+03 16238   0.878E+01
DAV:   2    -0.931582900267E+03   -0.48877E+01   -0.48866E+01 19148   0.125E+01
DAV:   3    -0.931635236510E+03   -0.52336E-01   -0.52334E-01 19492   0.132E+00
DAV:   4    -0.931636454571E+03   -0.12181E-02   -0.12180E-02 19204   0.191E-01    0.873E+00
DAV:   5    -0.930911137370E+03    0.72532E+00   -0.14971E+00 20740   0.337E+00    0.476E+00
DAV:   6    -0.930860309485E+03    0.50828E-01   -0.12255E+00 19516   0.256E+00    0.146E+00
DAV:   7    -0.930872805041E+03   -0.12496E-01   -0.24315E-01 18548   0.126E+00    0.545E-01
DAV:   8    -0.930869265797E+03    0.35392E-02   -0.27247E-02 18764   0.440E-01    0.274E-01
DAV:   9    -0.930866938242E+03    0.23276E-02   -0.12615E-02 18236   0.259E-01    0.170E-01
DAV:  10    -0.930865549040E+03    0.13892E-02   -0.26366E-03 22252   0.176E-01    0.548E-02
DAV:  11    -0.930865130160E+03    0.41888E-03   -0.12874E-03 18524   0.987E-02    0.453E-02
DAV:  12    -0.930864854785E+03    0.27537E-03   -0.21031E-04 14228   0.641E-02    0.236E-02
DAV:  13    -0.930864729582E+03    0.12520E-03   -0.23324E-04 14460   0.592E-02    0.225E-02
DAV:  14    -0.930864712096E+03    0.17487E-04   -0.12380E-04 13708   0.327E-02
    392 T=   196. E= -.93696220E+03 F= -.94190010E+03 E0= -.94190010E+03  EK= 0.49379E+01 SP= 0.00E+00 SK= 0.00E+00
    393 T=   193. E= -.93696014E+03 F= -.94183596E+03 E0= -.94183596E+03  EK= 0.48758E+01 SP= 0.00E+00 SK= 0.00E+00
    394 T=   198. E= -.93690937E+03 F= -.94188772E+03 E0= -.94188772E+03  EK= 0.49783E+01 SP= 0.00E+00 SK= 0.00E+00
    395 T=   203. E= -.93684528E+03 F= -.94195113E+03 E0= -.94195113E+03  EK= 0.51058E+01 SP= 0.00E+00 SK= 0.00E+00
    396 T=   205. E= -.93678519E+03 F= -.94194365E+03 E0= -.94194365E+03  EK= 0.51585E+01 SP= 0.00E+00 SK= 0.00E+00
    397 T=   200. E= -.93675409E+03 F= -.94179367E+03 E0= -.94179367E+03  EK= 0.50396E+01 SP= 0.00E+00 SK= 0.00E+00
    398 T=   192. E= -.93671400E+03 F= -.94156141E+03 E0= -.94156141E+03  EK= 0.48474E+01 SP= 0.00E+00 SK= 0.00E+00
    399 T=   186. E= -.93665418E+03 F= -.94134855E+03 E0= -.94134855E+03  EK= 0.46944E+01 SP= 0.00E+00 SK= 0.00E+00
    400 T=   186. E= -.93659531E+03 F= -.94127145E+03 E0= -.94127145E+03  EK= 0.46761E+01 SP= 0.00E+00 SK= 0.00E+00
    401 T=   189. E= -.93652700E+03 F= -.94128621E+03 E0= -.94128621E+03  EK= 0.47592E+01 SP= 0.00E+00 SK= 0.00E+00
       N       E                     dE             d eps       ncg     rms          rms(c)
DAV:   1    -0.925344975445E+03    0.55198E+01   -0.22188E+03 16238   0.921E+01
DAV:   2    -0.931212435037E+03   -0.58675E+01   -0.58659E+01 19164   0.136E+01
DAV:   3    -0.931274004484E+03   -0.61569E-01   -0.61566E-01 19492   0.143E+00
DAV:   4    -0.931275452743E+03   -0.14483E-02   -0.14482E-02 19172   0.208E-01    0.906E+00
DAV:   5    -0.930418328135E+03    0.85712E+00   -0.16517E+00 20436   0.340E+00    0.490E+00
DAV:   6    -0.930326041271E+03    0.92287E-01   -0.12882E+00 19580   0.255E+00    0.147E+00
DAV:   7    -0.930340430347E+03   -0.14389E-01   -0.24557E-01 18676   0.124E+00    0.574E-01
DAV:   8    -0.930336942572E+03    0.34878E-02   -0.26650E-02 18820   0.411E-01    0.284E-01
DAV:   9    -0.930334356263E+03    0.25863E-02   -0.93804E-03 18372   0.238E-01    0.145E-01
DAV:  10    -0.930332925946E+03    0.14303E-02   -0.24412E-03 22276   0.184E-01    0.462E-02
DAV:  11    -0.930332601350E+03    0.32460E-03   -0.11135E-03 19100   0.884E-02    0.446E-02
DAV:  12    -0.930332264251E+03    0.33710E-03   -0.16244E-04 13212   0.673E-02    0.171E-02
DAV:  13    -0.930332151129E+03    0.11312E-03   -0.24564E-04 14732   0.689E-02    0.268E-02
DAV:  14    -0.930332137351E+03    0.13778E-04   -0.24632E-04 15108   0.457E-02
    402 T=   194. E= -.93648400E+03 F= -.94137858E+03 E0= -.94137858E+03  EK= 0.48946E+01 SP= 0.00E+00 SK= 0.00E+00
    403 T=   197. E= -.93648459E+03 F= -.94144137E+03 E0= -.94144137E+03  EK= 0.49568E+01 SP= 0.00E+00 SK= 0.00E+00
    404 T=   196. E= -.93654636E+03 F= -.94149176E+03 E0= -.94149176E+03  EK= 0.49454E+01 SP= 0.00E+00 SK= 0.00E+00
    405 T=   196. E= -.93655816E+03 F= -.94150109E+03 E0= -.94150109E+03  EK= 0.49429E+01 SP= 0.00E+00 SK= 0.00E+00
    406 T=   194. E= -.93656909E+03 F= -.94146656E+03 E0= -.94146656E+03  EK= 0.48975E+01 SP= 0.00E+00 SK= 0.00E+00
    407 T=   196. E= -.93648574E+03 F= -.94141662E+03 E0= -.94141662E+03  EK= 0.49309E+01 SP= 0.00E+00 SK= 0.00E+00
    408 T=   197. E= -.93638704E+03 F= -.94134713E+03 E0= -.94134713E+03  EK= 0.49601E+01 SP= 0.00E+00 SK= 0.00E+00
    409 T=   194. E= -.93642114E+03 F= -.94131287E+03 E0= -.94131287E+03  EK= 0.48917E+01 SP= 0.00E+00 SK= 0.00E+00
    410 T=   195. E= -.93643103E+03 F= -.94135820E+03 E0= -.94135820E+03  EK= 0.49272E+01 SP= 0.00E+00 SK= 0.00E+00
    411 T=   203. E= -.93636847E+03 F= -.94149399E+03 E0= -.94149399E+03  EK= 0.51255E+01 SP= 0.00E+00 SK= 0.00E+00
    412 T=   212. E= -.93628119E+03 F= -.94163211E+03 E0= -.94163211E+03  EK= 0.53509E+01 SP= 0.00E+00 SK= 0.00E+00
       N       E                     dE             d eps       ncg     rms          rms(c)
DAV:   1    -0.925218942095E+03    0.51132E+01   -0.24703E+03 16238   0.970E+01
DAV:   2    -0.931448611958E+03   -0.62297E+01   -0.62281E+01 19092   0.141E+01
DAV:   3    -0.931512437658E+03   -0.63826E-01   -0.63822E-01 19540   0.146E+00
DAV:   4    -0.931513865993E+03   -0.14283E-02   -0.14283E-02 19156   0.211E-01    0.917E+00
DAV:   5    -0.930713757044E+03    0.80011E+00   -0.15840E+00 20396   0.321E+00    0.505E+00
DAV:   6    -0.930648230103E+03    0.65527E-01   -0.13537E+00 19484   0.259E+00    0.141E+00
DAV:   7    -0.930666537355E+03   -0.18307E-01   -0.25173E-01 18612   0.125E+00    0.563E-01
DAV:   8    -0.930664119412E+03    0.24179E-02   -0.26812E-02 18708   0.373E-01    0.313E-01
DAV:   9    -0.930661722818E+03    0.23966E-02   -0.11133E-02 18428   0.266E-01    0.160E-01
DAV:  10    -0.930660377143E+03    0.13457E-02   -0.22209E-03 21548   0.174E-01    0.617E-02
DAV:  11    -0.930660016527E+03    0.36062E-03   -0.15466E-03 19036   0.107E-01    0.458E-02
DAV:  12    -0.930659692237E+03    0.32429E-03   -0.22595E-04 14508   0.801E-02    0.172E-02
DAV:  13    -0.930659599233E+03    0.93004E-04   -0.28003E-04 16076   0.646E-02
    413 T=   216. E= -.93625772E+03 F= -.94169877E+03 E0= -.94169877E+03  EK= 0.54410E+01 SP= 0.00E+00 SK= 0.00E+00
    414 T=   215. E= -.93622391E+03 F= -.94163847E+03 E0= -.94163847E+03  EK= 0.54146E+01 SP= 0.00E+00 SK= 0.00E+00
    415 T=   211. E= -.93618854E+03 F= -.94151295E+03 E0= -.94151295E+03  EK= 0.53244E+01 SP= 0.00E+00 SK= 0.00E+00
    416 T=   207. E= -.93619656E+03 F= -.94141907E+03 E0= -.94141907E+03  EK= 0.52225E+01 SP= 0.00E+00 SK= 0.00E+00
    417 T=   205. E= -.93621586E+03 F= -.94139327E+03 E0= -.94139327E+03  EK= 0.51774E+01 SP= 0.00E+00 SK= 0.00E+00
    418 T=   207. E= -.93622500E+03 F= -.94145032E+03 E0= -.94145032E+03  EK= 0.52253E+01 SP= 0.00E+00 SK= 0.00E+00
    419 T=   214. E= -.93617236E+03 F= -.94157656E+03 E0= -.94157656E+03  EK= 0.54042E+01 SP= 0.00E+00 SK= 0.00E+00
    420 T=   222. E= -.93611012E+03 F= -.94170179E+03 E0= -.94170179E+03  EK= 0.55917E+01 SP= 0.00E+00 SK= 0.00E+00
    421 T=   223. E= -.93613221E+03 F= -.94175751E+03 E0= -.94175751E+03  EK= 0.56253E+01 SP= 0.00E+00 SK= 0.00E+00
    422 T=   221. E= -.93614795E+03 F= -.94172351E+03 E0= -.94172351E+03  EK= 0.55756E+01 SP= 0.00E+00 SK= 0.00E+00
       N       E                     dE             d eps       ncg     rms          rms(c)
DAV:   1    -0.926255534570E+03    0.44042E+01   -0.19943E+03 16238   0.877E+01
DAV:   2    -0.931210558019E+03   -0.49550E+01   -0.49539E+01 19140   0.126E+01
DAV:   3    -0.931262075281E+03   -0.51517E-01   -0.51515E-01 19476   0.131E+00
DAV:   4    -0.931263248254E+03   -0.11730E-02   -0.11729E-02 19100   0.191E-01    0.893E+00
DAV:   5    -0.930614822356E+03    0.64843E+00   -0.14127E+00 20196   0.309E+00    0.494E+00
DAV:   6    -0.930585055712E+03    0.29767E-01   -0.11777E+00 19476   0.243E+00    0.141E+00
DAV:   7    -0.930596857481E+03   -0.11802E-01   -0.23745E-01 18644   0.130E+00    0.547E-01
DAV:   8    -0.930593034678E+03    0.38228E-02   -0.31222E-02 18412   0.440E-01    0.286E-01
DAV:   9    -0.930590058261E+03    0.29764E-02   -0.11457E-02 18212   0.231E-01    0.158E-01
DAV:  10    -0.930588277397E+03    0.17809E-02   -0.21405E-03 22108   0.185E-01    0.511E-02
DAV:  11    -0.930587847668E+03    0.42973E-03   -0.16271E-03 18956   0.108E-01    0.546E-02
DAV:  12    -0.930587485435E+03    0.36223E-03   -0.33799E-04 16292   0.640E-02    0.195E-02
DAV:  13    -0.930587376131E+03    0.10930E-03   -0.18438E-04 13628   0.577E-02    0.311E-02
DAV:  14    -0.930587345925E+03    0.30206E-04   -0.18139E-04 14564   0.448E-02
    423 T=   217. E= -.93614393E+03 F= -.94161282E+03 E0= -.94161282E+03  EK= 0.54689E+01 SP= 0.00E+00 SK= 0.00E+00
    424 T=   212. E= -.93616405E+03 F= -.94151966E+03 E0= -.94151966E+03  EK= 0.53556E+01 SP= 0.00E+00 SK= 0.00E+00
    425 T=   212. E= -.93616159E+03 F= -.94150953E+03 E0= -.94150953E+03  EK= 0.53479E+01 SP= 0.00E+00 SK= 0.00E+00
    426 T=   217. E= -.93612216E+03 F= -.94158374E+03 E0= -.94158374E+03  EK= 0.54616E+01 SP= 0.00E+00 SK= 0.00E+00
    427 T=   219. E= -.93614069E+03 F= -.94164908E+03 E0= -.94164908E+03  EK= 0.55084E+01 SP= 0.00E+00 SK= 0.00E+00
    428 T=   220. E= -.93611864E+03 F= -.94167146E+03 E0= -.94167146E+03  EK= 0.55528E+01 SP= 0.00E+00 SK= 0.00E+00
    429 T=   220. E= -.93608731E+03 F= -.94162192E+03 E0= -.94162192E+03  EK= 0.55346E+01 SP= 0.00E+00 SK= 0.00E+00
    430 T=   213. E= -.93613835E+03 F= -.94151337E+03 E0= -.94151337E+03  EK= 0.53750E+01 SP= 0.00E+00 SK= 0.00E+00
    431 T=   208. E= -.93614929E+03 F= -.94139398E+03 E0= -.94139398E+03  EK= 0.52447E+01 SP= 0.00E+00 SK= 0.00E+00
    432 T=   203. E= -.93619260E+03 F= -.94130530E+03 E0= -.94130530E+03  EK= 0.51127E+01 SP= 0.00E+00 SK= 0.00E+00
       N       E                     dE             d eps       ncg     rms          rms(c)
DAV:   1    -0.924516929484E+03    0.60704E+01   -0.24644E+03 16238   0.970E+01
DAV:   2    -0.931201625721E+03   -0.66847E+01   -0.66832E+01 19004   0.145E+01
DAV:   3    -0.931271110158E+03   -0.69484E-01   -0.69481E-01 19500   0.152E+00
DAV:   4    -0.931272690835E+03   -0.15807E-02   -0.15806E-02 19084   0.218E-01    0.965E+00
DAV:   5    -0.930349269005E+03    0.92342E+00   -0.18050E+00 20588   0.366E+00    0.520E+00
DAV:   6    -0.930266433069E+03    0.82836E-01   -0.14262E+00 19452   0.274E+00    0.156E+00
DAV:   7    -0.930284488707E+03   -0.18056E-01   -0.27543E-01 18852   0.128E+00    0.594E-01
DAV:   8    -0.930280539548E+03    0.39492E-02   -0.25463E-02 19340   0.415E-01    0.296E-01
DAV:   9    -0.930277537564E+03    0.30020E-02   -0.10667E-02 18348   0.271E-01    0.153E-01
DAV:  10    -0.930275983796E+03    0.15538E-02   -0.28566E-03 21588   0.189E-01    0.499E-02
DAV:  11    -0.930275489953E+03    0.49384E-03   -0.11764E-03 18740   0.101E-01    0.464E-02
DAV:  12    -0.930274983107E+03    0.50685E-03   -0.27479E-04 15236   0.103E-01    0.180E-02
DAV:  13    -0.930274862776E+03    0.12033E-03   -0.43323E-04 17596   0.825E-02    0.309E-02
DAV:  14    -0.930274850285E+03    0.12492E-04   -0.28149E-04 16660   0.420E-02
    433 T=   201. E= -.93621598E+03 F= -.94129418E+03 E0= -.94129418E+03  EK= 0.50782E+01 SP= 0.00E+00 SK= 0.00E+00
    434 T=   207. E= -.93624908E+03 F= -.94147636E+03 E0= -.94147636E+03  EK= 0.52273E+01 SP= 0.00E+00 SK= 0.00E+00
    435 T=   217. E= -.93625011E+03 F= -.94171403E+03 E0= -.94171403E+03  EK= 0.54639E+01 SP= 0.00E+00 SK= 0.00E+00
    436 T=   226. E= -.93621550E+03 F= -.94190453E+03 E0= -.94190453E+03  EK= 0.56890E+01 SP= 0.00E+00 SK= 0.00E+00
    437 T=   226. E= -.93627654E+03 F= -.94196401E+03 E0= -.94196401E+03  EK= 0.56875E+01 SP= 0.00E+00 SK= 0.00E+00
    438 T=   222. E= -.93633693E+03 F= -.94192275E+03 E0= -.94192275E+03  EK= 0.55858E+01 SP= 0.00E+00 SK= 0.00E+00
    439 T=   218. E= -.93631930E+03 F= -.94181437E+03 E0= -.94181437E+03  EK= 0.54951E+01 SP= 0.00E+00 SK= 0.00E+00
    440 T=   217. E= -.93626871E+03 F= -.94172681E+03 E0= -.94172681E+03  EK= 0.54581E+01 SP= 0.00E+00 SK= 0.00E+00
    441 T=   216. E= -.93626472E+03 F= -.94170596E+03 E0= -.94170596E+03  EK= 0.54412E+01 SP= 0.00E+00 SK= 0.00E+00
    442 T=   217. E= -.93631443E+03 F= -.94177166E+03 E0= -.94177166E+03  EK= 0.54572E+01 SP= 0.00E+00 SK= 0.00E+00
       N       E                     dE             d eps       ncg     rms          rms(c)
DAV:   1    -0.924992597493E+03    0.52823E+01   -0.26162E+03 16238   0.100E+02
DAV:   2    -0.931767310786E+03   -0.67747E+01   -0.67731E+01 18924   0.146E+01
DAV:   3    -0.931838658952E+03   -0.71348E-01   -0.71344E-01 19444   0.155E+00
DAV:   4    -0.931840313491E+03   -0.16545E-02   -0.16545E-02 19068   0.224E-01    0.957E+00
DAV:   5    -0.930924191651E+03    0.91612E+00   -0.17037E+00 20196   0.348E+00    0.524E+00
DAV:   6    -0.930802150600E+03    0.12204E+00   -0.14342E+00 19548   0.287E+00    0.153E+00
DAV:   7    -0.930814055526E+03   -0.11905E-01   -0.31173E-01 18740   0.138E+00    0.656E-01
DAV:   8    -0.930807882294E+03    0.61732E-02   -0.32082E-02 18948   0.431E-01    0.352E-01
DAV:   9    -0.930802899906E+03    0.49824E-02   -0.13950E-02 18428   0.302E-01    0.175E-01
DAV:  10    -0.930800257588E+03    0.26423E-02   -0.28415E-03 20844   0.215E-01    0.740E-02
DAV:  11    -0.930799507456E+03    0.75013E-03   -0.28337E-03 19036   0.154E-01    0.728E-02
DAV:  12    -0.930799003890E+03    0.50357E-03   -0.98087E-04 18964   0.105E-01    0.354E-02
DAV:  13    -0.930798806649E+03    0.19724E-03   -0.22913E-04 13868   0.734E-02    0.350E-02
DAV:  14    -0.930798746064E+03    0.60585E-04   -0.26872E-04 15940   0.620E-02
    443 T=   217. E= -.93634625E+03 F= -.94182740E+03 E0= -.94182740E+03  EK= 0.54812E+01 SP= 0.00E+00 SK= 0.00E+00
    444 T=   214. E= -.93649850E+03 F= -.94188037E+03 E0= -.94188037E+03  EK= 0.53819E+01 SP= 0.00E+00 SK= 0.00E+00
    445 T=   207. E= -.93660527E+03 F= -.94182901E+03 E0= -.94182901E+03  EK= 0.52237E+01 SP= 0.00E+00 SK= 0.00E+00
    446 T=   200. E= -.93666536E+03 F= -.94171861E+03 E0= -.94171861E+03  EK= 0.50533E+01 SP= 0.00E+00 SK= 0.00E+00
    447 T=   198. E= -.93667688E+03 F= -.94165960E+03 E0= -.94165960E+03  EK= 0.49827E+01 SP= 0.00E+00 SK= 0.00E+00
    448 T=   198. E= -.93667694E+03 F= -.94165888E+03 E0= -.94165888E+03  EK= 0.49819E+01 SP= 0.00E+00 SK= 0.00E+00
    449 T=   201. E= -.93666959E+03 F= -.94173380E+03 E0= -.94173380E+03  EK= 0.50642E+01 SP= 0.00E+00 SK= 0.00E+00
    450 T=   205. E= -.93667975E+03 F= -.94185025E+03 E0= -.94185025E+03  EK= 0.51705E+01 SP= 0.00E+00 SK= 0.00E+00
    451 T=   207. E= -.93673732E+03 F= -.94194237E+03 E0= -.94194237E+03  EK= 0.52051E+01 SP= 0.00E+00 SK= 0.00E+00
    452 T=   208. E= -.93676188E+03 F= -.94199691E+03 E0= -.94199691E+03  EK= 0.52350E+01 SP= 0.00E+00 SK= 0.00E+00
       N       E                     dE             d eps       ncg     rms          rms(c)
DAV:   1    -0.925046184081E+03    0.57526E+01   -0.25769E+03 16238   0.989E+01
DAV:   2    -0.931934540222E+03   -0.68884E+01   -0.68869E+01 19012   0.147E+01
DAV:   3    -0.932006948856E+03   -0.72409E-01   -0.72406E-01 19460   0.155E+00
DAV:   4    -0.932008627273E+03   -0.16784E-02   -0.16784E-02 19092   0.224E-01    0.929E+00
DAV:   5    -0.931093090793E+03    0.91554E+00   -0.16858E+00 20284   0.349E+00    0.502E+00
DAV:   6    -0.930979911684E+03    0.11318E+00   -0.13867E+00 19412   0.263E+00    0.148E+00
DAV:   7    -0.930990696943E+03   -0.10785E-01   -0.26649E-01 18764   0.132E+00    0.592E-01
DAV:   8    -0.930986596250E+03    0.41007E-02   -0.29642E-02 18876   0.425E-01    0.313E-01
DAV:   9    -0.930983309735E+03    0.32865E-02   -0.14005E-02 18268   0.275E-01    0.181E-01
DAV:  10    -0.930981409953E+03    0.18998E-02   -0.31542E-03 22748   0.209E-01    0.555E-02
DAV:  11    -0.930980938843E+03    0.47111E-03   -0.16617E-03 18788   0.108E-01    0.524E-02
DAV:  12    -0.930980463414E+03    0.47543E-03   -0.26321E-04 14612   0.815E-02    0.197E-02
DAV:  13    -0.930980326246E+03    0.13717E-03   -0.33778E-04 16636   0.724E-02    0.309E-02
DAV:  14    -0.930980303212E+03    0.23034E-04   -0.23001E-04 14692   0.458E-02
    453 T=   209. E= -.93672406E+03 F= -.94199549E+03 E0= -.94199549E+03  EK= 0.52714E+01 SP= 0.00E+00 SK= 0.00E+00
    454 T=   207. E= -.93670609E+03 F= -.94191174E+03 E0= -.94191174E+03  EK= 0.52057E+01 SP= 0.00E+00 SK= 0.00E+00
    455 T=   205. E= -.93673569E+03 F= -.94190694E+03 E0= -.94190694E+03  EK= 0.51713E+01 SP= 0.00E+00 SK= 0.00E+00
    456 T=   208. E= -.93671105E+03 F= -.94194451E+03 E0= -.94194451E+03  EK= 0.52335E+01 SP= 0.00E+00 SK= 0.00E+00
    457 T=   211. E= -.93669094E+03 F= -.94201579E+03 E0= -.94201579E+03  EK= 0.53248E+01 SP= 0.00E+00 SK= 0.00E+00
    458 T=   214. E= -.93667096E+03 F= -.94206600E+03 E0= -.94206600E+03  EK= 0.53950E+01 SP= 0.00E+00 SK= 0.00E+00
    459 T=   217. E= -.93660544E+03 F= -.94208471E+03 E0= -.94208471E+03  EK= 0.54793E+01 SP= 0.00E+00 SK= 0.00E+00
    460 T=   217. E= -.93657621E+03 F= -.94204154E+03 E0= -.94204154E+03  EK= 0.54653E+01 SP= 0.00E+00 SK= 0.00E+00
    461 T=   212. E= -.93661660E+03 F= -.94196788E+03 E0= -.94196788E+03  EK= 0.53513E+01 SP= 0.00E+00 SK= 0.00E+00
    462 T=   209. E= -.93661471E+03 F= -.94187963E+03 E0= -.94187963E+03  EK= 0.52649E+01 SP= 0.00E+00 SK= 0.00E+00
       N       E                     dE             d eps       ncg     rms          rms(c)
DAV:   1    -0.925146725190E+03    0.58336E+01   -0.24268E+03 16238   0.960E+01
DAV:   2    -0.931640329853E+03   -0.64936E+01   -0.64922E+01 19028   0.143E+01
DAV:   3    -0.931707870828E+03   -0.67541E-01   -0.67538E-01 19508   0.149E+00
DAV:   4    -0.931709430509E+03   -0.15597E-02   -0.15596E-02 19052   0.215E-01    0.921E+00
DAV:   5    -0.930855078335E+03    0.85435E+00   -0.15864E+00 19836   0.328E+00    0.504E+00
DAV:   6    -0.930750340087E+03    0.10474E+00   -0.13613E+00 19524   0.273E+00    0.145E+00
DAV:   7    -0.930761761967E+03   -0.11422E-01   -0.28882E-01 18460   0.129E+00    0.617E-01
DAV:   8    -0.930755840395E+03    0.59216E-02   -0.26205E-02 18724   0.415E-01    0.309E-01
DAV:   9    -0.930752157455E+03    0.36829E-02   -0.12736E-02 18156   0.270E-01    0.164E-01
DAV:  10    -0.930750375143E+03    0.17823E-02   -0.26225E-03 21828   0.179E-01    0.581E-02
DAV:  11    -0.930749836104E+03    0.53904E-03   -0.14098E-03 18732   0.106E-01    0.517E-02
DAV:  12    -0.930749436564E+03    0.39954E-03   -0.35722E-04 15924   0.838E-02    0.226E-02
DAV:  13    -0.930749336992E+03    0.99572E-04   -0.27797E-04 14972   0.584E-02
    463 T=   207. E= -.93654885E+03 F= -.94176327E+03 E0= -.94176327E+03  EK= 0.52144E+01 SP= 0.00E+00 SK= 0.00E+00
    464 T=   206. E= -.93657499E+03 F= -.94176586E+03 E0= -.94176586E+03  EK= 0.51909E+01 SP= 0.00E+00 SK= 0.00E+00
    465 T=   208. E= -.93654828E+03 F= -.94179403E+03 E0= -.94179403E+03  EK= 0.52458E+01 SP= 0.00E+00 SK= 0.00E+00
    466 T=   210. E= -.93654750E+03 F= -.94185080E+03 E0= -.94185080E+03  EK= 0.53033E+01 SP= 0.00E+00 SK= 0.00E+00
    467 T=   209. E= -.93658277E+03 F= -.94185810E+03 E0= -.94185810E+03  EK= 0.52753E+01 SP= 0.00E+00 SK= 0.00E+00
    468 T=   205. E= -.93665021E+03 F= -.94182127E+03 E0= -.94182127E+03  EK= 0.51711E+01 SP= 0.00E+00 SK= 0.00E+00
    469 T=   200. E= -.93671872E+03 F= -.94176491E+03 E0= -.94176491E+03  EK= 0.50462E+01 SP= 0.00E+00 SK= 0.00E+00
    470 T=   197. E= -.93677314E+03 F= -.94173747E+03 E0= -.94173747E+03  EK= 0.49643E+01 SP= 0.00E+00 SK= 0.00E+00
    471 T=   195. E= -.93685567E+03 F= -.94177215E+03 E0= -.94177215E+03  EK= 0.49165E+01 SP= 0.00E+00 SK= 0.00E+00
    472 T=   197. E= -.93692385E+03 F= -.94188054E+03 E0= -.94188054E+03  EK= 0.49567E+01 SP= 0.00E+00 SK= 0.00E+00
       N       E                     dE             d eps       ncg     rms          rms(c)
DAV:   1    -0.925431774987E+03    0.53177E+01   -0.23823E+03 16238   0.952E+01
DAV:   2    -0.931832571149E+03   -0.64008E+01   -0.63993E+01 19060   0.141E+01
DAV:   3    -0.931898509459E+03   -0.65938E-01   -0.65935E-01 19452   0.148E+00
DAV:   4    -0.931899995765E+03   -0.14863E-02   -0.14863E-02 19116   0.213E-01    0.913E+00
DAV:   5    -0.931055333325E+03    0.84466E+00   -0.16149E+00 20484   0.339E+00    0.498E+00
DAV:   6    -0.930962726388E+03    0.92607E-01   -0.13759E+00 19556   0.272E+00    0.145E+00
DAV:   7    -0.930976204701E+03   -0.13478E-01   -0.26685E-01 18724   0.128E+00    0.594E-01
DAV:   8    -0.930972361470E+03    0.38432E-02   -0.28207E-02 18564   0.393E-01    0.307E-01
DAV:   9    -0.930969203448E+03    0.31580E-02   -0.10899E-02 18444   0.257E-01    0.161E-01
DAV:  10    -0.930967347459E+03    0.18560E-02   -0.25771E-03 21300   0.189E-01    0.544E-02
DAV:  11    -0.930966839097E+03    0.50836E-03   -0.15249E-03 18988   0.107E-01    0.514E-02
DAV:  12    -0.930966450116E+03    0.38898E-03   -0.32612E-04 16356   0.674E-02    0.216E-02
DAV:  13    -0.930966300546E+03    0.14957E-03   -0.19642E-04 13924   0.613E-02    0.285E-02
DAV:  14    -0.930966277428E+03    0.23118E-04   -0.19189E-04 14092   0.400E-02
    473 T=   201. E= -.93689573E+03 F= -.94195628E+03 E0= -.94195628E+03  EK= 0.50605E+01 SP= 0.00E+00 SK= 0.00E+00
    474 T=   203. E= -.93696350E+03 F= -.94209116E+03 E0= -.94209116E+03  EK= 0.51277E+01 SP= 0.00E+00 SK= 0.00E+00
    475 T=   204. E= -.93699261E+03 F= -.94212229E+03 E0= -.94212229E+03  EK= 0.51297E+01 SP= 0.00E+00 SK= 0.00E+00
    476 T=   203. E= -.93700638E+03 F= -.94212966E+03 E0= -.94212966E+03  EK= 0.51233E+01 SP= 0.00E+00 SK= 0.00E+00
    477 T=   201. E= -.93705484E+03 F= -.94212594E+03 E0= -.94212594E+03  EK= 0.50711E+01 SP= 0.00E+00 SK= 0.00E+00
    478 T=   201. E= -.93707645E+03 F= -.94214441E+03 E0= -.94214441E+03  EK= 0.50680E+01 SP= 0.00E+00 SK= 0.00E+00
    479 T=   206. E= -.93698060E+03 F= -.94216681E+03 E0= -.94216681E+03  EK= 0.51862E+01 SP= 0.00E+00 SK= 0.00E+00
    480 T=   207. E= -.93694621E+03 F= -.94215754E+03 E0= -.94215754E+03  EK= 0.52113E+01 SP= 0.00E+00 SK= 0.00E+00
    481 T=   202. E= -.93698437E+03 F= -.94208407E+03 E0= -.94208407E+03  EK= 0.50997E+01 SP= 0.00E+00 SK= 0.00E+00
    482 T=   200. E= -.93696257E+03 F= -.94200004E+03 E0= -.94200004E+03  EK= 0.50375E+01 SP= 0.00E+00 SK= 0.00E+00
       N       E                     dE             d eps       ncg     rms          rms(c)
DAV:   1    -0.926500478788E+03    0.44658E+01   -0.21199E+03 16238   0.905E+01
DAV:   2    -0.931687811075E+03   -0.51873E+01   -0.51862E+01 19116   0.129E+01
DAV:   3    -0.931742336290E+03   -0.54525E-01   -0.54523E-01 19476   0.134E+00
DAV:   4    -0.931743591995E+03   -0.12557E-02   -0.12557E-02 19124   0.197E-01    0.899E+00
DAV:   5    -0.930967911019E+03    0.77568E+00   -0.16527E+00 20540   0.338E+00    0.488E+00
DAV:   6    -0.930903784426E+03    0.64127E-01   -0.12028E+00 19420   0.247E+00    0.150E+00
DAV:   7    -0.930917262709E+03   -0.13478E-01   -0.23258E-01 18580   0.121E+00    0.551E-01
DAV:   8    -0.930913280913E+03    0.39818E-02   -0.25350E-02 18380   0.393E-01    0.277E-01
DAV:   9    -0.930910550254E+03    0.27307E-02   -0.99685E-03 18028   0.224E-01    0.144E-01
DAV:  10    -0.930909149367E+03    0.14009E-02   -0.20732E-03 22268   0.163E-01    0.445E-02
DAV:  11    -0.930908802674E+03    0.34669E-03   -0.98550E-04 18820   0.807E-02    0.432E-02
DAV:  12    -0.930908524271E+03    0.27840E-03   -0.17815E-04 13404   0.542E-02    0.161E-02
DAV:  13    -0.930908438830E+03    0.85441E-04   -0.20974E-04 14172   0.503E-02
    483 T=   198. E= -.93691740E+03 F= -.94191260E+03 E0= -.94191260E+03  EK= 0.49952E+01 SP= 0.00E+00 SK= 0.00E+00
    484 T=   197. E= -.93694025E+03 F= -.94189690E+03 E0= -.94189690E+03  EK= 0.49566E+01 SP= 0.00E+00 SK= 0.00E+00
    485 T=   194. E= -.93692627E+03 F= -.94182001E+03 E0= -.94182001E+03  EK= 0.48937E+01 SP= 0.00E+00 SK= 0.00E+00
    486 T=   190. E= -.93692082E+03 F= -.94171612E+03 E0= -.94171612E+03  EK= 0.47953E+01 SP= 0.00E+00 SK= 0.00E+00
    487 T=   188. E= -.93691654E+03 F= -.94165241E+03 E0= -.94165241E+03  EK= 0.47359E+01 SP= 0.00E+00 SK= 0.00E+00
    488 T=   187. E= -.93692700E+03 F= -.94163791E+03 E0= -.94163791E+03  EK= 0.47109E+01 SP= 0.00E+00 SK= 0.00E+00
    489 T=   189. E= -.93691307E+03 F= -.94168719E+03 E0= -.94168719E+03  EK= 0.47741E+01 SP= 0.00E+00 SK= 0.00E+00
    490 T=   195. E= -.93690160E+03 F= -.94182406E+03 E0= -.94182406E+03  EK= 0.49225E+01 SP= 0.00E+00 SK= 0.00E+00
    491 T=   200. E= -.93688089E+03 F= -.94192874E+03 E0= -.94192874E+03  EK= 0.50478E+01 SP= 0.00E+00 SK= 0.00E+00
    492 T=   204. E= -.93680027E+03 F= -.94194308E+03 E0= -.94194308E+03  EK= 0.51428E+01 SP= 0.00E+00 SK= 0.00E+00
    493 T=   204. E= -.93672297E+03 F= -.94185518E+03 E0= -.94185518E+03  EK= 0.51322E+01 SP= 0.00E+00 SK= 0.00E+00
    494 T=   200. E= -.93664877E+03 F= -.94168547E+03 E0= -.94168547E+03  EK= 0.50367E+01 SP= 0.00E+00 SK= 0.00E+00
    495 T=   194. E= -.93665272E+03 F= -.94155391E+03 E0= -.94155391E+03  EK= 0.49012E+01 SP= 0.00E+00 SK= 0.00E+00
    496 T=   191. E= -.93665728E+03 F= -.94147763E+03 E0= -.94147763E+03  EK= 0.48204E+01 SP= 0.00E+00 SK= 0.00E+00
    497 T=   192. E= -.93661444E+03 F= -.94146532E+03 E0= -.94146532E+03  EK= 0.48509E+01 SP= 0.00E+00 SK= 0.00E+00
    498 T=   194. E= -.93664203E+03 F= -.94154062E+03 E0= -.94154062E+03  EK= 0.48986E+01 SP= 0.00E+00 SK= 0.00E+00
    499 T=   197. E= -.93670254E+03 F= -.94167933E+03 E0= -.94167933E+03  EK= 0.49768E+01 SP= 0.00E+00 SK= 0.00E+00
    500 T=   200. E= -.93674745E+03 F= -.94179184E+03 E0= -.94179184E+03  EK= 0.50444E+01 SP= 0.00E+00 SK= 0.00E+00
    501 T=   199. E= -.93681450E+03 F= -.94183281E+03 E0= -.94183281E+03  EK= 0.50183E+01 SP= 0.00E+00 SK= 0.00E+00
    502 T=   199. E= -.93681370E+03 F= -.94181952E+03 E0= -.94181952E+03  EK= 0.50058E+01 SP= 0.00E+00 SK= 0.00E+00
    503 T=   197. E= -.93677911E+03 F= -.94175151E+03 E0= -.94175151E+03  EK= 0.49724E+01 SP= 0.00E+00 SK= 0.00E+00
    504 T=   197. E= -.93672829E+03 F= -.94170624E+03 E0= -.94170624E+03  EK= 0.49779E+01 SP= 0.00E+00 SK= 0.00E+00
    505 T=   202. E= -.93664956E+03 F= -.94174544E+03 E0= -.94174544E+03  EK= 0.50959E+01 SP= 0.00E+00 SK= 0.00E+00
    506 T=   206. E= -.93666593E+03 F= -.94185781E+03 E0= -.94185781E+03  EK= 0.51919E+01 SP= 0.00E+00 SK= 0.00E+00
    507 T=   209. E= -.93673013E+03 F= -.94200939E+03 E0= -.94200939E+03  EK= 0.52793E+01 SP= 0.00E+00 SK= 0.00E+00
    508 T=   211. E= -.93678028E+03 F= -.94209940E+03 E0= -.94209940E+03  EK= 0.53191E+01 SP= 0.00E+00 SK= 0.00E+00
    509 T=   209. E= -.93681598E+03 F= -.94207221E+03 E0= -.94207221E+03  EK= 0.52562E+01 SP= 0.00E+00 SK= 0.00E+00
       N       E                     dE             d eps       ncg     rms          rms(c)
DAV:   1    -0.891008003695E+03    0.39901E+02   -0.95599E+03 16238   0.187E+02
DAV:   2    -0.933175656466E+03   -0.42168E+02   -0.42143E+02 18956   0.347E+01
DAV:   3    -0.933647114925E+03   -0.47146E+00   -0.47140E+00 19476   0.397E+00
DAV:   4    -0.933656642585E+03   -0.95277E-02   -0.95271E-02 19012   0.544E-01    0.163E+01
DAV:   5    -0.931125000893E+03    0.25316E+01   -0.42370E+00 19492   0.518E+00    0.914E+00
DAV:   6    -0.930887096227E+03    0.23790E+00   -0.46416E+00 19532   0.475E+00    0.224E+00
DAV:   7    -0.930948687400E+03   -0.61591E-01   -0.78349E-01 18532   0.214E+00    0.975E-01
DAV:   8    -0.930947290620E+03    0.13968E-02   -0.83036E-02 18932   0.596E-01    0.560E-01
DAV:   9    -0.930942734470E+03    0.45561E-02   -0.35169E-02 18540   0.512E-01    0.316E-01
DAV:  10    -0.930939052349E+03    0.36821E-02   -0.83242E-03 20692   0.312E-01    0.119E-01
DAV:  11    -0.930938405976E+03    0.64637E-03   -0.54687E-03 19620   0.182E-01    0.777E-02
DAV:  12    -0.930937690684E+03    0.71529E-03   -0.69113E-04 18708   0.979E-02    0.323E-02
DAV:  13    -0.930937207427E+03    0.48326E-03   -0.41486E-04 17028   0.114E-01    0.298E-02
DAV:  14    -0.930937120672E+03    0.86755E-04   -0.47411E-04 17812   0.799E-02
    510 T=   200. E= -.93688908E+03 F= -.94193098E+03 E0= -.94193098E+03  EK= 0.50419E+01 SP= 0.00E+00 SK= 0.00E+00
    511 T=   193. E= -.93695363E+03 F= -.94181109E+03 E0= -.94181109E+03  EK= 0.48575E+01 SP= 0.00E+00 SK= 0.00E+00
    512 T=   191. E= -.93690601E+03 F= -.94172184E+03 E0= -.94172184E+03  EK= 0.48158E+01 SP= 0.00E+00 SK= 0.00E+00
    513 T=   192. E= -.93685724E+03 F= -.94169570E+03 E0= -.94169570E+03  EK= 0.48385E+01 SP= 0.00E+00 SK= 0.00E+00
    514 T=   193. E= -.93686700E+03 F= -.94172113E+03 E0= -.94172113E+03  EK= 0.48541E+01 SP= 0.00E+00 SK= 0.00E+00
    515 T=   192. E= -.93689534E+03 F= -.94173974E+03 E0= -.94173974E+03  EK= 0.48444E+01 SP= 0.00E+00 SK= 0.00E+00
    516 T=   191. E= -.93693204E+03 F= -.94173942E+03 E0= -.94173942E+03  EK= 0.48074E+01 SP= 0.00E+00 SK= 0.00E+00
    517 T=   190. E= -.93695773E+03 F= -.94174081E+03 E0= -.94174081E+03  EK= 0.47831E+01 SP= 0.00E+00 SK= 0.00E+00
    518 T=   188. E= -.93702135E+03 F= -.94176591E+03 E0= -.94176591E+03  EK= 0.47446E+01 SP= 0.00E+00 SK= 0.00E+00
    519 T=   185. E= -.93706626E+03 F= -.94174140E+03 E0= -.94174140E+03  EK= 0.46751E+01 SP= 0.00E+00 SK= 0.00E+00
       N       E                     dE             d eps       ncg     rms          rms(c)
DAV:   1    -0.926847860135E+03    0.40893E+01   -0.18549E+03 16238   0.846E+01
DAV:   2    -0.931435631779E+03   -0.45878E+01   -0.45869E+01 19132   0.122E+01
DAV:   3    -0.931483721721E+03   -0.48090E-01   -0.48088E-01 19500   0.127E+00
DAV:   4    -0.931484824426E+03   -0.11027E-02   -0.11027E-02 19148   0.185E-01    0.862E+00
DAV:   5    -0.930755830727E+03    0.72899E+00   -0.14964E+00 20148   0.327E+00    0.468E+00
DAV:   6    -0.930687419275E+03    0.68411E-01   -0.11539E+00 19548   0.254E+00    0.145E+00
DAV:   7    -0.930693690962E+03   -0.62717E-02   -0.23995E-01 18860   0.129E+00    0.550E-01
DAV:   8    -0.930689064157E+03    0.46268E-02   -0.30629E-02 18980   0.417E-01    0.298E-01
DAV:   9    -0.930684586265E+03    0.44779E-02   -0.10580E-02 18420   0.269E-01    0.151E-01
DAV:  10    -0.930682287836E+03    0.22984E-02   -0.21286E-03 21244   0.207E-01    0.689E-02
DAV:  11    -0.930681476468E+03    0.81137E-03   -0.26355E-03 19132   0.168E-01    0.692E-02
DAV:  12    -0.930680978106E+03    0.49836E-03   -0.98336E-04 19060   0.115E-01    0.320E-02
DAV:  13    -0.930680796580E+03    0.18153E-03   -0.28159E-04 15636   0.773E-02    0.374E-02
DAV:  14    -0.930680730360E+03    0.66220E-04   -0.24697E-04 15284   0.650E-02
    520 T=   183. E= -.93706590E+03 F= -.94168503E+03 E0= -.94168503E+03  EK= 0.46191E+01 SP= 0.00E+00 SK= 0.00E+00
    521 T=   180. E= -.93702570E+03 F= -.94157103E+03 E0= -.94157103E+03  EK= 0.45453E+01 SP= 0.00E+00 SK= 0.00E+00
    522 T=   180. E= -.93698422E+03 F= -.94151409E+03 E0= -.94151409E+03  EK= 0.45299E+01 SP= 0.00E+00 SK= 0.00E+00
    523 T=   182. E= -.93697183E+03 F= -.94154963E+03 E0= -.94154963E+03  EK= 0.45778E+01 SP= 0.00E+00 SK= 0.00E+00
    524 T=   186. E= -.93694775E+03 F= -.94163645E+03 E0= -.94163645E+03  EK= 0.46887E+01 SP= 0.00E+00 SK= 0.00E+00
    525 T=   192. E= -.93686968E+03 F= -.94171807E+03 E0= -.94171807E+03  EK= 0.48484E+01 SP= 0.00E+00 SK= 0.00E+00
    526 T=   194. E= -.93682267E+03 F= -.94171943E+03 E0= -.94171943E+03  EK= 0.48968E+01 SP= 0.00E+00 SK= 0.00E+00
    527 T=   192. E= -.93681982E+03 F= -.94166548E+03 E0= -.94166548E+03  EK= 0.48457E+01 SP= 0.00E+00 SK= 0.00E+00
    528 T=   192. E= -.93675693E+03 F= -.94159507E+03 E0= -.94159507E+03  EK= 0.48381E+01 SP= 0.00E+00 SK= 0.00E+00
    529 T=   192. E= -.93667058E+03 F= -.94150643E+03 E0= -.94150643E+03  EK= 0.48358E+01 SP= 0.00E+00 SK= 0.00E+00
    530 T=   192. E= -.93660404E+03 F= -.94143928E+03 E0= -.94143928E+03  EK= 0.48352E+01 SP= 0.00E+00 SK= 0.00E+00
    531 T=   195. E= -.93653806E+03 F= -.94144577E+03 E0= -.94144577E+03  EK= 0.49077E+01 SP= 0.00E+00 SK= 0.00E+00
    532 T=   197. E= -.93655701E+03 F= -.94151711E+03 E0= -.94151711E+03  EK= 0.49601E+01 SP= 0.00E+00 SK= 0.00E+00
    533 T=   200. E= -.93658409E+03 F= -.94163439E+03 E0= -.94163439E+03  EK= 0.50503E+01 SP= 0.00E+00 SK= 0.00E+00
    534 T=   205. E= -.93657125E+03 F= -.94173475E+03 E0= -.94173475E+03  EK= 0.51635E+01 SP= 0.00E+00 SK= 0.00E+00
    535 T=   207. E= -.93656780E+03 F= -.94177985E+03 E0= -.94177985E+03  EK= 0.52121E+01 SP= 0.00E+00 SK= 0.00E+00
    536 T=   206. E= -.93659233E+03 F= -.94177741E+03 E0= -.94177741E+03  EK= 0.51851E+01 SP= 0.00E+00 SK= 0.00E+00
    537 T=   204. E= -.93665950E+03 F= -.94181094E+03 E0= -.94181094E+03  EK= 0.51514E+01 SP= 0.00E+00 SK= 0.00E+00
    538 T=   207. E= -.93669771E+03 F= -.94191192E+03 E0= -.94191192E+03  EK= 0.52142E+01 SP= 0.00E+00 SK= 0.00E+00
    539 T=   210. E= -.93674308E+03 F= -.94202757E+03 E0= -.94202757E+03  EK= 0.52845E+01 SP= 0.00E+00 SK= 0.00E+00
    540 T=   213. E= -.93676096E+03 F= -.94213496E+03 E0= -.94213496E+03  EK= 0.53740E+01 SP= 0.00E+00 SK= 0.00E+00
    541 T=   212. E= -.93678223E+03 F= -.94212779E+03 E0= -.94212779E+03  EK= 0.53456E+01 SP= 0.00E+00 SK= 0.00E+00
    542 T=   206. E= -.93684083E+03 F= -.94202493E+03 E0= -.94202493E+03  EK= 0.51841E+01 SP= 0.00E+00 SK= 0.00E+00
    543 T=   201. E= -.93683942E+03 F= -.94190245E+03 E0= -.94190245E+03  EK= 0.50630E+01 SP= 0.00E+00 SK= 0.00E+00
    544 T=   200. E= -.93680558E+03 F= -.94184318E+03 E0= -.94184318E+03  EK= 0.50376E+01 SP= 0.00E+00 SK= 0.00E+00
    545 T=   201. E= -.93679160E+03 F= -.94186517E+03 E0= -.94186517E+03  EK= 0.50736E+01 SP= 0.00E+00 SK= 0.00E+00
    546 T=   202. E= -.93680261E+03 F= -.94189033E+03 E0= -.94189033E+03  EK= 0.50877E+01 SP= 0.00E+00 SK= 0.00E+00
    547 T=   205. E= -.93675560E+03 F= -.94192017E+03 E0= -.94192017E+03  EK= 0.51646E+01 SP= 0.00E+00 SK= 0.00E+00
    548 T=   206. E= -.93667733E+03 F= -.94186248E+03 E0= -.94186248E+03  EK= 0.51852E+01 SP= 0.00E+00 SK= 0.00E+00
    549 T=   198. E= -.93672228E+03 F= -.94172045E+03 E0= -.94172045E+03  EK= 0.49982E+01 SP= 0.00E+00 SK= 0.00E+00
    550 T=   190. E= -.93678606E+03 F= -.94157336E+03 E0= -.94157336E+03  EK= 0.47873E+01 SP= 0.00E+00 SK= 0.00E+00
    551 T=   186. E= -.93678240E+03 F= -.94146799E+03 E0= -.94146799E+03  EK= 0.46856E+01 SP= 0.00E+00 SK= 0.00E+00
    552 T=   186. E= -.93678535E+03 F= -.94148114E+03 E0= -.94148114E+03  EK= 0.46958E+01 SP= 0.00E+00 SK= 0.00E+00
    553 T=   189. E= -.93678703E+03 F= -.94154864E+03 E0= -.94154864E+03  EK= 0.47616E+01 SP= 0.00E+00 SK= 0.00E+00
    554 T=   192. E= -.93679121E+03 F= -.94163089E+03 E0= -.94163089E+03  EK= 0.48397E+01 SP= 0.00E+00 SK= 0.00E+00
    555 T=   195. E= -.93677384E+03 F= -.94168707E+03 E0= -.94168707E+03  EK= 0.49132E+01 SP= 0.00E+00 SK= 0.00E+00
    556 T=   196. E= -.93675765E+03 F= -.94170746E+03 E0= -.94170746E+03  EK= 0.49498E+01 SP= 0.00E+00 SK= 0.00E+00
    557 T=   197. E= -.93674423E+03 F= -.94170524E+03 E0= -.94170524E+03  EK= 0.49610E+01 SP= 0.00E+00 SK= 0.00E+00
    558 T=   199. E= -.93671974E+03 F= -.94172675E+03 E0= -.94172675E+03  EK= 0.50070E+01 SP= 0.00E+00 SK= 0.00E+00
    559 T=   204. E= -.93665237E+03 F= -.94180665E+03 E0= -.94180665E+03  EK= 0.51543E+01 SP= 0.00E+00 SK= 0.00E+00
    560 T=   210. E= -.93660274E+03 F= -.94190660E+03 E0= -.94190660E+03  EK= 0.53039E+01 SP= 0.00E+00 SK= 0.00E+00
    561 T=   216. E= -.93658316E+03 F= -.94202215E+03 E0= -.94202215E+03  EK= 0.54390E+01 SP= 0.00E+00 SK= 0.00E+00
    562 T=   222. E= -.93649974E+03 F= -.94208891E+03 E0= -.94208891E+03  EK= 0.55892E+01 SP= 0.00E+00 SK= 0.00E+00
    563 T=   222. E= -.93648926E+03 F= -.94208080E+03 E0= -.94208080E+03  EK= 0.55915E+01 SP= 0.00E+00 SK= 0.00E+00
    564 T=   217. E= -.93655713E+03 F= -.94202027E+03 E0= -.94202027E+03  EK= 0.54631E+01 SP= 0.00E+00 SK= 0.00E+00
    565 T=   214. E= -.93657714E+03 F= -.94196877E+03 E0= -.94196877E+03  EK= 0.53916E+01 SP= 0.00E+00 SK= 0.00E+00
    566 T=   214. E= -.93663326E+03 F= -.94202321E+03 E0= -.94202321E+03  EK= 0.53900E+01 SP= 0.00E+00 SK= 0.00E+00
    567 T=   219. E= -.93666493E+03 F= -.94218666E+03 E0= -.94218666E+03  EK= 0.55217E+01 SP= 0.00E+00 SK= 0.00E+00
    568 T=   227. E= -.93669032E+03 F= -.94241461E+03 E0= -.94241461E+03  EK= 0.57243E+01 SP= 0.00E+00 SK= 0.00E+00
    569 T=   230. E= -.93677917E+03 F= -.94256536E+03 E0= -.94256536E+03  EK= 0.57862E+01 SP= 0.00E+00 SK= 0.00E+00
    570 T=   228. E= -.93682276E+03 F= -.94256564E+03 E0= -.94256564E+03  EK= 0.57429E+01 SP= 0.00E+00 SK= 0.00E+00
    571 T=   224. E= -.93679907E+03 F= -.94243931E+03 E0= -.94243931E+03  EK= 0.56402E+01 SP= 0.00E+00 SK= 0.00E+00
    572 T=   215. E= -.93680100E+03 F= -.94221713E+03 E0= -.94221713E+03  EK= 0.54161E+01 SP= 0.00E+00 SK= 0.00E+00
    573 T=   207. E= -.93681331E+03 F= -.94203940E+03 E0= -.94203940E+03  EK= 0.52261E+01 SP= 0.00E+00 SK= 0.00E+00
    574 T=   203. E= -.93681036E+03 F= -.94192487E+03 E0= -.94192487E+03  EK= 0.51145E+01 SP= 0.00E+00 SK= 0.00E+00
    575 T=   201. E= -.93685905E+03 F= -.94192366E+03 E0= -.94192366E+03  EK= 0.50646E+01 SP= 0.00E+00 SK= 0.00E+00
    576 T=   202. E= -.93692316E+03 F= -.94200850E+03 E0= -.94200850E+03  EK= 0.50853E+01 SP= 0.00E+00 SK= 0.00E+00
    577 T=   203. E= -.93699384E+03 F= -.94212251E+03 E0= -.94212251E+03  EK= 0.51287E+01 SP= 0.00E+00 SK= 0.00E+00
    578 T=   205. E= -.93702612E+03 F= -.94219064E+03 E0= -.94219064E+03  EK= 0.51645E+01 SP= 0.00E+00 SK= 0.00E+00
    579 T=   205. E= -.93701828E+03 F= -.94217901E+03 E0= -.94217901E+03  EK= 0.51607E+01 SP= 0.00E+00 SK= 0.00E+00
    580 T=   205. E= -.93694728E+03 F= -.94210463E+03 E0= -.94210463E+03  EK= 0.51573E+01 SP= 0.00E+00 SK= 0.00E+00
    581 T=   203. E= -.93689048E+03 F= -.94201174E+03 E0= -.94201174E+03  EK= 0.51213E+01 SP= 0.00E+00 SK= 0.00E+00
    582 T=   200. E= -.93692357E+03 F= -.94197024E+03 E0= -.94197024E+03  EK= 0.50467E+01 SP= 0.00E+00 SK= 0.00E+00
    583 T=   202. E= -.93695535E+03 F= -.94203445E+03 E0= -.94203445E+03  EK= 0.50791E+01 SP= 0.00E+00 SK= 0.00E+00
    584 T=   204. E= -.93698471E+03 F= -.94212325E+03 E0= -.94212325E+03  EK= 0.51385E+01 SP= 0.00E+00 SK= 0.00E+00
    585 T=   209. E= -.93695397E+03 F= -.94220971E+03 E0= -.94220971E+03  EK= 0.52557E+01 SP= 0.00E+00 SK= 0.00E+00
    586 T=   211. E= -.93696129E+03 F= -.94227472E+03 E0= -.94227472E+03  EK= 0.53134E+01 SP= 0.00E+00 SK= 0.00E+00
    587 T=   208. E= -.93707620E+03 F= -.94231283E+03 E0= -.94231283E+03  EK= 0.52366E+01 SP= 0.00E+00 SK= 0.00E+00
    588 T=   206. E= -.93713117E+03 F= -.94233511E+03 E0= -.94233511E+03  EK= 0.52039E+01 SP= 0.00E+00 SK= 0.00E+00
    589 T=   207. E= -.93711437E+03 F= -.94233086E+03 E0= -.94233086E+03  EK= 0.52165E+01 SP= 0.00E+00 SK= 0.00E+00
    590 T=   205. E= -.93714454E+03 F= -.94232408E+03 E0= -.94232408E+03  EK= 0.51795E+01 SP= 0.00E+00 SK= 0.00E+00
    591 T=   202. E= -.93721143E+03 F= -.94230370E+03 E0= -.94230370E+03  EK= 0.50923E+01 SP= 0.00E+00 SK= 0.00E+00
    592 T=   199. E= -.93724170E+03 F= -.94226218E+03 E0= -.94226218E+03  EK= 0.50205E+01 SP= 0.00E+00 SK= 0.00E+00
    593 T=   199. E= -.93723316E+03 F= -.94223822E+03 E0= -.94223822E+03  EK= 0.50051E+01 SP= 0.00E+00 SK= 0.00E+00
    594 T=   199. E= -.93720159E+03 F= -.94222676E+03 E0= -.94222676E+03  EK= 0.50252E+01 SP= 0.00E+00 SK= 0.00E+00
    595 T=   201. E= -.93717549E+03 F= -.94224849E+03 E0= -.94224849E+03  EK= 0.50730E+01 SP= 0.00E+00 SK= 0.00E+00
    596 T=   207. E= -.93707620E+03 F= -.94229555E+03 E0= -.94229555E+03  EK= 0.52194E+01 SP= 0.00E+00 SK= 0.00E+00
    597 T=   210. E= -.93700784E+03 F= -.94229596E+03 E0= -.94229596E+03  EK= 0.52881E+01 SP= 0.00E+00 SK= 0.00E+00
    598 T=   206. E= -.93703851E+03 F= -.94222894E+03 E0= -.94222894E+03  EK= 0.51904E+01 SP= 0.00E+00 SK= 0.00E+00
    599 T=   200. E= -.93705625E+03 F= -.94209810E+03 E0= -.94209810E+03  EK= 0.50418E+01 SP= 0.00E+00 SK= 0.00E+00
    600 T=   194. E= -.93707483E+03 F= -.94196251E+03 E0= -.94196251E+03  EK= 0.48877E+01 SP= 0.00E+00 SK= 0.00E+00
    601 T=   190. E= -.93707900E+03 F= -.94187763E+03 E0= -.94187763E+03  EK= 0.47986E+01 SP= 0.00E+00 SK= 0.00E+00
    602 T=   190. E= -.93707029E+03 F= -.94185127E+03 E0= -.94185127E+03  EK= 0.47810E+01 SP= 0.00E+00 SK= 0.00E+00
       N       E                     dE             d eps       ncg     rms          rms(c)
DAV:   1    -0.731980787334E+03    0.19870E+03   -0.25895E+04 16238   0.301E+02
DAV:   2    -0.933583974693E+03   -0.20160E+03   -0.20084E+03 18452   0.735E+01
DAV:   3    -0.937002032270E+03   -0.34181E+01   -0.34169E+01 19508   0.106E+01
DAV:   4    -0.937064711639E+03   -0.62679E-01   -0.62675E-01 18652   0.138E+00    0.259E+01
DAV:   5    -0.931123443924E+03    0.59413E+01   -0.10511E+01 18300   0.750E+00    0.147E+01
DAV:   6    -0.930728127396E+03    0.39532E+00   -0.10853E+01 19316   0.701E+00    0.372E+00
DAV:   7    -0.930930367242E+03   -0.20224E+00   -0.17503E+00 18540   0.295E+00    0.164E+00
DAV:   8    -0.930930275874E+03    0.91368E-04   -0.15925E-01 18636   0.905E-01    0.693E-01
DAV:   9    -0.930924450652E+03    0.58252E-02   -0.34592E-02 18860   0.496E-01    0.285E-01
DAV:  10    -0.930921545176E+03    0.29055E-02   -0.80219E-03 19828   0.300E-01    0.971E-02
DAV:  11    -0.930920639987E+03    0.90519E-03   -0.35184E-03 19508   0.160E-01    0.814E-02
DAV:  12    -0.930919518324E+03    0.11217E-02   -0.53688E-04 17116   0.125E-01    0.324E-02
DAV:  13    -0.930918942354E+03    0.57597E-03   -0.68332E-04 18380   0.147E-01    0.498E-02
DAV:  14    -0.930918868250E+03    0.74104E-04   -0.11397E-03 18996   0.108E-01    0.295E-02
DAV:  15    -0.930918874446E+03   -0.61960E-05   -0.28975E-04 14156   0.361E-02
    603 T=   191. E= -.93707433E+03 F= -.94187945E+03 E0= -.94187945E+03  EK= 0.48051E+01 SP= 0.00E+00 SK= 0.00E+00
    604 T=   191. E= -.93704786E+03 F= -.94185828E+03 E0= -.94185828E+03  EK= 0.48104E+01 SP= 0.00E+00 SK= 0.00E+00
    605 T=   189. E= -.93708586E+03 F= -.94185227E+03 E0= -.94185227E+03  EK= 0.47664E+01 SP= 0.00E+00 SK= 0.00E+00
    606 T=   187. E= -.93710450E+03 F= -.94182766E+03 E0= -.94182766E+03  EK= 0.47232E+01 SP= 0.00E+00 SK= 0.00E+00
    607 T=   184. E= -.93714812E+03 F= -.94177597E+03 E0= -.94177597E+03  EK= 0.46279E+01 SP= 0.00E+00 SK= 0.00E+00
    608 T=   180. E= -.93717059E+03 F= -.94170266E+03 E0= -.94170266E+03  EK= 0.45321E+01 SP= 0.00E+00 SK= 0.00E+00
    609 T=   181. E= -.93710995E+03 F= -.94167372E+03 E0= -.94167372E+03  EK= 0.45638E+01 SP= 0.00E+00 SK= 0.00E+00
    610 T=   185. E= -.93704136E+03 F= -.94169995E+03 E0= -.94169995E+03  EK= 0.46586E+01 SP= 0.00E+00 SK= 0.00E+00
    611 T=   192. E= -.93695220E+03 F= -.94179964E+03 E0= -.94179964E+03  EK= 0.48474E+01 SP= 0.00E+00 SK= 0.00E+00
    612 T=   199. E= -.93688446E+03 F= -.94189028E+03 E0= -.94189028E+03  EK= 0.50058E+01 SP= 0.00E+00 SK= 0.00E+00
    613 T=   202. E= -.93689607E+03 F= -.94199133E+03 E0= -.94199133E+03  EK= 0.50953E+01 SP= 0.00E+00 SK= 0.00E+00
    614 T=   203. E= -.93698457E+03 F= -.94210163E+03 E0= -.94210163E+03  EK= 0.51171E+01 SP= 0.00E+00 SK= 0.00E+00
    615 T=   206. E= -.93702024E+03 F= -.94221870E+03 E0= -.94221870E+03  EK= 0.51985E+01 SP= 0.00E+00 SK= 0.00E+00
    616 T=   209. E= -.93701079E+03 F= -.94227922E+03 E0= -.94227922E+03  EK= 0.52684E+01 SP= 0.00E+00 SK= 0.00E+00
    617 T=   210. E= -.93699349E+03 F= -.94229475E+03 E0= -.94229475E+03  EK= 0.53013E+01 SP= 0.00E+00 SK= 0.00E+00
    618 T=   213. E= -.93695394E+03 F= -.94231726E+03 E0= -.94231726E+03  EK= 0.53633E+01 SP= 0.00E+00 SK= 0.00E+00
    619 T=   215. E= -.93692844E+03 F= -.94233962E+03 E0= -.94233962E+03  EK= 0.54112E+01 SP= 0.00E+00 SK= 0.00E+00
    620 T=   213. E= -.93701054E+03 F= -.94238099E+03 E0= -.94238099E+03  EK= 0.53704E+01 SP= 0.00E+00 SK= 0.00E+00
    621 T=   214. E= -.93702234E+03 F= -.94241169E+03 E0= -.94241169E+03  EK= 0.53894E+01 SP= 0.00E+00 SK= 0.00E+00
    622 T=   217. E= -.93697165E+03 F= -.94243572E+03 E0= -.94243572E+03  EK= 0.54641E+01 SP= 0.00E+00 SK= 0.00E+00
    623 T=   216. E= -.93700687E+03 F= -.94245340E+03 E0= -.94245340E+03  EK= 0.54465E+01 SP= 0.00E+00 SK= 0.00E+00
    624 T=   212. E= -.93707013E+03 F= -.94242529E+03 E0= -.94242529E+03  EK= 0.53552E+01 SP= 0.00E+00 SK= 0.00E+00
    625 T=   205. E= -.93715665E+03 F= -.94232884E+03 E0= -.94232884E+03  EK= 0.51722E+01 SP= 0.00E+00 SK= 0.00E+00
    626 T=   200. E= -.93714257E+03 F= -.94217821E+03 E0= -.94217821E+03  EK= 0.50356E+01 SP= 0.00E+00 SK= 0.00E+00
    627 T=   194. E= -.93712285E+03 F= -.94200813E+03 E0= -.94200813E+03  EK= 0.48853E+01 SP= 0.00E+00 SK= 0.00E+00
    628 T=   190. E= -.93709824E+03 F= -.94188132E+03 E0= -.94188132E+03  EK= 0.47831E+01 SP= 0.00E+00 SK= 0.00E+00
    629 T=   191. E= -.93699320E+03 F= -.94181645E+03 E0= -.94181645E+03  EK= 0.48233E+01 SP= 0.00E+00 SK= 0.00E+00
    630 T=   194. E= -.93695545E+03 F= -.94184384E+03 E0= -.94184384E+03  EK= 0.48884E+01 SP= 0.00E+00 SK= 0.00E+00
    631 T=   198. E= -.93696472E+03 F= -.94195642E+03 E0= -.94195642E+03  EK= 0.49917E+01 SP= 0.00E+00 SK= 0.00E+00
    632 T=   206. E= -.93693378E+03 F= -.94213349E+03 E0= -.94213349E+03  EK= 0.51997E+01 SP= 0.00E+00 SK= 0.00E+00
    633 T=   210. E= -.93693422E+03 F= -.94222472E+03 E0= -.94222472E+03  EK= 0.52905E+01 SP= 0.00E+00 SK= 0.00E+00
    634 T=   207. E= -.93698564E+03 F= -.94219692E+03 E0= -.94219692E+03  EK= 0.52113E+01 SP= 0.00E+00 SK= 0.00E+00
    635 T=   202. E= -.93701872E+03 F= -.94209940E+03 E0= -.94209940E+03  EK= 0.50807E+01 SP= 0.00E+00 SK= 0.00E+00
    636 T=   197. E= -.93702817E+03 F= -.94199504E+03 E0= -.94199504E+03  EK= 0.49669E+01 SP= 0.00E+00 SK= 0.00E+00
    637 T=   197. E= -.93698568E+03 F= -.94194600E+03 E0= -.94194600E+03  EK= 0.49603E+01 SP= 0.00E+00 SK= 0.00E+00
    638 T=   200. E= -.93696378E+03 F= -.94199244E+03 E0= -.94199244E+03  EK= 0.50287E+01 SP= 0.00E+00 SK= 0.00E+00
    639 T=   204. E= -.93697273E+03 F= -.94210310E+03 E0= -.94210310E+03  EK= 0.51304E+01 SP= 0.00E+00 SK= 0.00E+00
    640 T=   208. E= -.93694637E+03 F= -.94218139E+03 E0= -.94218139E+03  EK= 0.52350E+01 SP= 0.00E+00 SK= 0.00E+00
    641 T=   207. E= -.93700675E+03 F= -.94222965E+03 E0= -.94222965E+03  EK= 0.52229E+01 SP= 0.00E+00 SK= 0.00E+00
    642 T=   204. E= -.93709702E+03 F= -.94222829E+03 E0= -.94222829E+03  EK= 0.51313E+01 SP= 0.00E+00 SK= 0.00E+00
    643 T=   204. E= -.93706171E+03 F= -.94221228E+03 E0= -.94221228E+03  EK= 0.51506E+01 SP= 0.00E+00 SK= 0.00E+00
    644 T=   204. E= -.93704260E+03 F= -.94217864E+03 E0= -.94217864E+03  EK= 0.51360E+01 SP= 0.00E+00 SK= 0.00E+00
    645 T=   199. E= -.93715036E+03 F= -.94217009E+03 E0= -.94217009E+03  EK= 0.50197E+01 SP= 0.00E+00 SK= 0.00E+00
    646 T=   198. E= -.93722674E+03 F= -.94220877E+03 E0= -.94220877E+03  EK= 0.49820E+01 SP= 0.00E+00 SK= 0.00E+00
    647 T=   204. E= -.93714673E+03 F= -.94228533E+03 E0= -.94228533E+03  EK= 0.51386E+01 SP= 0.00E+00 SK= 0.00E+00
    648 T=   209. E= -.93707339E+03 F= -.94235159E+03 E0= -.94235159E+03  EK= 0.52782E+01 SP= 0.00E+00 SK= 0.00E+00
    649 T=   209. E= -.93710763E+03 F= -.94238544E+03 E0= -.94238544E+03  EK= 0.52778E+01 SP= 0.00E+00 SK= 0.00E+00
    650 T=   206. E= -.93717642E+03 F= -.94236598E+03 E0= -.94236598E+03  EK= 0.51896E+01 SP= 0.00E+00 SK= 0.00E+00
    651 T=   201. E= -.93719736E+03 F= -.94227526E+03 E0= -.94227526E+03  EK= 0.50779E+01 SP= 0.00E+00 SK= 0.00E+00
    652 T=   196. E= -.93722193E+03 F= -.94216986E+03 E0= -.94216986E+03  EK= 0.49479E+01 SP= 0.00E+00 SK= 0.00E+00
    653 T=   193. E= -.93723594E+03 F= -.94209380E+03 E0= -.94209380E+03  EK= 0.48579E+01 SP= 0.00E+00 SK= 0.00E+00
    654 T=   192. E= -.93721843E+03 F= -.94205689E+03 E0= -.94205689E+03  EK= 0.48385E+01 SP= 0.00E+00 SK= 0.00E+00
    655 T=   192. E= -.93720482E+03 F= -.94204923E+03 E0= -.94204923E+03  EK= 0.48444E+01 SP= 0.00E+00 SK= 0.00E+00
    656 T=   192. E= -.93719895E+03 F= -.94203468E+03 E0= -.94203468E+03  EK= 0.48357E+01 SP= 0.00E+00 SK= 0.00E+00
    657 T=   193. E= -.93716604E+03 F= -.94202282E+03 E0= -.94202282E+03  EK= 0.48568E+01 SP= 0.00E+00 SK= 0.00E+00
    658 T=   192. E= -.93713804E+03 F= -.94198717E+03 E0= -.94198717E+03  EK= 0.48491E+01 SP= 0.00E+00 SK= 0.00E+00
    659 T=   191. E= -.93714720E+03 F= -.94196366E+03 E0= -.94196366E+03  EK= 0.48165E+01 SP= 0.00E+00 SK= 0.00E+00
    660 T=   192. E= -.93710724E+03 F= -.94194014E+03 E0= -.94194014E+03  EK= 0.48329E+01 SP= 0.00E+00 SK= 0.00E+00
    661 T=   197. E= -.93698377E+03 F= -.94194798E+03 E0= -.94194798E+03  EK= 0.49642E+01 SP= 0.00E+00 SK= 0.00E+00
    662 T=   202. E= -.93692407E+03 F= -.94201469E+03 E0= -.94201469E+03  EK= 0.50906E+01 SP= 0.00E+00 SK= 0.00E+00
    663 T=   203. E= -.93702186E+03 F= -.94212895E+03 E0= -.94212895E+03  EK= 0.51071E+01 SP= 0.00E+00 SK= 0.00E+00
    664 T=   203. E= -.93711987E+03 F= -.94223839E+03 E0= -.94223839E+03  EK= 0.51185E+01 SP= 0.00E+00 SK= 0.00E+00
    665 T=   207. E= -.93710520E+03 F= -.94232994E+03 E0= -.94232994E+03  EK= 0.52247E+01 SP= 0.00E+00 SK= 0.00E+00
    666 T=   211. E= -.93704566E+03 F= -.94236505E+03 E0= -.94236505E+03  EK= 0.53194E+01 SP= 0.00E+00 SK= 0.00E+00
    667 T=   210. E= -.93707772E+03 F= -.94236275E+03 E0= -.94236275E+03  EK= 0.52850E+01 SP= 0.00E+00 SK= 0.00E+00
    668 T=   205. E= -.93714026E+03 F= -.94229819E+03 E0= -.94229819E+03  EK= 0.51579E+01 SP= 0.00E+00 SK= 0.00E+00
    669 T=   198. E= -.93721685E+03 F= -.94220501E+03 E0= -.94220501E+03  EK= 0.49882E+01 SP= 0.00E+00 SK= 0.00E+00
    670 T=   193. E= -.93726338E+03 F= -.94213945E+03 E0= -.94213945E+03  EK= 0.48761E+01 SP= 0.00E+00 SK= 0.00E+00
    671 T=   197. E= -.93717767E+03 F= -.94215507E+03 E0= -.94215507E+03  EK= 0.49774E+01 SP= 0.00E+00 SK= 0.00E+00
    672 T=   203. E= -.93708799E+03 F= -.94220161E+03 E0= -.94220161E+03  EK= 0.51136E+01 SP= 0.00E+00 SK= 0.00E+00
       N       E                     dE             d eps       ncg     rms          rms(c)
DAV:   1    -0.756567558965E+03    0.17435E+03   -0.23772E+04 16238   0.289E+02
DAV:   2    -0.933480280988E+03   -0.17691E+03   -0.17596E+03 18687   0.685E+01
DAV:   3    -0.936407124952E+03   -0.29268E+01   -0.29257E+01 19508   0.981E+00
DAV:   4    -0.936459098178E+03   -0.51973E-01   -0.51970E-01 18676   0.127E+00    0.248E+01
DAV:   5    -0.931558521554E+03    0.49006E+01   -0.85071E+00 18244   0.675E+00    0.142E+01
DAV:   6    -0.931134990442E+03    0.42353E+00   -0.95814E+00 19364   0.682E+00    0.326E+00
DAV:   7    -0.931286548774E+03   -0.15156E+00   -0.16931E+00 18820   0.295E+00    0.158E+00
DAV:   8    -0.931275244297E+03    0.11304E-01   -0.16428E-01 18780   0.889E-01    0.760E-01
DAV:   9    -0.931263889871E+03    0.11354E-01   -0.40324E-02 18668   0.529E-01    0.322E-01
DAV:  10    -0.931257343726E+03    0.65461E-02   -0.84130E-03 20052   0.370E-01    0.138E-01
DAV:  11    -0.931255157049E+03    0.21867E-02   -0.87409E-03 19556   0.269E-01    0.122E-01
DAV:  12    -0.931253205359E+03    0.19517E-02   -0.21738E-03 19028   0.165E-01    0.519E-02
DAV:  13    -0.931251849722E+03    0.13556E-02   -0.11280E-03 18324   0.210E-01    0.730E-02
DAV:  14    -0.931251737773E+03    0.11195E-03   -0.18554E-03 19572   0.120E-01    0.361E-02
DAV:  15    -0.931251756716E+03   -0.18943E-04   -0.46672E-04 17212   0.419E-02
    673 T=   206. E= -.93704642E+03 F= -.94224424E+03 E0= -.94224424E+03  EK= 0.51978E+01 SP= 0.00E+00 SK= 0.00E+00
    674 T=   207. E= -.93703330E+03 F= -.94225839E+03 E0= -.94225839E+03  EK= 0.52251E+01 SP= 0.00E+00 SK= 0.00E+00
    675 T=   205. E= -.93706805E+03 F= -.94224226E+03 E0= -.94224226E+03  EK= 0.51742E+01 SP= 0.00E+00 SK= 0.00E+00
    676 T=   204. E= -.93707810E+03 F= -.94222978E+03 E0= -.94222978E+03  EK= 0.51517E+01 SP= 0.00E+00 SK= 0.00E+00
    677 T=   204. E= -.93709932E+03 F= -.94225185E+03 E0= -.94225185E+03  EK= 0.51525E+01 SP= 0.00E+00 SK= 0.00E+00
    678 T=   204. E= -.93717107E+03 F= -.94230492E+03 E0= -.94230492E+03  EK= 0.51338E+01 SP= 0.00E+00 SK= 0.00E+00
    679 T=   209. E= -.93709082E+03 F= -.94234884E+03 E0= -.94234884E+03  EK= 0.52580E+01 SP= 0.00E+00 SK= 0.00E+00
    680 T=   211. E= -.93698716E+03 F= -.94230179E+03 E0= -.94230179E+03  EK= 0.53146E+01 SP= 0.00E+00 SK= 0.00E+00
    681 T=   210. E= -.93691422E+03 F= -.94219882E+03 E0= -.94219882E+03  EK= 0.52846E+01 SP= 0.00E+00 SK= 0.00E+00
    682 T=   208. E= -.93688206E+03 F= -.94211496E+03 E0= -.94211496E+03  EK= 0.52329E+01 SP= 0.00E+00 SK= 0.00E+00
    683 T=   208. E= -.93683694E+03 F= -.94207007E+03 E0= -.94207007E+03  EK= 0.52331E+01 SP= 0.00E+00 SK= 0.00E+00
    684 T=   211. E= -.93676610E+03 F= -.94207555E+03 E0= -.94207555E+03  EK= 0.53094E+01 SP= 0.00E+00 SK= 0.00E+00
    685 T=   210. E= -.93681383E+03 F= -.94211724E+03 E0= -.94211724E+03  EK= 0.53034E+01 SP= 0.00E+00 SK= 0.00E+00
    686 T=   212. E= -.93682718E+03 F= -.94217329E+03 E0= -.94217329E+03  EK= 0.53461E+01 SP= 0.00E+00 SK= 0.00E+00
    687 T=   215. E= -.93677648E+03 F= -.94220710E+03 E0= -.94220710E+03  EK= 0.54306E+01 SP= 0.00E+00 SK= 0.00E+00
    688 T=   214. E= -.93675019E+03 F= -.94214541E+03 E0= -.94214541E+03  EK= 0.53952E+01 SP= 0.00E+00 SK= 0.00E+00
    689 T=   211. E= -.93671054E+03 F= -.94202030E+03 E0= -.94202030E+03  EK= 0.53098E+01 SP= 0.00E+00 SK= 0.00E+00
    690 T=   206. E= -.93668553E+03 F= -.94188703E+03 E0= -.94188703E+03  EK= 0.52015E+01 SP= 0.00E+00 SK= 0.00E+00
    691 T=   201. E= -.93667774E+03 F= -.94174474E+03 E0= -.94174474E+03  EK= 0.50670E+01 SP= 0.00E+00 SK= 0.00E+00
    692 T=   198. E= -.93665753E+03 F= -.94164821E+03 E0= -.94164821E+03  EK= 0.49907E+01 SP= 0.00E+00 SK= 0.00E+00
    693 T=   199. E= -.93664153E+03 F= -.94165545E+03 E0= -.94165545E+03  EK= 0.50139E+01 SP= 0.00E+00 SK= 0.00E+00
    694 T=   200. E= -.93667182E+03 F= -.94171204E+03 E0= -.94171204E+03  EK= 0.50402E+01 SP= 0.00E+00 SK= 0.00E+00
    695 T=   199. E= -.93670981E+03 F= -.94173261E+03 E0= -.94173261E+03  EK= 0.50228E+01 SP= 0.00E+00 SK= 0.00E+00
       N       E                     dE             d eps       ncg     rms          rms(c)
DAV:   1    -0.907132725295E+03    0.24119E+02   -0.73530E+03 16238   0.166E+02
DAV:   2    -0.932433320857E+03   -0.25301E+02   -0.25290E+02 19012   0.274E+01
DAV:   3    -0.932700237750E+03   -0.26692E+00   -0.26689E+00 19460   0.305E+00
DAV:   4    -0.932705807991E+03   -0.55702E-02   -0.55700E-02 19092   0.419E-01    0.154E+01
DAV:   5    -0.930833297399E+03    0.18725E+01   -0.30710E+00 19588   0.460E+00    0.882E+00
DAV:   6    -0.930716383953E+03    0.11691E+00   -0.42184E+00 19524   0.481E+00    0.190E+00
DAV:   7    -0.930761514819E+03   -0.45131E-01   -0.79404E-01 18460   0.205E+00    0.945E-01
DAV:   8    -0.930756512494E+03    0.50023E-02   -0.70326E-02 19060   0.553E-01    0.569E-01
DAV:   9    -0.930751662241E+03    0.48503E-02   -0.37940E-02 18372   0.516E-01    0.338E-01
DAV:  10    -0.930747469434E+03    0.41928E-02   -0.89783E-03 19652   0.306E-01    0.145E-01
DAV:  11    -0.930746795162E+03    0.67427E-03   -0.70568E-03 19620   0.205E-01    0.884E-02
DAV:  12    -0.930746166346E+03    0.62882E-03   -0.92407E-04 18556   0.956E-02    0.420E-02
DAV:  13    -0.930745829229E+03    0.33712E-03   -0.39906E-04 17340   0.803E-02    0.269E-02
DAV:  14    -0.930745697858E+03    0.13137E-03   -0.13671E-04 13180   0.724E-02    0.212E-02
DAV:  15    -0.930745702399E+03   -0.45410E-05   -0.36567E-04 18260   0.463E-02
    696 T=   199. E= -.93672563E+03 F= -.94173618E+03 E0= -.94173618E+03  EK= 0.50105E+01 SP= 0.00E+00 SK= 0.00E+00
    697 T=   194. E= -.93680085E+03 F= -.94169199E+03 E0= -.94169199E+03  EK= 0.48911E+01 SP= 0.00E+00 SK= 0.00E+00
    698 T=   190. E= -.93687664E+03 F= -.94166582E+03 E0= -.94166582E+03  EK= 0.47892E+01 SP= 0.00E+00 SK= 0.00E+00
    699 T=   190. E= -.93689136E+03 F= -.94168825E+03 E0= -.94168825E+03  EK= 0.47969E+01 SP= 0.00E+00 SK= 0.00E+00
    700 T=   193. E= -.93687221E+03 F= -.94174775E+03 E0= -.94174775E+03  EK= 0.48755E+01 SP= 0.00E+00 SK= 0.00E+00
    701 T=   195. E= -.93689110E+03 F= -.94180161E+03 E0= -.94180161E+03  EK= 0.49105E+01 SP= 0.00E+00 SK= 0.00E+00
    702 T=   195. E= -.93691439E+03 F= -.94181998E+03 E0= -.94181998E+03  EK= 0.49056E+01 SP= 0.00E+00 SK= 0.00E+00
    703 T=   197. E= -.93686771E+03 F= -.94183922E+03 E0= -.94183922E+03  EK= 0.49715E+01 SP= 0.00E+00 SK= 0.00E+00
    704 T=   198. E= -.93682542E+03 F= -.94182750E+03 E0= -.94182750E+03  EK= 0.50021E+01 SP= 0.00E+00 SK= 0.00E+00
    705 T=   198. E= -.93682496E+03 F= -.94181550E+03 E0= -.94181550E+03  EK= 0.49905E+01 SP= 0.00E+00 SK= 0.00E+00
       N       E                     dE             d eps       ncg     rms          rms(c)
DAV:   1    -0.926623977906E+03    0.41217E+01   -0.20422E+03 16238   0.885E+01
DAV:   2    -0.931693532589E+03   -0.50696E+01   -0.50684E+01 19092   0.128E+01
DAV:   3    -0.931746664013E+03   -0.53131E-01   -0.53129E-01 19452   0.133E+00
DAV:   4    -0.931747884727E+03   -0.12207E-02   -0.12207E-02 19116   0.195E-01    0.895E+00
DAV:   5    -0.930893064934E+03    0.85482E+00   -0.16744E+00 20820   0.349E+00    0.483E+00
DAV:   6    -0.930807985029E+03    0.85080E-01   -0.13278E+00 19516   0.262E+00    0.149E+00
DAV:   7    -0.930819759424E+03   -0.11774E-01   -0.26790E-01 18668   0.132E+00    0.569E-01
DAV:   8    -0.930815412507E+03    0.43469E-02   -0.28901E-02 18764   0.458E-01    0.290E-01
DAV:   9    -0.930812493723E+03    0.29188E-02   -0.13597E-02 18332   0.268E-01    0.173E-01
DAV:  10    -0.930811001474E+03    0.14922E-02   -0.28705E-03 22244   0.186E-01    0.570E-02
DAV:  11    -0.930810515554E+03    0.48592E-03   -0.14330E-03 18572   0.107E-01    0.503E-02
DAV:  12    -0.930810152559E+03    0.36300E-03   -0.29327E-04 15236   0.813E-02    0.234E-02
DAV:  13    -0.930809989555E+03    0.16300E-03   -0.21369E-04 13900   0.693E-02    0.222E-02
DAV:  14    -0.930809970193E+03    0.19363E-04   -0.19726E-04 13892   0.413E-02
    706 T=   198. E= -.93684053E+03 F= -.94181954E+03 E0= -.94181954E+03  EK= 0.49790E+01 SP= 0.00E+00 SK= 0.00E+00
    707 T=   202. E= -.93676695E+03 F= -.94184898E+03 E0= -.94184898E+03  EK= 0.50820E+01 SP= 0.00E+00 SK= 0.00E+00
    708 T=   205. E= -.93670774E+03 F= -.94187619E+03 E0= -.94187619E+03  EK= 0.51684E+01 SP= 0.00E+00 SK= 0.00E+00
    709 T=   204. E= -.93669116E+03 F= -.94182254E+03 E0= -.94182254E+03  EK= 0.51314E+01 SP= 0.00E+00 SK= 0.00E+00
    710 T=   200. E= -.93672808E+03 F= -.94175826E+03 E0= -.94175826E+03  EK= 0.50302E+01 SP= 0.00E+00 SK= 0.00E+00
    711 T=   195. E= -.93678703E+03 F= -.94170979E+03 E0= -.94170979E+03  EK= 0.49228E+01 SP= 0.00E+00 SK= 0.00E+00
    712 T=   197. E= -.93677820E+03 F= -.94175145E+03 E0= -.94175145E+03  EK= 0.49733E+01 SP= 0.00E+00 SK= 0.00E+00
    713 T=   205. E= -.93668611E+03 F= -.94185076E+03 E0= -.94185076E+03  EK= 0.51647E+01 SP= 0.00E+00 SK= 0.00E+00
    714 T=   210. E= -.93663084E+03 F= -.94191149E+03 E0= -.94191149E+03  EK= 0.52807E+01 SP= 0.00E+00 SK= 0.00E+00
    715 T=   211. E= -.93660239E+03 F= -.94191095E+03 E0= -.94191095E+03  EK= 0.53086E+01 SP= 0.00E+00 SK= 0.00E+00
       N       E                     dE             d eps       ncg     rms          rms(c)
DAV:   1    -0.926729310490E+03    0.40807E+01   -0.20302E+03 16238   0.885E+01
DAV:   2    -0.931630202540E+03   -0.49009E+01   -0.48999E+01 19084   0.125E+01
DAV:   3    -0.931681846379E+03   -0.51644E-01   -0.51642E-01 19484   0.130E+00
DAV:   4    -0.931683038166E+03   -0.11918E-02   -0.11918E-02 19116   0.190E-01    0.885E+00
DAV:   5    -0.930890863067E+03    0.79218E+00   -0.16407E+00 20612   0.343E+00    0.478E+00
DAV:   6    -0.930813636126E+03    0.77227E-01   -0.12051E+00 19556   0.250E+00    0.150E+00
DAV:   7    -0.930823312537E+03   -0.96764E-02   -0.24549E-01 18964   0.130E+00    0.564E-01
DAV:   8    -0.930819262470E+03    0.40501E-02   -0.29876E-02 18676   0.425E-01    0.303E-01
DAV:   9    -0.930815797792E+03    0.34647E-02   -0.13597E-02 17972   0.258E-01    0.171E-01
DAV:  10    -0.930814010659E+03    0.17871E-02   -0.25519E-03 22356   0.193E-01    0.558E-02
DAV:  11    -0.930813581338E+03    0.42932E-03   -0.17099E-03 18964   0.110E-01    0.544E-02
DAV:  12    -0.930813247876E+03    0.33346E-03   -0.30966E-04 16228   0.653E-02    0.201E-02
DAV:  13    -0.930813122212E+03    0.12566E-03   -0.18451E-04 13492   0.583E-02    0.256E-02
DAV:  14    -0.930813094283E+03    0.27929E-04   -0.15469E-04 13972   0.418E-02
    716 T=   209. E= -.93655911E+03 F= -.94183354E+03 E0= -.94183354E+03  EK= 0.52744E+01 SP= 0.00E+00 SK= 0.00E+00
    717 T=   204. E= -.93657982E+03 F= -.94171658E+03 E0= -.94171658E+03  EK= 0.51368E+01 SP= 0.00E+00 SK= 0.00E+00
    718 T=   203. E= -.93649379E+03 F= -.94159922E+03 E0= -.94159922E+03  EK= 0.51054E+01 SP= 0.00E+00 SK= 0.00E+00
    719 T=   202. E= -.93643903E+03 F= -.94153763E+03 E0= -.94153763E+03  EK= 0.50986E+01 SP= 0.00E+00 SK= 0.00E+00
    720 T=   203. E= -.93645112E+03 F= -.94157577E+03 E0= -.94157577E+03  EK= 0.51246E+01 SP= 0.00E+00 SK= 0.00E+00
    721 T=   209. E= -.93642097E+03 F= -.94168220E+03 E0= -.94168220E+03  EK= 0.52612E+01 SP= 0.00E+00 SK= 0.00E+00
    722 T=   213. E= -.93643656E+03 F= -.94181587E+03 E0= -.94181587E+03  EK= 0.53793E+01 SP= 0.00E+00 SK= 0.00E+00
    723 T=   215. E= -.93645240E+03 F= -.94187032E+03 E0= -.94187032E+03  EK= 0.54179E+01 SP= 0.00E+00 SK= 0.00E+00
    724 T=   213. E= -.93647583E+03 F= -.94184084E+03 E0= -.94184084E+03  EK= 0.53650E+01 SP= 0.00E+00 SK= 0.00E+00
    725 T=   206. E= -.93653951E+03 F= -.94173038E+03 E0= -.94173038E+03  EK= 0.51909E+01 SP= 0.00E+00 SK= 0.00E+00
       N       E                     dE             d eps       ncg     rms          rms(c)
DAV:   1    -0.926140868723E+03    0.46723E+01   -0.20617E+03 16238   0.890E+01
DAV:   2    -0.931288330148E+03   -0.51475E+01   -0.51464E+01 19084   0.128E+01
DAV:   3    -0.931340799648E+03   -0.52469E-01   -0.52467E-01 19484   0.132E+00
DAV:   4    -0.931341977484E+03   -0.11778E-02   -0.11778E-02 19100   0.192E-01    0.883E+00
DAV:   5    -0.930646006808E+03    0.69597E+00   -0.13835E+00 20420   0.326E+00    0.489E+00
DAV:   6    -0.930589840900E+03    0.56166E-01   -0.12369E+00 19460   0.263E+00    0.140E+00
DAV:   7    -0.930602614539E+03   -0.12774E-01   -0.25014E-01 18636   0.127E+00    0.552E-01
DAV:   8    -0.930599648837E+03    0.29657E-02   -0.27006E-02 18708   0.408E-01    0.284E-01
DAV:   9    -0.930597790814E+03    0.18580E-02   -0.11586E-02 18524   0.256E-01    0.164E-01
DAV:  10    -0.930596552606E+03    0.12382E-02   -0.26178E-03 22788   0.180E-01    0.476E-02
DAV:  11    -0.930596279720E+03    0.27289E-03   -0.10686E-03 18892   0.907E-02    0.392E-02
DAV:  12    -0.930596087052E+03    0.19267E-03   -0.17134E-04 13420   0.542E-02    0.194E-02
DAV:  13    -0.930595999910E+03    0.87142E-04   -0.16538E-04 14044   0.568E-02
    726 T=   201. E= -.93655027E+03 F= -.94161247E+03 E0= -.94161247E+03  EK= 0.50622E+01 SP= 0.00E+00 SK= 0.00E+00
    727 T=   200. E= -.93653097E+03 F= -.94157830E+03 E0= -.94157830E+03  EK= 0.50473E+01 SP= 0.00E+00 SK= 0.00E+00
    728 T=   202. E= -.93652420E+03 F= -.94161343E+03 E0= -.94161343E+03  EK= 0.50892E+01 SP= 0.00E+00 SK= 0.00E+00
    729 T=   204. E= -.93657086E+03 F= -.94171986E+03 E0= -.94171986E+03  EK= 0.51490E+01 SP= 0.00E+00 SK= 0.00E+00
    730 T=   208. E= -.93661462E+03 F= -.94184961E+03 E0= -.94184961E+03  EK= 0.52350E+01 SP= 0.00E+00 SK= 0.00E+00
    731 T=   212. E= -.93664385E+03 F= -.94197703E+03 E0= -.94197703E+03  EK= 0.53332E+01 SP= 0.00E+00 SK= 0.00E+00
    732 T=   212. E= -.93672926E+03 F= -.94207962E+03 E0= -.94207962E+03  EK= 0.53504E+01 SP= 0.00E+00 SK= 0.00E+00
    733 T=   210. E= -.93682788E+03 F= -.94211190E+03 E0= -.94211190E+03  EK= 0.52840E+01 SP= 0.00E+00 SK= 0.00E+00
    734 T=   208. E= -.93684295E+03 F= -.94208164E+03 E0= -.94208164E+03  EK= 0.52387E+01 SP= 0.00E+00 SK= 0.00E+00
    735 T=   208. E= -.93681402E+03 F= -.94204710E+03 E0= -.94204710E+03  EK= 0.52331E+01 SP= 0.00E+00 SK= 0.00E+00
       N       E                     dE             d eps       ncg     rms          rms(c)
DAV:   1    -0.926513877139E+03    0.40822E+01   -0.20832E+03 16238   0.893E+01
DAV:   2    -0.931707362982E+03   -0.51935E+01   -0.51923E+01 19212   0.129E+01
DAV:   3    -0.931761752390E+03   -0.54389E-01   -0.54387E-01 19476   0.134E+00
DAV:   4    -0.931763016457E+03   -0.12641E-02   -0.12640E-02 19212   0.196E-01    0.880E+00
DAV:   5    -0.931069305072E+03    0.69371E+00   -0.13526E+00 20556   0.317E+00    0.487E+00
DAV:   6    -0.931023148739E+03    0.46156E-01   -0.13131E+00 19532   0.264E+00    0.135E+00
DAV:   7    -0.931034989846E+03   -0.11841E-01   -0.24506E-01 18588   0.126E+00    0.548E-01
DAV:   8    -0.931031945521E+03    0.30443E-02   -0.27036E-02 18884   0.394E-01    0.300E-01
DAV:   9    -0.931029267297E+03    0.26782E-02   -0.13245E-02 18388   0.296E-01    0.182E-01
DAV:  10    -0.931027481469E+03    0.17858E-02   -0.29415E-03 21788   0.197E-01    0.634E-02
DAV:  11    -0.931027028212E+03    0.45326E-03   -0.18588E-03 19108   0.118E-01    0.516E-02
DAV:  12    -0.931026669636E+03    0.35858E-03   -0.30518E-04 15668   0.760E-02    0.231E-02
DAV:  13    -0.931026509397E+03    0.16024E-03   -0.25385E-04 15060   0.722E-02    0.265E-02
DAV:  14    -0.931026475221E+03    0.34176E-04   -0.18078E-04 13956   0.491E-02
    736 T=   209. E= -.93677966E+03 F= -.94203657E+03 E0= -.94203657E+03  EK= 0.52569E+01 SP= 0.00E+00 SK= 0.00E+00
    737 T=   209. E= -.93673872E+03 F= -.94201737E+03 E0= -.94201737E+03  EK= 0.52787E+01 SP= 0.00E+00 SK= 0.00E+00
    738 T=   210. E= -.93666684E+03 F= -.94194996E+03 E0= -.94194996E+03  EK= 0.52831E+01 SP= 0.00E+00 SK= 0.00E+00
    739 T=   209. E= -.93658523E+03 F= -.94185420E+03 E0= -.94185420E+03  EK= 0.52690E+01 SP= 0.00E+00 SK= 0.00E+00
    740 T=   201. E= -.93668294E+03 F= -.94173823E+03 E0= -.94173823E+03  EK= 0.50553E+01 SP= 0.00E+00 SK= 0.00E+00
    741 T=   192. E= -.93681951E+03 F= -.94165934E+03 E0= -.94165934E+03  EK= 0.48398E+01 SP= 0.00E+00 SK= 0.00E+00
    742 T=   189. E= -.93685758E+03 F= -.94162145E+03 E0= -.94162145E+03  EK= 0.47639E+01 SP= 0.00E+00 SK= 0.00E+00
    743 T=   190. E= -.93686345E+03 F= -.94164289E+03 E0= -.94164289E+03  EK= 0.47794E+01 SP= 0.00E+00 SK= 0.00E+00
    744 T=   193. E= -.93684233E+03 F= -.94170233E+03 E0= -.94170233E+03  EK= 0.48600E+01 SP= 0.00E+00 SK= 0.00E+00
    745 T=   198. E= -.93675813E+03 F= -.94174932E+03 E0= -.94174932E+03  EK= 0.49912E+01 SP= 0.00E+00 SK= 0.00E+00
       N       E                     dE             d eps       ncg     rms          rms(c)
DAV:   1    -0.926605676924E+03    0.44208E+01   -0.20620E+03 16238   0.891E+01
DAV:   2    -0.931454584533E+03   -0.48489E+01   -0.48479E+01 19156   0.125E+01
DAV:   3    -0.931506599711E+03   -0.52015E-01   -0.52013E-01 19492   0.131E+00
DAV:   4    -0.931507818033E+03   -0.12183E-02   -0.12183E-02 19180   0.191E-01    0.878E+00
DAV:   5    -0.930810238991E+03    0.69758E+00   -0.14126E+00 20180   0.309E+00    0.480E+00
DAV:   6    -0.930756086973E+03    0.54152E-01   -0.11703E+00 19484   0.236E+00    0.138E+00
DAV:   7    -0.930767234751E+03   -0.11148E-01   -0.23014E-01 18996   0.128E+00    0.529E-01
DAV:   8    -0.930764180111E+03    0.30546E-02   -0.29090E-02 19028   0.440E-01    0.277E-01
DAV:   9    -0.930761819750E+03    0.23604E-02   -0.12384E-02 18316   0.248E-01    0.171E-01
DAV:  10    -0.930760330375E+03    0.14894E-02   -0.27685E-03 22476   0.194E-01    0.538E-02
DAV:  11    -0.930759981250E+03    0.34912E-03   -0.16253E-03 19084   0.105E-01    0.529E-02
DAV:  12    -0.930759606209E+03    0.37504E-03   -0.19763E-04 14308   0.718E-02    0.202E-02
DAV:  13    -0.930759457667E+03    0.14854E-03   -0.33466E-04 16892   0.774E-02    0.300E-02
DAV:  14    -0.930759435715E+03    0.21952E-04   -0.24977E-04 15532   0.470E-02
    746 T=   203. E= -.93668784E+03 F= -.94180114E+03 E0= -.94180114E+03  EK= 0.51133E+01 SP= 0.00E+00 SK= 0.00E+00
    747 T=   205. E= -.93659243E+03 F= -.94174801E+03 E0= -.94174801E+03  EK= 0.51556E+01 SP= 0.00E+00 SK= 0.00E+00
    748 T=   203. E= -.93654223E+03 F= -.94166796E+03 E0= -.94166796E+03  EK= 0.51257E+01 SP= 0.00E+00 SK= 0.00E+00
    749 T=   202. E= -.93650573E+03 F= -.94158964E+03 E0= -.94158964E+03  EK= 0.50839E+01 SP= 0.00E+00 SK= 0.00E+00
    750 T=   199. E= -.93653971E+03 F= -.94155127E+03 E0= -.94155127E+03  EK= 0.50116E+01 SP= 0.00E+00 SK= 0.00E+00
    751 T=   200. E= -.93655130E+03 F= -.94159351E+03 E0= -.94159351E+03  EK= 0.50422E+01 SP= 0.00E+00 SK= 0.00E+00
    752 T=   205. E= -.93652824E+03 F= -.94169922E+03 E0= -.94169922E+03  EK= 0.51710E+01 SP= 0.00E+00 SK= 0.00E+00
    753 T=   210. E= -.93653305E+03 F= -.94182632E+03 E0= -.94182632E+03  EK= 0.52933E+01 SP= 0.00E+00 SK= 0.00E+00
    754 T=   212. E= -.93652433E+03 F= -.94185961E+03 E0= -.94185961E+03  EK= 0.53353E+01 SP= 0.00E+00 SK= 0.00E+00
    755 T=   208. E= -.93650761E+03 F= -.94176247E+03 E0= -.94176247E+03  EK= 0.52549E+01 SP= 0.00E+00 SK= 0.00E+00
       N       E                     dE             d eps       ncg     rms          rms(c)
DAV:   1    -0.926184445009E+03    0.45750E+01   -0.20838E+03 16238   0.896E+01
DAV:   2    -0.931282832961E+03   -0.50984E+01   -0.50973E+01 19132   0.128E+01
DAV:   3    -0.931336795494E+03   -0.53963E-01   -0.53960E-01 19468   0.134E+00
DAV:   4    -0.931338057507E+03   -0.12620E-02   -0.12620E-02 19140   0.196E-01    0.885E+00
DAV:   5    -0.930653328025E+03    0.68473E+00   -0.13996E+00 20060   0.312E+00    0.486E+00
DAV:   6    -0.930606650227E+03    0.46678E-01   -0.11637E+00 19380   0.245E+00    0.139E+00
DAV:   7    -0.930620778043E+03   -0.14128E-01   -0.22269E-01 18636   0.118E+00    0.531E-01
DAV:   8    -0.930617058251E+03    0.37198E-02   -0.23814E-02 18988   0.396E-01    0.249E-01
DAV:   9    -0.930614496811E+03    0.25614E-02   -0.73445E-03 18492   0.220E-01    0.127E-01
DAV:  10    -0.930613068430E+03    0.14284E-02   -0.20262E-03 21812   0.172E-01    0.444E-02
DAV:  11    -0.930612638418E+03    0.43001E-03   -0.98843E-04 19092   0.946E-02    0.434E-02
DAV:  12    -0.930612195991E+03    0.44243E-03   -0.23372E-04 14644   0.887E-02    0.174E-02
DAV:  13    -0.930612107316E+03    0.88675E-04   -0.33602E-04 16844   0.711E-02
    756 T=   203. E= -.93652234E+03 F= -.94165095E+03 E0= -.94165095E+03  EK= 0.51286E+01 SP= 0.00E+00 SK= 0.00E+00
    757 T=   201. E= -.93646050E+03 F= -.94153731E+03 E0= -.94153731E+03  EK= 0.50768E+01 SP= 0.00E+00 SK= 0.00E+00
    758 T=   205. E= -.93641145E+03 F= -.94156867E+03 E0= -.94156867E+03  EK= 0.51572E+01 SP= 0.00E+00 SK= 0.00E+00
    759 T=   211. E= -.93636367E+03 F= -.94167841E+03 E0= -.94167841E+03  EK= 0.53147E+01 SP= 0.00E+00 SK= 0.00E+00
    760 T=   216. E= -.93636303E+03 F= -.94181767E+03 E0= -.94181767E+03  EK= 0.54546E+01 SP= 0.00E+00 SK= 0.00E+00
    761 T=   221. E= -.93635973E+03 F= -.94192125E+03 E0= -.94192125E+03  EK= 0.55615E+01 SP= 0.00E+00 SK= 0.00E+00
    762 T=   220. E= -.93639456E+03 F= -.94193405E+03 E0= -.94193405E+03  EK= 0.55395E+01 SP= 0.00E+00 SK= 0.00E+00
    763 T=   213. E= -.93649844E+03 F= -.94186760E+03 E0= -.94186760E+03  EK= 0.53692E+01 SP= 0.00E+00 SK= 0.00E+00
    764 T=   209. E= -.93653993E+03 F= -.94181258E+03 E0= -.94181258E+03  EK= 0.52726E+01 SP= 0.00E+00 SK= 0.00E+00
    765 T=   209. E= -.93649554E+03 F= -.94176684E+03 E0= -.94176684E+03  EK= 0.52713E+01 SP= 0.00E+00 SK= 0.00E+00
       N       E                     dE             d eps       ncg     rms          rms(c)
DAV:   1    -0.926204744271E+03    0.44075E+01   -0.22004E+03 16238   0.920E+01
DAV:   2    -0.931654883773E+03   -0.54501E+01   -0.54488E+01 19124   0.132E+01
DAV:   3    -0.931712295981E+03   -0.57412E-01   -0.57409E-01 19524   0.138E+00
DAV:   4    -0.931713638715E+03   -0.13427E-02   -0.13427E-02 19140   0.202E-01    0.919E+00
DAV:   5    -0.930870900433E+03    0.84274E+00   -0.15654E+00 20652   0.350E+00    0.505E+00
DAV:   6    -0.930785205637E+03    0.85695E-01   -0.14479E+00 19588   0.286E+00    0.147E+00
DAV:   7    -0.930794544565E+03   -0.93389E-02   -0.28954E-01 18652   0.138E+00    0.579E-01
DAV:   8    -0.930790122024E+03    0.44225E-02   -0.30251E-02 18996   0.425E-01    0.330E-01
DAV:   9    -0.930786230537E+03    0.38915E-02   -0.18673E-02 18356   0.348E-01    0.216E-01
DAV:  10    -0.930783804869E+03    0.24257E-02   -0.42207E-03 21820   0.229E-01    0.773E-02
DAV:  11    -0.930783038461E+03    0.76641E-03   -0.26341E-03 18684   0.143E-01    0.646E-02
DAV:  12    -0.930782489228E+03    0.54923E-03   -0.61880E-04 19420   0.976E-02    0.306E-02
DAV:  13    -0.930782265134E+03    0.22409E-03   -0.28089E-04 14876   0.684E-02    0.244E-02
DAV:  14    -0.930782215861E+03    0.49273E-04   -0.14845E-04 13588   0.473E-02
    766 T=   212. E= -.93647454E+03 F= -.94180764E+03 E0= -.94180764E+03  EK= 0.53331E+01 SP= 0.00E+00 SK= 0.00E+00
    767 T=   213. E= -.93650075E+03 F= -.94187740E+03 E0= -.94187740E+03  EK= 0.53767E+01 SP= 0.00E+00 SK= 0.00E+00
    768 T=   213. E= -.93654341E+03 F= -.94191832E+03 E0= -.94191832E+03  EK= 0.53749E+01 SP= 0.00E+00 SK= 0.00E+00
    769 T=   211. E= -.93659497E+03 F= -.94190174E+03 E0= -.94190174E+03  EK= 0.53068E+01 SP= 0.00E+00 SK= 0.00E+00
    770 T=   207. E= -.93660652E+03 F= -.94181303E+03 E0= -.94181303E+03  EK= 0.52065E+01 SP= 0.00E+00 SK= 0.00E+00
    771 T=   197. E= -.93665487E+03 F= -.94161294E+03 E0= -.94161294E+03  EK= 0.49581E+01 SP= 0.00E+00 SK= 0.00E+00
    772 T=   185. E= -.93672812E+03 F= -.94138542E+03 E0= -.94138542E+03  EK= 0.46573E+01 SP= 0.00E+00 SK= 0.00E+00
    773 T=   178. E= -.93673259E+03 F= -.94121710E+03 E0= -.94121710E+03  EK= 0.44845E+01 SP= 0.00E+00 SK= 0.00E+00
    774 T=   177. E= -.93671915E+03 F= -.94116802E+03 E0= -.94116802E+03  EK= 0.44489E+01 SP= 0.00E+00 SK= 0.00E+00
    775 T=   177. E= -.93674348E+03 F= -.94121399E+03 E0= -.94121399E+03  EK= 0.44705E+01 SP= 0.00E+00 SK= 0.00E+00
       N       E                     dE             d eps       ncg     rms          rms(c)
DAV:   1    -0.925788716898E+03    0.49935E+01   -0.20584E+03 16238   0.889E+01
DAV:   2    -0.931045394360E+03   -0.52567E+01   -0.52555E+01 19148   0.129E+01
DAV:   3    -0.931098870716E+03   -0.53476E-01   -0.53474E-01 19484   0.133E+00
DAV:   4    -0.931100079820E+03   -0.12091E-02   -0.12091E-02 19188   0.193E-01    0.886E+00
DAV:   5    -0.930310781663E+03    0.78930E+00   -0.15752E+00 20692   0.344E+00    0.480E+00
DAV:   6    -0.930246707360E+03    0.64074E-01   -0.12505E+00 19556   0.256E+00    0.149E+00
DAV:   7    -0.930257593879E+03   -0.10887E-01   -0.23955E-01 18660   0.124E+00    0.538E-01
DAV:   8    -0.930253717380E+03    0.38765E-02   -0.25818E-02 18804   0.425E-01    0.268E-01
DAV:   9    -0.930251018450E+03    0.26989E-02   -0.10761E-02 18276   0.242E-01    0.157E-01
DAV:  10    -0.930249595178E+03    0.14233E-02   -0.26027E-03 22396   0.176E-01    0.485E-02
DAV:  11    -0.930249137169E+03    0.45801E-03   -0.10194E-03 18508   0.917E-02    0.420E-02
DAV:  12    -0.930248781702E+03    0.35547E-03   -0.18823E-04 13932   0.706E-02    0.187E-02
DAV:  13    -0.930248656230E+03    0.12547E-03   -0.28123E-04 15484   0.677E-02    0.236E-02
DAV:  14    -0.930248645873E+03    0.10357E-04   -0.19250E-04 14020   0.366E-02
    776 T=   178. E= -.93677422E+03 F= -.94126498E+03 E0= -.94126498E+03  EK= 0.44908E+01 SP= 0.00E+00 SK= 0.00E+00
    777 T=   183. E= -.93670912E+03 F= -.94132489E+03 E0= -.94132489E+03  EK= 0.46158E+01 SP= 0.00E+00 SK= 0.00E+00
    778 T=   186. E= -.93660806E+03 F= -.94129777E+03 E0= -.94129777E+03  EK= 0.46897E+01 SP= 0.00E+00 SK= 0.00E+00
    779 T=   184. E= -.93658105E+03 F= -.94121198E+03 E0= -.94121198E+03  EK= 0.46309E+01 SP= 0.00E+00 SK= 0.00E+00
    780 T=   181. E= -.93657036E+03 F= -.94113934E+03 E0= -.94113934E+03  EK= 0.45690E+01 SP= 0.00E+00 SK= 0.00E+00
    781 T=   181. E= -.93658209E+03 F= -.94113699E+03 E0= -.94113699E+03  EK= 0.45549E+01 SP= 0.00E+00 SK= 0.00E+00
    782 T=   185. E= -.93655743E+03 F= -.94122543E+03 E0= -.94122543E+03  EK= 0.46680E+01 SP= 0.00E+00 SK= 0.00E+00
    783 T=   195. E= -.93649413E+03 F= -.94141880E+03 E0= -.94141880E+03  EK= 0.49247E+01 SP= 0.00E+00 SK= 0.00E+00
    784 T=   208. E= -.93642507E+03 F= -.94166007E+03 E0= -.94166007E+03  EK= 0.52350E+01 SP= 0.00E+00 SK= 0.00E+00
    785 T=   216. E= -.93640544E+03 F= -.94184948E+03 E0= -.94184948E+03  EK= 0.54440E+01 SP= 0.00E+00 SK= 0.00E+00
       N       E                     dE             d eps       ncg     rms          rms(c)
DAV:   1    -0.927202403647E+03    0.30463E+01   -0.18000E+03 16238   0.832E+01
DAV:   2    -0.931517087478E+03   -0.43147E+01   -0.43138E+01 19276   0.118E+01
DAV:   3    -0.931562513199E+03   -0.45426E-01   -0.45424E-01 19484   0.123E+00
DAV:   4    -0.931563558807E+03   -0.10456E-02   -0.10456E-02 19228   0.179E-01    0.836E+00
DAV:   5    -0.930975703829E+03    0.58785E+00   -0.12342E+00 20516   0.310E+00    0.459E+00
DAV:   6    -0.930954258531E+03    0.21445E-01   -0.10539E+00 19412   0.235E+00    0.135E+00
DAV:   7    -0.930965741077E+03   -0.11483E-01   -0.19378E-01 18748   0.113E+00    0.489E-01
DAV:   8    -0.930962822570E+03    0.29185E-02   -0.21990E-02 18948   0.380E-01    0.243E-01
DAV:   9    -0.930960550606E+03    0.22720E-02   -0.92980E-03 18436   0.240E-01    0.151E-01
DAV:  10    -0.930959158006E+03    0.13926E-02   -0.27636E-03 23164   0.189E-01    0.449E-02
DAV:  11    -0.930958750966E+03    0.40704E-03   -0.10003E-03 18844   0.907E-02    0.426E-02
DAV:  12    -0.930958366837E+03    0.38413E-03   -0.18915E-04 14204   0.791E-02    0.167E-02
DAV:  13    -0.930958252511E+03    0.11433E-03   -0.29799E-04 16164   0.728E-02    0.237E-02
DAV:  14    -0.930958248301E+03    0.42099E-05   -0.22326E-04 14988   0.382E-02
    786 T=   219. E= -.93644993E+03 F= -.94196585E+03 E0= -.94196585E+03  EK= 0.55159E+01 SP= 0.00E+00 SK= 0.00E+00
    787 T=   216. E= -.93647550E+03 F= -.94192174E+03 E0= -.94192174E+03  EK= 0.54462E+01 SP= 0.00E+00 SK= 0.00E+00
    788 T=   208. E= -.93657527E+03 F= -.94182965E+03 E0= -.94182965E+03  EK= 0.52544E+01 SP= 0.00E+00 SK= 0.00E+00
    789 T=   203. E= -.93663395E+03 F= -.94174529E+03 E0= -.94174529E+03  EK= 0.51113E+01 SP= 0.00E+00 SK= 0.00E+00
    790 T=   200. E= -.93670617E+03 F= -.94175493E+03 E0= -.94175493E+03  EK= 0.50488E+01 SP= 0.00E+00 SK= 0.00E+00
    791 T=   202. E= -.93674018E+03 F= -.94182462E+03 E0= -.94182462E+03  EK= 0.50844E+01 SP= 0.00E+00 SK= 0.00E+00
    792 T=   208. E= -.93670454E+03 F= -.94195067E+03 E0= -.94195067E+03  EK= 0.52461E+01 SP= 0.00E+00 SK= 0.00E+00
    793 T=   213. E= -.93672354E+03 F= -.94207992E+03 E0= -.94207992E+03  EK= 0.53564E+01 SP= 0.00E+00 SK= 0.00E+00
    794 T=   211. E= -.93680780E+03 F= -.94212944E+03 E0= -.94212944E+03  EK= 0.53216E+01 SP= 0.00E+00 SK= 0.00E+00
    795 T=   209. E= -.93685102E+03 F= -.94210656E+03 E0= -.94210656E+03  EK= 0.52555E+01 SP= 0.00E+00 SK= 0.00E+00
       N       E                     dE             d eps       ncg     rms          rms(c)
DAV:   1    -0.926599111495E+03    0.43591E+01   -0.21615E+03 16238   0.911E+01
DAV:   2    -0.931796650449E+03   -0.51975E+01   -0.51965E+01 19076   0.130E+01
DAV:   3    -0.931851065660E+03   -0.54415E-01   -0.54413E-01 19476   0.134E+00
DAV:   4    -0.931852308104E+03   -0.12424E-02   -0.12424E-02 19172   0.196E-01    0.890E+00
DAV:   5    -0.931100139915E+03    0.75217E+00   -0.14464E+00 20308   0.322E+00    0.491E+00
DAV:   6    -0.931030058792E+03    0.70081E-01   -0.13321E+00 19436   0.259E+00    0.138E+00
DAV:   7    -0.931038545127E+03   -0.84863E-02   -0.23897E-01 18436   0.124E+00    0.520E-01
DAV:   8    -0.931034915898E+03    0.36292E-02   -0.25155E-02 18412   0.394E-01    0.272E-01
DAV:   9    -0.931032397489E+03    0.25184E-02   -0.12302E-02 18244   0.273E-01    0.175E-01
DAV:  10    -0.931030836821E+03    0.15607E-02   -0.32278E-03 21980   0.192E-01    0.457E-02
DAV:  11    -0.931030541429E+03    0.29539E-03   -0.11387E-03 18748   0.840E-02    0.408E-02
DAV:  12    -0.931030281323E+03    0.26011E-03   -0.13439E-04 12948   0.571E-02    0.178E-02
DAV:  13    -0.931030195052E+03    0.86270E-04   -0.22107E-04 14604   0.580E-02
    796 T=   206. E= -.93686231E+03 F= -.94204764E+03 E0= -.94204764E+03  EK= 0.51853E+01 SP= 0.00E+00 SK= 0.00E+00
    797 T=   200. E= -.93685742E+03 F= -.94189936E+03 E0= -.94189936E+03  EK= 0.50419E+01 SP= 0.00E+00 SK= 0.00E+00
    798 T=   195. E= -.93692884E+03 F= -.94184849E+03 E0= -.94184849E+03  EK= 0.49196E+01 SP= 0.00E+00 SK= 0.00E+00
    799 T=   197. E= -.93692390E+03 F= -.94189615E+03 E0= -.94189615E+03  EK= 0.49723E+01 SP= 0.00E+00 SK= 0.00E+00
    800 T=   202. E= -.93690356E+03 F= -.94200103E+03 E0= -.94200103E+03  EK= 0.50975E+01 SP= 0.00E+00 SK= 0.00E+00
    801 T=   206. E= -.93688029E+03 F= -.94207651E+03 E0= -.94207651E+03  EK= 0.51962E+01 SP= 0.00E+00 SK= 0.00E+00
    802 T=   205. E= -.93691442E+03 F= -.94209094E+03 E0= -.94209094E+03  EK= 0.51765E+01 SP= 0.00E+00 SK= 0.00E+00
    803 T=   201. E= -.93694790E+03 F= -.94201953E+03 E0= -.94201953E+03  EK= 0.50716E+01 SP= 0.00E+00 SK= 0.00E+00
    804 T=   196. E= -.93691140E+03 F= -.94185711E+03 E0= -.94185711E+03  EK= 0.49457E+01 SP= 0.00E+00 SK= 0.00E+00
    805 T=   188. E= -.93693321E+03 F= -.94166798E+03 E0= -.94166798E+03  EK= 0.47348E+01 SP= 0.00E+00 SK= 0.00E+00
       N       E                     dE             d eps       ncg     rms          rms(c)
DAV:   1    -0.925280912839E+03    0.57494E+01   -0.23121E+03 16238   0.939E+01
DAV:   2    -0.931437703017E+03   -0.61568E+01   -0.61553E+01 19124   0.140E+01
DAV:   3    -0.931501248161E+03   -0.63545E-01   -0.63542E-01 19460   0.146E+00
DAV:   4    -0.931502655043E+03   -0.14069E-02   -0.14068E-02 19132   0.210E-01    0.922E+00
DAV:   5    -0.930641319329E+03    0.86134E+00   -0.16537E+00 19820   0.340E+00    0.499E+00
DAV:   6    -0.930555432772E+03    0.85887E-01   -0.13174E+00 19444   0.264E+00    0.149E+00
DAV:   7    -0.930566449339E+03   -0.11017E-01   -0.26543E-01 18860   0.137E+00    0.580E-01
DAV:   8    -0.930562773066E+03    0.36763E-02   -0.32734E-02 18900   0.424E-01    0.326E-01
DAV:   9    -0.930558704090E+03    0.40690E-02   -0.13207E-02 18372   0.285E-01    0.175E-01
DAV:  10    -0.930556554171E+03    0.21499E-02   -0.24478E-03 21380   0.215E-01    0.765E-02
DAV:  11    -0.930555908424E+03    0.64575E-03   -0.29163E-03 19324   0.163E-01    0.689E-02
DAV:  12    -0.930555344659E+03    0.56377E-03   -0.83827E-04 18740   0.120E-01    0.302E-02
DAV:  13    -0.930555182720E+03    0.16194E-03   -0.37288E-04 18396   0.843E-02    0.416E-02
DAV:  14    -0.930555130326E+03    0.52394E-04   -0.36131E-04 18236   0.624E-02
    806 T=   182. E= -.93699880E+03 F= -.94157420E+03 E0= -.94157420E+03  EK= 0.45754E+01 SP= 0.00E+00 SK= 0.00E+00
    807 T=   184. E= -.93706065E+03 F= -.94170368E+03 E0= -.94170368E+03  EK= 0.46430E+01 SP= 0.00E+00 SK= 0.00E+00
    808 T=   192. E= -.93707066E+03 F= -.94189771E+03 E0= -.94189771E+03  EK= 0.48271E+01 SP= 0.00E+00 SK= 0.00E+00
    809 T=   200. E= -.93700518E+03 F= -.94204214E+03 E0= -.94204214E+03  EK= 0.50370E+01 SP= 0.00E+00 SK= 0.00E+00
    810 T=   203. E= -.93694326E+03 F= -.94205297E+03 E0= -.94205297E+03  EK= 0.51097E+01 SP= 0.00E+00 SK= 0.00E+00
    811 T=   201. E= -.93690575E+03 F= -.94198347E+03 E0= -.94198347E+03  EK= 0.50777E+01 SP= 0.00E+00 SK= 0.00E+00
    812 T=   202. E= -.93681554E+03 F= -.94191902E+03 E0= -.94191902E+03  EK= 0.51035E+01 SP= 0.00E+00 SK= 0.00E+00
    813 T=   203. E= -.93676807E+03 F= -.94187503E+03 E0= -.94187503E+03  EK= 0.51070E+01 SP= 0.00E+00 SK= 0.00E+00
    814 T=   203. E= -.93680156E+03 F= -.94192563E+03 E0= -.94192563E+03  EK= 0.51241E+01 SP= 0.00E+00 SK= 0.00E+00
    815 T=   205. E= -.93686521E+03 F= -.94203902E+03 E0= -.94203902E+03  EK= 0.51738E+01 SP= 0.00E+00 SK= 0.00E+00
       N       E                     dE             d eps       ncg     rms          rms(c)
DAV:   1    -0.926221843514E+03    0.43333E+01   -0.20949E+03 16238   0.895E+01
DAV:   2    -0.931753978483E+03   -0.55321E+01   -0.55310E+01 19068   0.132E+01
DAV:   3    -0.931811600972E+03   -0.57622E-01   -0.57620E-01 19460   0.139E+00
DAV:   4    -0.931812915900E+03   -0.13149E-02   -0.13149E-02 19084   0.201E-01    0.882E+00
DAV:   5    -0.931112462615E+03    0.70045E+00   -0.14108E+00 20260   0.322E+00    0.486E+00
DAV:   6    -0.931053296964E+03    0.59166E-01   -0.11848E+00 19524   0.254E+00    0.143E+00
DAV:   7    -0.931064234496E+03   -0.10938E-01   -0.23500E-01 18716   0.126E+00    0.563E-01
DAV:   8    -0.931060601397E+03    0.36331E-02   -0.29782E-02 19108   0.408E-01    0.290E-01
DAV:   9    -0.931057553309E+03    0.30481E-02   -0.99511E-03 18476   0.244E-01    0.155E-01
DAV:  10    -0.931055576097E+03    0.19772E-02   -0.22351E-03 21236   0.201E-01    0.531E-02
DAV:  11    -0.931055097932E+03    0.47817E-03   -0.18334E-03 19452   0.119E-01    0.589E-02
DAV:  12    -0.931054725238E+03    0.37269E-03   -0.45981E-04 17780   0.683E-02    0.242E-02
DAV:  13    -0.931054532028E+03    0.19321E-03   -0.14571E-04 13436   0.711E-02    0.290E-02
DAV:  14    -0.931054508896E+03    0.23132E-04   -0.23991E-04 15500   0.453E-02
    816 T=   208. E= -.93681938E+03 F= -.94206235E+03 E0= -.94206235E+03  EK= 0.52430E+01 SP= 0.00E+00 SK= 0.00E+00
    817 T=   209. E= -.93679586E+03 F= -.94207006E+03 E0= -.94207006E+03  EK= 0.52742E+01 SP= 0.00E+00 SK= 0.00E+00
    818 T=   207. E= -.93673105E+03 F= -.94194382E+03 E0= -.94194382E+03  EK= 0.52128E+01 SP= 0.00E+00 SK= 0.00E+00
    819 T=   200. E= -.93670725E+03 F= -.94175359E+03 E0= -.94175359E+03  EK= 0.50463E+01 SP= 0.00E+00 SK= 0.00E+00
    820 T=   196. E= -.93667773E+03 F= -.94160750E+03 E0= -.94160750E+03  EK= 0.49298E+01 SP= 0.00E+00 SK= 0.00E+00
    821 T=   194. E= -.93669219E+03 F= -.94157024E+03 E0= -.94157024E+03  EK= 0.48781E+01 SP= 0.00E+00 SK= 0.00E+00
    822 T=   197. E= -.93669153E+03 F= -.94165128E+03 E0= -.94165128E+03  EK= 0.49598E+01 SP= 0.00E+00 SK= 0.00E+00
    823 T=   202. E= -.93669092E+03 F= -.94178648E+03 E0= -.94178648E+03  EK= 0.50956E+01 SP= 0.00E+00 SK= 0.00E+00
    824 T=   207. E= -.93672409E+03 F= -.94194528E+03 E0= -.94194528E+03  EK= 0.52212E+01 SP= 0.00E+00 SK= 0.00E+00
    825 T=   211. E= -.93668922E+03 F= -.94201734E+03 E0= -.94201734E+03  EK= 0.53281E+01 SP= 0.00E+00 SK= 0.00E+00
    826 T=   211. E= -.93663820E+03 F= -.94196144E+03 E0= -.94196144E+03  EK= 0.53232E+01 SP= 0.00E+00 SK= 0.00E+00
    827 T=   208. E= -.93660140E+03 F= -.94183845E+03 E0= -.94183845E+03  EK= 0.52370E+01 SP= 0.00E+00 SK= 0.00E+00
    828 T=   206. E= -.93657682E+03 F= -.94176686E+03 E0= -.94176686E+03  EK= 0.51900E+01 SP= 0.00E+00 SK= 0.00E+00
    829 T=   211. E= -.93652616E+03 F= -.94184948E+03 E0= -.94184948E+03  EK= 0.53233E+01 SP= 0.00E+00 SK= 0.00E+00
    830 T=   220. E= -.93651828E+03 F= -.94206571E+03 E0= -.94206571E+03  EK= 0.55474E+01 SP= 0.00E+00 SK= 0.00E+00
    831 T=   228. E= -.93649825E+03 F= -.94224665E+03 E0= -.94224665E+03  EK= 0.57484E+01 SP= 0.00E+00 SK= 0.00E+00
    832 T=   235. E= -.93641228E+03 F= -.94232383E+03 E0= -.94232383E+03  EK= 0.59116E+01 SP= 0.00E+00 SK= 0.00E+00
    833 T=   232. E= -.93639121E+03 F= -.94223418E+03 E0= -.94223418E+03  EK= 0.58430E+01 SP= 0.00E+00 SK= 0.00E+00
    834 T=   225. E= -.93636565E+03 F= -.94203541E+03 E0= -.94203541E+03  EK= 0.56698E+01 SP= 0.00E+00 SK= 0.00E+00
    835 T=   215. E= -.93633625E+03 F= -.94175112E+03 E0= -.94175112E+03  EK= 0.54149E+01 SP= 0.00E+00 SK= 0.00E+00
       N       E                     dE             d eps       ncg     rms          rms(c)
DAV:   1    -0.908288513381E+03    0.22766E+02   -0.66959E+03 16238   0.158E+02
DAV:   2    -0.931691108969E+03   -0.23403E+02   -0.23392E+02 19028   0.263E+01
DAV:   3    -0.931943097321E+03   -0.25199E+00   -0.25196E+00 19476   0.293E+00
DAV:   4    -0.931948447764E+03   -0.53504E-02   -0.53501E-02 19108   0.407E-01    0.144E+01
DAV:   5    -0.930415659539E+03    0.15328E+01   -0.25133E+00 19060   0.401E+00    0.822E+00
DAV:   6    -0.930339561485E+03    0.76098E-01   -0.34390E+00 19492   0.417E+00    0.172E+00
DAV:   7    -0.930375618467E+03   -0.36057E-01   -0.60246E-01 18548   0.178E+00    0.833E-01
DAV:   8    -0.930371892748E+03    0.37257E-02   -0.52402E-02 18956   0.483E-01    0.464E-01
DAV:   9    -0.930368311749E+03    0.35810E-02   -0.22938E-02 18548   0.414E-01    0.255E-01
DAV:  10    -0.930365745030E+03    0.25667E-02   -0.56153E-03 20468   0.249E-01    0.971E-02
DAV:  11    -0.930365177172E+03    0.56786E-03   -0.35283E-03 19508   0.153E-01    0.668E-02
DAV:  12    -0.930364663770E+03    0.51340E-03   -0.49816E-04 18060   0.834E-02    0.307E-02
DAV:  13    -0.930364387825E+03    0.27595E-03   -0.35441E-04 17068   0.841E-02    0.325E-02
DAV:  14    -0.930364318524E+03    0.69300E-04   -0.26125E-04 15724   0.585E-02
    836 T=   202. E= -.93630535E+03 F= -.94140498E+03 E0= -.94140498E+03  EK= 0.50996E+01 SP= 0.00E+00 SK= 0.00E+00
    837 T=   196. E= -.93629388E+03 F= -.94124184E+03 E0= -.94124184E+03  EK= 0.49480E+01 SP= 0.00E+00 SK= 0.00E+00
    838 T=   195. E= -.93626527E+03 F= -.94117125E+03 E0= -.94117125E+03  EK= 0.49060E+01 SP= 0.00E+00 SK= 0.00E+00
    839 T=   197. E= -.93624987E+03 F= -.94120555E+03 E0= -.94120555E+03  EK= 0.49557E+01 SP= 0.00E+00 SK= 0.00E+00
    840 T=   202. E= -.93620601E+03 F= -.94128722E+03 E0= -.94128722E+03  EK= 0.50812E+01 SP= 0.00E+00 SK= 0.00E+00
    841 T=   207. E= -.93611532E+03 F= -.94132575E+03 E0= -.94132575E+03  EK= 0.52104E+01 SP= 0.00E+00 SK= 0.00E+00
    842 T=   209. E= -.93604271E+03 F= -.94131034E+03 E0= -.94131034E+03  EK= 0.52676E+01 SP= 0.00E+00 SK= 0.00E+00
    843 T=   207. E= -.93601640E+03 F= -.94122950E+03 E0= -.94122950E+03  EK= 0.52131E+01 SP= 0.00E+00 SK= 0.00E+00
    844 T=   202. E= -.93601583E+03 F= -.94110254E+03 E0= -.94110254E+03  EK= 0.50867E+01 SP= 0.00E+00 SK= 0.00E+00
    845 T=   198. E= -.93595990E+03 F= -.94095733E+03 E0= -.94095733E+03  EK= 0.49974E+01 SP= 0.00E+00 SK= 0.00E+00
       N       E                     dE             d eps       ncg     rms          rms(c)
DAV:   1    -0.924535341994E+03    0.58290E+01   -0.23371E+03 16238   0.945E+01
DAV:   2    -0.930808634904E+03   -0.62733E+01   -0.62718E+01 19116   0.141E+01
DAV:   3    -0.930873034471E+03   -0.64400E-01   -0.64396E-01 19484   0.146E+00
DAV:   4    -0.930874485474E+03   -0.14510E-02   -0.14510E-02 19180   0.211E-01    0.948E+00
DAV:   5    -0.929910070559E+03    0.96441E+00   -0.21025E+00 20692   0.387E+00    0.500E+00
DAV:   6    -0.929834544829E+03    0.75526E-01   -0.13295E+00 19412   0.261E+00    0.169E+00
DAV:   7    -0.929850414667E+03   -0.15870E-01   -0.25517E-01 19068   0.127E+00    0.575E-01
DAV:   8    -0.929847371012E+03    0.30437E-02   -0.27409E-02 19332   0.450E-01    0.269E-01
DAV:   9    -0.929845216243E+03    0.21548E-02   -0.98719E-03 18388   0.241E-01    0.141E-01
DAV:  10    -0.929844083264E+03    0.11330E-02   -0.21847E-03 21828   0.163E-01    0.457E-02
DAV:  11    -0.929843728020E+03    0.35524E-03   -0.85191E-04 18748   0.838E-02    0.396E-02
DAV:  12    -0.929843398076E+03    0.32994E-03   -0.13085E-04 13460   0.752E-02    0.162E-02
DAV:  13    -0.929843289488E+03    0.10859E-03   -0.31801E-04 16020   0.747E-02    0.235E-02
DAV:  14    -0.929843283326E+03    0.61619E-05   -0.21264E-04 14228   0.380E-02
    846 T=   200. E= -.93586462E+03 F= -.94089963E+03 E0= -.94089963E+03  EK= 0.50350E+01 SP= 0.00E+00 SK= 0.00E+00
    847 T=   207. E= -.93583349E+03 F= -.94104334E+03 E0= -.94104334E+03  EK= 0.52099E+01 SP= 0.00E+00 SK= 0.00E+00
    848 T=   217. E= -.93584816E+03 F= -.94130662E+03 E0= -.94130662E+03  EK= 0.54585E+01 SP= 0.00E+00 SK= 0.00E+00
    849 T=   227. E= -.93582169E+03 F= -.94154826E+03 E0= -.94154826E+03  EK= 0.57266E+01 SP= 0.00E+00 SK= 0.00E+00
    850 T=   232. E= -.93579382E+03 F= -.94164340E+03 E0= -.94164340E+03  EK= 0.58496E+01 SP= 0.00E+00 SK= 0.00E+00
    851 T=   228. E= -.93576246E+03 F= -.94151563E+03 E0= -.94151563E+03  EK= 0.57532E+01 SP= 0.00E+00 SK= 0.00E+00
    852 T=   224. E= -.93565562E+03 F= -.94130253E+03 E0= -.94130253E+03  EK= 0.56469E+01 SP= 0.00E+00 SK= 0.00E+00
    853 T=   215. E= -.93565785E+03 F= -.94108042E+03 E0= -.94108042E+03  EK= 0.54226E+01 SP= 0.00E+00 SK= 0.00E+00
    854 T=   207. E= -.93568127E+03 F= -.94090714E+03 E0= -.94090714E+03  EK= 0.52259E+01 SP= 0.00E+00 SK= 0.00E+00
    855 T=   204. E= -.93566258E+03 F= -.94081019E+03 E0= -.94081019E+03  EK= 0.51476E+01 SP= 0.00E+00 SK= 0.00E+00
    856 T=   204. E= -.93567814E+03 F= -.94082604E+03 E0= -.94082604E+03  EK= 0.51479E+01 SP= 0.00E+00 SK= 0.00E+00
       N       E                     dE             d eps       ncg     rms          rms(c)
DAV:   1    -0.923203757375E+03    0.66395E+01   -0.28043E+03 16238   0.104E+02
DAV:   2    -0.930835086268E+03   -0.76313E+01   -0.76295E+01 18988   0.154E+01
DAV:   3    -0.930914383276E+03   -0.79297E-01   -0.79293E-01 19476   0.162E+00
DAV:   4    -0.930916169677E+03   -0.17864E-02   -0.17864E-02 19108   0.233E-01    0.101E+01
DAV:   5    -0.929999072488E+03    0.91710E+00   -0.18287E+00 19948   0.357E+00    0.550E+00
DAV:   6    -0.929928096266E+03    0.70976E-01   -0.15428E+00 19524   0.283E+00    0.158E+00
DAV:   7    -0.929945143133E+03   -0.17047E-01   -0.27639E-01 18588   0.129E+00    0.601E-01
DAV:   8    -0.929941277580E+03    0.38656E-02   -0.29504E-02 18820   0.413E-01    0.285E-01
DAV:   9    -0.929938340752E+03    0.29368E-02   -0.86331E-03 18516   0.255E-01    0.142E-01
DAV:  10    -0.929936669120E+03    0.16716E-02   -0.23290E-03 20740   0.180E-01    0.481E-02
DAV:  11    -0.929936241423E+03    0.42770E-03   -0.11497E-03 19340   0.964E-02    0.441E-02
DAV:  12    -0.929935822307E+03    0.41912E-03   -0.21465E-04 14748   0.824E-02    0.185E-02
DAV:  13    -0.929935687262E+03    0.13504E-03   -0.27952E-04 15876   0.790E-02    0.292E-02
DAV:  14    -0.929935677024E+03    0.10238E-04   -0.34161E-04 17308   0.506E-02
    857 T=   208. E= -.93574024E+03 F= -.94098319E+03 E0= -.94098319E+03  EK= 0.52430E+01 SP= 0.00E+00 SK= 0.00E+00
    858 T=   211. E= -.93578413E+03 F= -.94110055E+03 E0= -.94110055E+03  EK= 0.53164E+01 SP= 0.00E+00 SK= 0.00E+00
    859 T=   218. E= -.93574793E+03 F= -.94123185E+03 E0= -.94123185E+03  EK= 0.54839E+01 SP= 0.00E+00 SK= 0.00E+00
    860 T=   225. E= -.93559353E+03 F= -.94127205E+03 E0= -.94127205E+03  EK= 0.56785E+01 SP= 0.00E+00 SK= 0.00E+00
    861 T=   225. E= -.93551328E+03 F= -.94117783E+03 E0= -.94117783E+03  EK= 0.56646E+01 SP= 0.00E+00 SK= 0.00E+00
    862 T=   222. E= -.93545683E+03 F= -.94104598E+03 E0= -.94104598E+03  EK= 0.55891E+01 SP= 0.00E+00 SK= 0.00E+00
    863 T=   218. E= -.93541687E+03 F= -.94091960E+03 E0= -.94091960E+03  EK= 0.55027E+01 SP= 0.00E+00 SK= 0.00E+00
    864 T=   219. E= -.93534882E+03 F= -.94086842E+03 E0= -.94086842E+03  EK= 0.55196E+01 SP= 0.00E+00 SK= 0.00E+00
    865 T=   227. E= -.93520495E+03 F= -.94091943E+03 E0= -.94091943E+03  EK= 0.57145E+01 SP= 0.00E+00 SK= 0.00E+00
    866 T=   235. E= -.93512151E+03 F= -.94104426E+03 E0= -.94104426E+03  EK= 0.59228E+01 SP= 0.00E+00 SK= 0.00E+00
       N       E                     dE             d eps       ncg     rms          rms(c)
DAV:   1    -0.924901606705E+03    0.50341E+01   -0.23867E+03 16238   0.956E+01
DAV:   2    -0.931101588045E+03   -0.62000E+01   -0.61986E+01 19132   0.140E+01
DAV:   3    -0.931165951026E+03   -0.64363E-01   -0.64360E-01 19476   0.147E+00
DAV:   4    -0.931167405625E+03   -0.14546E-02   -0.14546E-02 19164   0.213E-01    0.943E+00
DAV:   5    -0.930237275283E+03    0.93013E+00   -0.18676E+00 20452   0.365E+00    0.510E+00
DAV:   6    -0.930147077614E+03    0.90198E-01   -0.14107E+00 19580   0.279E+00    0.160E+00
DAV:   7    -0.930153014890E+03   -0.59373E-02   -0.31270E-01 19060   0.156E+00    0.609E-01
DAV:   8    -0.930146868070E+03    0.61468E-02   -0.45276E-02 19372   0.534E-01    0.352E-01
DAV:   9    -0.930140176668E+03    0.66914E-02   -0.18602E-02 18612   0.344E-01    0.203E-01
DAV:  10    -0.930136611446E+03    0.35652E-02   -0.34673E-03 21764   0.280E-01    0.972E-02
DAV:  11    -0.930135279519E+03    0.13319E-02   -0.53128E-03 19188   0.244E-01    0.102E-01
DAV:  12    -0.930134362923E+03    0.91660E-03   -0.17404E-03 19196   0.148E-01    0.370E-02
DAV:  13    -0.930133963595E+03    0.39933E-03   -0.41567E-04 18220   0.116E-01    0.374E-02
DAV:  14    -0.930133902390E+03    0.61205E-04   -0.53389E-04 19556   0.840E-02
    867 T=   239. E= -.93514072E+03 F= -.94116314E+03 E0= -.94116314E+03  EK= 0.60224E+01 SP= 0.00E+00 SK= 0.00E+00
    868 T=   241. E= -.93511404E+03 F= -.94117782E+03 E0= -.94117782E+03  EK= 0.60638E+01 SP= 0.00E+00 SK= 0.00E+00
    869 T=   240. E= -.93504847E+03 F= -.94109588E+03 E0= -.94109588E+03  EK= 0.60474E+01 SP= 0.00E+00 SK= 0.00E+00
    870 T=   231. E= -.93508799E+03 F= -.94091897E+03 E0= -.94091897E+03  EK= 0.58310E+01 SP= 0.00E+00 SK= 0.00E+00
    871 T=   222. E= -.93512706E+03 F= -.94071310E+03 E0= -.94071310E+03  EK= 0.55860E+01 SP= 0.00E+00 SK= 0.00E+00
    872 T=   214. E= -.93517628E+03 F= -.94056558E+03 E0= -.94056558E+03  EK= 0.53893E+01 SP= 0.00E+00 SK= 0.00E+00
    873 T=   209. E= -.93526100E+03 F= -.94052446E+03 E0= -.94052446E+03  EK= 0.52635E+01 SP= 0.00E+00 SK= 0.00E+00
    874 T=   209. E= -.93530413E+03 F= -.94057677E+03 E0= -.94057677E+03  EK= 0.52726E+01 SP= 0.00E+00 SK= 0.00E+00
    875 T=   211. E= -.93535776E+03 F= -.94066945E+03 E0= -.94066945E+03  EK= 0.53117E+01 SP= 0.00E+00 SK= 0.00E+00
    876 T=   214. E= -.93537416E+03 F= -.94075996E+03 E0= -.94075996E+03  EK= 0.53858E+01 SP= 0.00E+00 SK= 0.00E+00
       N       E                     dE             d eps       ncg     rms          rms(c)
DAV:   1    -0.924468759210E+03    0.56652E+01   -0.22542E+03 16238   0.928E+01
DAV:   2    -0.930513433021E+03   -0.60447E+01   -0.60434E+01 19116   0.138E+01
DAV:   3    -0.930575720850E+03   -0.62288E-01   -0.62285E-01 19468   0.144E+00
DAV:   4    -0.930577135057E+03   -0.14142E-02   -0.14142E-02 19172   0.208E-01    0.936E+00
DAV:   5    -0.929801093653E+03    0.77604E+00   -0.15751E+00 20340   0.340E+00    0.512E+00
DAV:   6    -0.929756323438E+03    0.44770E-01   -0.13109E+00 19484   0.269E+00    0.149E+00
DAV:   7    -0.929773335481E+03   -0.17012E-01   -0.25300E-01 18700   0.127E+00    0.559E-01
DAV:   8    -0.929770517744E+03    0.28177E-02   -0.25487E-02 18772   0.391E-01    0.289E-01
DAV:   9    -0.929768227464E+03    0.22903E-02   -0.11602E-02 18556   0.279E-01    0.166E-01
DAV:  10    -0.929766825966E+03    0.14015E-02   -0.27487E-03 22092   0.188E-01    0.556E-02
DAV:  11    -0.929766399687E+03    0.42628E-03   -0.13881E-03 18796   0.111E-01    0.480E-02
DAV:  12    -0.929766025608E+03    0.37408E-03   -0.28036E-04 15212   0.954E-02    0.206E-02
DAV:  13    -0.929765907834E+03    0.11777E-03   -0.36175E-04 17260   0.769E-02    0.307E-02
DAV:  14    -0.929765883861E+03    0.23972E-04   -0.23716E-04 14884   0.435E-02
    877 T=   216. E= -.93536155E+03 F= -.94081311E+03 E0= -.94081311E+03  EK= 0.54516E+01 SP= 0.00E+00 SK= 0.00E+00
    878 T=   219. E= -.93532526E+03 F= -.94083593E+03 E0= -.94083593E+03  EK= 0.55107E+01 SP= 0.00E+00 SK= 0.00E+00
    879 T=   221. E= -.93533585E+03 F= -.94090369E+03 E0= -.94090369E+03  EK= 0.55678E+01 SP= 0.00E+00 SK= 0.00E+00
    880 T=   222. E= -.93540200E+03 F= -.94098876E+03 E0= -.94098876E+03  EK= 0.55868E+01 SP= 0.00E+00 SK= 0.00E+00
    881 T=   221. E= -.93549215E+03 F= -.94105117E+03 E0= -.94105117E+03  EK= 0.55590E+01 SP= 0.00E+00 SK= 0.00E+00
    882 T=   220. E= -.93553755E+03 F= -.94109537E+03 E0= -.94109537E+03  EK= 0.55578E+01 SP= 0.00E+00 SK= 0.00E+00
    883 T=   221. E= -.93555488E+03 F= -.94112384E+03 E0= -.94112384E+03  EK= 0.55690E+01 SP= 0.00E+00 SK= 0.00E+00
    884 T=   219. E= -.93562889E+03 F= -.94114665E+03 E0= -.94114665E+03  EK= 0.55178E+01 SP= 0.00E+00 SK= 0.00E+00
    885 T=   217. E= -.93573398E+03 F= -.94119603E+03 E0= -.94119603E+03  EK= 0.54621E+01 SP= 0.00E+00 SK= 0.00E+00
    886 T=   220. E= -.93576722E+03 F= -.94130569E+03 E0= -.94130569E+03  EK= 0.55385E+01 SP= 0.00E+00 SK= 0.00E+00
    887 T=   226. E= -.93574164E+03 F= -.94143642E+03 E0= -.94143642E+03  EK= 0.56948E+01 SP= 0.00E+00 SK= 0.00E+00
    888 T=   230. E= -.93574028E+03 F= -.94153838E+03 E0= -.94153838E+03  EK= 0.57981E+01 SP= 0.00E+00 SK= 0.00E+00
    889 T=   230. E= -.93578184E+03 F= -.94156730E+03 E0= -.94156730E+03  EK= 0.57855E+01 SP= 0.00E+00 SK= 0.00E+00
    890 T=   229. E= -.93575198E+03 F= -.94152070E+03 E0= -.94152070E+03  EK= 0.57687E+01 SP= 0.00E+00 SK= 0.00E+00
    891 T=   221. E= -.93578976E+03 F= -.94137282E+03 E0= -.94137282E+03  EK= 0.55831E+01 SP= 0.00E+00 SK= 0.00E+00
    892 T=   212. E= -.93587485E+03 F= -.94120966E+03 E0= -.94120966E+03  EK= 0.53348E+01 SP= 0.00E+00 SK= 0.00E+00
    893 T=   209. E= -.93585469E+03 F= -.94112189E+03 E0= -.94112189E+03  EK= 0.52672E+01 SP= 0.00E+00 SK= 0.00E+00
    894 T=   211. E= -.93579794E+03 F= -.94112164E+03 E0= -.94112164E+03  EK= 0.53237E+01 SP= 0.00E+00 SK= 0.00E+00
    895 T=   215. E= -.93578693E+03 F= -.94120347E+03 E0= -.94120347E+03  EK= 0.54165E+01 SP= 0.00E+00 SK= 0.00E+00
    896 T=   218. E= -.93582053E+03 F= -.94130897E+03 E0= -.94130897E+03  EK= 0.54884E+01 SP= 0.00E+00 SK= 0.00E+00
    897 T=   218. E= -.93585271E+03 F= -.94134222E+03 E0= -.94134222E+03  EK= 0.54895E+01 SP= 0.00E+00 SK= 0.00E+00
    898 T=   212. E= -.93593360E+03 F= -.94126943E+03 E0= -.94126943E+03  EK= 0.53358E+01 SP= 0.00E+00 SK= 0.00E+00
    899 T=   203. E= -.93598964E+03 F= -.94111413E+03 E0= -.94111413E+03  EK= 0.51245E+01 SP= 0.00E+00 SK= 0.00E+00
    900 T=   197. E= -.93596112E+03 F= -.94093336E+03 E0= -.94093336E+03  EK= 0.49722E+01 SP= 0.00E+00 SK= 0.00E+00
    901 T=   194. E= -.93589150E+03 F= -.94079056E+03 E0= -.94079056E+03  EK= 0.48991E+01 SP= 0.00E+00 SK= 0.00E+00
    902 T=   196. E= -.93582428E+03 F= -.94077318E+03 E0= -.94077318E+03  EK= 0.49489E+01 SP= 0.00E+00 SK= 0.00E+00
    903 T=   202. E= -.93580796E+03 F= -.94090777E+03 E0= -.94090777E+03  EK= 0.50998E+01 SP= 0.00E+00 SK= 0.00E+00
    904 T=   211. E= -.93584530E+03 F= -.94115135E+03 E0= -.94115135E+03  EK= 0.53060E+01 SP= 0.00E+00 SK= 0.00E+00
       N       E                     dE             d eps       ncg     rms          rms(c)
DAV:   1    -0.878635505920E+03    0.51130E+02   -0.11852E+04 16238   0.208E+02
DAV:   2    -0.932935190797E+03   -0.54300E+02   -0.54266E+02 18852   0.393E+01
DAV:   3    -0.933549072710E+03   -0.61388E+00   -0.61380E+00 19420   0.459E+00
DAV:   4    -0.933561328286E+03   -0.12256E-01   -0.12255E-01 19036   0.623E-01    0.182E+01
DAV:   5    -0.930660779012E+03    0.29005E+01   -0.46260E+00 18588   0.525E+00    0.103E+01
DAV:   6    -0.930263638265E+03    0.39714E+00   -0.55457E+00 19540   0.529E+00    0.230E+00
DAV:   7    -0.930334102561E+03   -0.70464E-01   -0.10165E+00 18804   0.234E+00    0.115E+00
DAV:   8    -0.930325870339E+03    0.82322E-02   -0.97817E-02 19180   0.657E-01    0.661E-01
DAV:   9    -0.930317368640E+03    0.85017E-02   -0.35575E-02 18516   0.488E-01    0.320E-01
DAV:  10    -0.930312012187E+03    0.53565E-02   -0.71015E-03 19876   0.331E-01    0.146E-01
DAV:  11    -0.930310722116E+03    0.12901E-02   -0.83496E-03 19612   0.244E-01    0.106E-01
DAV:  12    -0.930309551366E+03    0.11707E-02   -0.15301E-03 18692   0.131E-01    0.390E-02
DAV:  13    -0.930308903117E+03    0.64825E-03   -0.56433E-04 17860   0.130E-01    0.449E-02
DAV:  14    -0.930308749397E+03    0.15372E-03   -0.65373E-04 18900   0.997E-02    0.244E-02
DAV:  15    -0.930308768026E+03   -0.18629E-04   -0.41139E-04 18012   0.404E-02
    905 T=   219. E= -.93582893E+03 F= -.94136115E+03 E0= -.94136115E+03  EK= 0.55322E+01 SP= 0.00E+00 SK= 0.00E+00
    906 T=   221. E= -.93583597E+03 F= -.94141411E+03 E0= -.94141411E+03  EK= 0.55781E+01 SP= 0.00E+00 SK= 0.00E+00
    907 T=   214. E= -.93584850E+03 F= -.94124394E+03 E0= -.94124394E+03  EK= 0.53954E+01 SP= 0.00E+00 SK= 0.00E+00
    908 T=   204. E= -.93584166E+03 F= -.94098034E+03 E0= -.94098034E+03  EK= 0.51387E+01 SP= 0.00E+00 SK= 0.00E+00
    909 T=   195. E= -.93585220E+03 F= -.94076417E+03 E0= -.94076417E+03  EK= 0.49120E+01 SP= 0.00E+00 SK= 0.00E+00
    910 T=   194. E= -.93580367E+03 F= -.94070276E+03 E0= -.94070276E+03  EK= 0.48991E+01 SP= 0.00E+00 SK= 0.00E+00
    911 T=   200. E= -.93573183E+03 F= -.94077261E+03 E0= -.94077261E+03  EK= 0.50408E+01 SP= 0.00E+00 SK= 0.00E+00
    912 T=   206. E= -.93570270E+03 F= -.94089817E+03 E0= -.94089817E+03  EK= 0.51955E+01 SP= 0.00E+00 SK= 0.00E+00
    913 T=   213. E= -.93562265E+03 F= -.94099001E+03 E0= -.94099001E+03  EK= 0.53674E+01 SP= 0.00E+00 SK= 0.00E+00
    914 T=   212. E= -.93558339E+03 F= -.94092538E+03 E0= -.94092538E+03  EK= 0.53420E+01 SP= 0.00E+00 SK= 0.00E+00
       N       E                     dE             d eps       ncg     rms          rms(c)
DAV:   1    -0.925354303392E+03    0.49544E+01   -0.19618E+03 16238   0.866E+01
DAV:   2    -0.930365325850E+03   -0.50110E+01   -0.50101E+01 19108   0.126E+01
DAV:   3    -0.930417108081E+03   -0.51782E-01   -0.51780E-01 19516   0.131E+00
DAV:   4    -0.930418289775E+03   -0.11817E-02   -0.11817E-02 19132   0.190E-01    0.879E+00
DAV:   5    -0.929769480506E+03    0.64881E+00   -0.12974E+00 19996   0.306E+00    0.485E+00
DAV:   6    -0.929720443727E+03    0.49037E-01   -0.11510E+00 19492   0.245E+00    0.133E+00
DAV:   7    -0.929729998705E+03   -0.95550E-02   -0.22566E-01 19028   0.120E+00    0.544E-01
DAV:   8    -0.929726458180E+03    0.35405E-02   -0.25178E-02 18860   0.384E-01    0.277E-01
DAV:   9    -0.929723602208E+03    0.28560E-02   -0.91972E-03 18532   0.241E-01    0.147E-01
DAV:  10    -0.929721972039E+03    0.16302E-02   -0.24752E-03 21964   0.189E-01    0.499E-02
DAV:  11    -0.929721604858E+03    0.36718E-03   -0.13758E-03 19260   0.101E-01    0.513E-02
DAV:  12    -0.929721275435E+03    0.32942E-03   -0.24901E-04 14532   0.638E-02    0.206E-02
DAV:  13    -0.929721118681E+03    0.15675E-03   -0.18767E-04 13772   0.724E-02    0.273E-02
DAV:  14    -0.929721102329E+03    0.16352E-04   -0.25895E-04 15980   0.453E-02
    915 T=   203. E= -.93563061E+03 F= -.94074169E+03 E0= -.94074169E+03  EK= 0.51111E+01 SP= 0.00E+00 SK= 0.00E+00
    916 T=   193. E= -.93570146E+03 F= -.94056892E+03 E0= -.94056892E+03  EK= 0.48675E+01 SP= 0.00E+00 SK= 0.00E+00
    917 T=   192. E= -.93563229E+03 F= -.94048135E+03 E0= -.94048135E+03  EK= 0.48491E+01 SP= 0.00E+00 SK= 0.00E+00
    918 T=   199. E= -.93552764E+03 F= -.94055445E+03 E0= -.94055445E+03  EK= 0.50268E+01 SP= 0.00E+00 SK= 0.00E+00
    919 T=   211. E= -.93547582E+03 F= -.94078721E+03 E0= -.94078721E+03  EK= 0.53114E+01 SP= 0.00E+00 SK= 0.00E+00
    920 T=   224. E= -.93544590E+03 F= -.94109674E+03 E0= -.94109674E+03  EK= 0.56508E+01 SP= 0.00E+00 SK= 0.00E+00
    921 T=   233. E= -.93544742E+03 F= -.94132252E+03 E0= -.94132252E+03  EK= 0.58751E+01 SP= 0.00E+00 SK= 0.00E+00
    922 T=   235. E= -.93544415E+03 F= -.94136688E+03 E0= -.94136688E+03  EK= 0.59227E+01 SP= 0.00E+00 SK= 0.00E+00
    923 T=   231. E= -.93542982E+03 F= -.94125048E+03 E0= -.94125048E+03  EK= 0.58207E+01 SP= 0.00E+00 SK= 0.00E+00
    924 T=   223. E= -.93547561E+03 F= -.94110031E+03 E0= -.94110031E+03  EK= 0.56247E+01 SP= 0.00E+00 SK= 0.00E+00
       N       E                     dE             d eps       ncg     rms          rms(c)
DAV:   1    -0.924595274183E+03    0.51258E+01   -0.23966E+03 16238   0.958E+01
DAV:   2    -0.931095648539E+03   -0.65004E+01   -0.64988E+01 19164   0.144E+01
DAV:   3    -0.931160115589E+03   -0.64467E-01   -0.64463E-01 19500   0.148E+00
DAV:   4    -0.931161526671E+03   -0.14111E-02   -0.14110E-02 19156   0.212E-01    0.963E+00
DAV:   5    -0.930148405710E+03    0.10131E+01   -0.20092E+00 20148   0.368E+00    0.517E+00
DAV:   6    -0.930034051809E+03    0.11435E+00   -0.14246E+00 19540   0.273E+00    0.165E+00
DAV:   7    -0.930041874285E+03   -0.78225E-02   -0.29048E-01 19020   0.140E+00    0.615E-01
DAV:   8    -0.930035679973E+03    0.61943E-02   -0.35388E-02 18740   0.466E-01    0.313E-01
DAV:   9    -0.930030031792E+03    0.56482E-02   -0.11804E-02 18476   0.273E-01    0.152E-01
DAV:  10    -0.930027723358E+03    0.23084E-02   -0.26808E-03 21660   0.198E-01    0.729E-02
DAV:  11    -0.930026734125E+03    0.98923E-03   -0.21031E-03 18756   0.145E-01    0.648E-02
DAV:  12    -0.930026141122E+03    0.59300E-03   -0.55553E-04 18860   0.980E-02    0.296E-02
DAV:  13    -0.930025860662E+03    0.28046E-03   -0.30151E-04 15692   0.846E-02    0.274E-02
DAV:  14    -0.930025836562E+03    0.24100E-04   -0.32435E-04 18156   0.499E-02
    925 T=   218. E= -.93556416E+03 F= -.94104776E+03 E0= -.94104776E+03  EK= 0.54836E+01 SP= 0.00E+00 SK= 0.00E+00
    926 T=   223. E= -.93555319E+03 F= -.94117307E+03 E0= -.94117307E+03  EK= 0.56199E+01 SP= 0.00E+00 SK= 0.00E+00
    927 T=   238. E= -.93541481E+03 F= -.94140136E+03 E0= -.94140136E+03  EK= 0.59865E+01 SP= 0.00E+00 SK= 0.00E+00
    928 T=   250. E= -.93531958E+03 F= -.94161776E+03 E0= -.94161776E+03  EK= 0.62982E+01 SP= 0.00E+00 SK= 0.00E+00
    929 T=   250. E= -.93535809E+03 F= -.94166266E+03 E0= -.94166266E+03  EK= 0.63046E+01 SP= 0.00E+00 SK= 0.00E+00
    930 T=   243. E= -.93544392E+03 F= -.94156800E+03 E0= -.94156800E+03  EK= 0.61241E+01 SP= 0.00E+00 SK= 0.00E+00
    931 T=   240. E= -.93538137E+03 F= -.94142668E+03 E0= -.94142668E+03  EK= 0.60453E+01 SP= 0.00E+00 SK= 0.00E+00
    932 T=   236. E= -.93535104E+03 F= -.94129989E+03 E0= -.94129989E+03  EK= 0.59488E+01 SP= 0.00E+00 SK= 0.00E+00
    933 T=   231. E= -.93536615E+03 F= -.94118951E+03 E0= -.94118951E+03  EK= 0.58234E+01 SP= 0.00E+00 SK= 0.00E+00
    934 T=   232. E= -.93530510E+03 F= -.94115580E+03 E0= -.94115580E+03  EK= 0.58507E+01 SP= 0.00E+00 SK= 0.00E+00
    935 T=   234. E= -.93526132E+03 F= -.94116173E+03 E0= -.94116173E+03  EK= 0.59004E+01 SP= 0.00E+00 SK= 0.00E+00
    936 T=   235. E= -.93523485E+03 F= -.94115950E+03 E0= -.94115950E+03  EK= 0.59246E+01 SP= 0.00E+00 SK= 0.00E+00
    937 T=   236. E= -.93520843E+03 F= -.94115596E+03 E0= -.94115596E+03  EK= 0.59475E+01 SP= 0.00E+00 SK= 0.00E+00
    938 T=   238. E= -.93519289E+03 F= -.94118547E+03 E0= -.94118547E+03  EK= 0.59926E+01 SP= 0.00E+00 SK= 0.00E+00
    939 T=   236. E= -.93530205E+03 F= -.94125218E+03 E0= -.94125218E+03  EK= 0.59501E+01 SP= 0.00E+00 SK= 0.00E+00
    940 T=   233. E= -.93542731E+03 F= -.94129164E+03 E0= -.94129164E+03  EK= 0.58643E+01 SP= 0.00E+00 SK= 0.00E+00
    941 T=   231. E= -.93546228E+03 F= -.94129322E+03 E0= -.94129322E+03  EK= 0.58309E+01 SP= 0.00E+00 SK= 0.00E+00
    942 T=   230. E= -.93545676E+03 F= -.94124935E+03 E0= -.94124935E+03  EK= 0.57926E+01 SP= 0.00E+00 SK= 0.00E+00
    943 T=   229. E= -.93541141E+03 F= -.94117285E+03 E0= -.94117285E+03  EK= 0.57614E+01 SP= 0.00E+00 SK= 0.00E+00
    944 T=   227. E= -.93541668E+03 F= -.94114025E+03 E0= -.94114025E+03  EK= 0.57236E+01 SP= 0.00E+00 SK= 0.00E+00
    945 T=   228. E= -.93541639E+03 F= -.94115781E+03 E0= -.94115781E+03  EK= 0.57414E+01 SP= 0.00E+00 SK= 0.00E+00
    946 T=   232. E= -.93537351E+03 F= -.94121118E+03 E0= -.94121118E+03  EK= 0.58377E+01 SP= 0.00E+00 SK= 0.00E+00
    947 T=   236. E= -.93531214E+03 F= -.94127205E+03 E0= -.94127205E+03  EK= 0.59599E+01 SP= 0.00E+00 SK= 0.00E+00
    948 T=   239. E= -.93527121E+03 F= -.94129920E+03 E0= -.94129920E+03  EK= 0.60280E+01 SP= 0.00E+00 SK= 0.00E+00
    949 T=   236. E= -.93531557E+03 F= -.94126917E+03 E0= -.94126917E+03  EK= 0.59536E+01 SP= 0.00E+00 SK= 0.00E+00
    950 T=   233. E= -.93536997E+03 F= -.94123826E+03 E0= -.94123826E+03  EK= 0.58683E+01 SP= 0.00E+00 SK= 0.00E+00
    951 T=   232. E= -.93534670E+03 F= -.94119931E+03 E0= -.94119931E+03  EK= 0.58526E+01 SP= 0.00E+00 SK= 0.00E+00
    952 T=   231. E= -.93532736E+03 F= -.94115928E+03 E0= -.94115928E+03  EK= 0.58319E+01 SP= 0.00E+00 SK= 0.00E+00
    953 T=   231. E= -.93530302E+03 F= -.94112784E+03 E0= -.94112784E+03  EK= 0.58248E+01 SP= 0.00E+00 SK= 0.00E+00
    954 T=   233. E= -.93524992E+03 F= -.94111853E+03 E0= -.94111853E+03  EK= 0.58686E+01 SP= 0.00E+00 SK= 0.00E+00
    955 T=   237. E= -.93519617E+03 F= -.94116694E+03 E0= -.94116694E+03  EK= 0.59708E+01 SP= 0.00E+00 SK= 0.00E+00
    956 T=   242. E= -.93521534E+03 F= -.94130990E+03 E0= -.94130990E+03  EK= 0.60946E+01 SP= 0.00E+00 SK= 0.00E+00
    957 T=   248. E= -.93520855E+03 F= -.94145465E+03 E0= -.94145465E+03  EK= 0.62461E+01 SP= 0.00E+00 SK= 0.00E+00
    958 T=   252. E= -.93517369E+03 F= -.94153162E+03 E0= -.94153162E+03  EK= 0.63579E+01 SP= 0.00E+00 SK= 0.00E+00
    959 T=   246. E= -.93525949E+03 F= -.94145083E+03 E0= -.94145083E+03  EK= 0.61913E+01 SP= 0.00E+00 SK= 0.00E+00
    960 T=   239. E= -.93527528E+03 F= -.94129314E+03 E0= -.94129314E+03  EK= 0.60179E+01 SP= 0.00E+00 SK= 0.00E+00
    961 T=   234. E= -.93524170E+03 F= -.94114546E+03 E0= -.94114546E+03  EK= 0.59038E+01 SP= 0.00E+00 SK= 0.00E+00
    962 T=   230. E= -.93524118E+03 F= -.94104443E+03 E0= -.94104443E+03  EK= 0.58033E+01 SP= 0.00E+00 SK= 0.00E+00
    963 T=   231. E= -.93521826E+03 F= -.94105236E+03 E0= -.94105236E+03  EK= 0.58341E+01 SP= 0.00E+00 SK= 0.00E+00
    964 T=   235. E= -.93525993E+03 F= -.94119240E+03 E0= -.94119240E+03  EK= 0.59325E+01 SP= 0.00E+00 SK= 0.00E+00
    965 T=   244. E= -.93528768E+03 F= -.94144927E+03 E0= -.94144927E+03  EK= 0.61616E+01 SP= 0.00E+00 SK= 0.00E+00
    966 T=   248. E= -.93541139E+03 F= -.94167177E+03 E0= -.94167177E+03  EK= 0.62604E+01 SP= 0.00E+00 SK= 0.00E+00
    967 T=   243. E= -.93559937E+03 F= -.94172865E+03 E0= -.94172865E+03  EK= 0.61293E+01 SP= 0.00E+00 SK= 0.00E+00
    968 T=   233. E= -.93569501E+03 F= -.94155954E+03 E0= -.94155954E+03  EK= 0.58645E+01 SP= 0.00E+00 SK= 0.00E+00
    969 T=   220. E= -.93572019E+03 F= -.94127455E+03 E0= -.94127455E+03  EK= 0.55544E+01 SP= 0.00E+00 SK= 0.00E+00
    970 T=   214. E= -.93568711E+03 F= -.94107674E+03 E0= -.94107674E+03  EK= 0.53896E+01 SP= 0.00E+00 SK= 0.00E+00
    971 T=   214. E= -.93567852E+03 F= -.94108297E+03 E0= -.94108297E+03  EK= 0.54044E+01 SP= 0.00E+00 SK= 0.00E+00
    972 T=   222. E= -.93569981E+03 F= -.94130194E+03 E0= -.94130194E+03  EK= 0.56021E+01 SP= 0.00E+00 SK= 0.00E+00
    973 T=   232. E= -.93572628E+03 F= -.94157365E+03 E0= -.94157365E+03  EK= 0.58474E+01 SP= 0.00E+00 SK= 0.00E+00
    974 T=   238. E= -.93576227E+03 F= -.94176827E+03 E0= -.94176827E+03  EK= 0.60060E+01 SP= 0.00E+00 SK= 0.00E+00
    975 T=   241. E= -.93575778E+03 F= -.94182570E+03 E0= -.94182570E+03  EK= 0.60679E+01 SP= 0.00E+00 SK= 0.00E+00
    976 T=   235. E= -.93577000E+03 F= -.94169966E+03 E0= -.94169966E+03  EK= 0.59297E+01 SP= 0.00E+00 SK= 0.00E+00
    977 T=   224. E= -.93576643E+03 F= -.94142064E+03 E0= -.94142064E+03  EK= 0.56542E+01 SP= 0.00E+00 SK= 0.00E+00
    978 T=   215. E= -.93572417E+03 F= -.94114489E+03 E0= -.94114489E+03  EK= 0.54207E+01 SP= 0.00E+00 SK= 0.00E+00
    979 T=   209. E= -.93576676E+03 F= -.94102554E+03 E0= -.94102554E+03  EK= 0.52588E+01 SP= 0.00E+00 SK= 0.00E+00
    980 T=   210. E= -.93581946E+03 F= -.94111470E+03 E0= -.94111470E+03  EK= 0.52952E+01 SP= 0.00E+00 SK= 0.00E+00
    981 T=   218. E= -.93586705E+03 F= -.94137114E+03 E0= -.94137114E+03  EK= 0.55041E+01 SP= 0.00E+00 SK= 0.00E+00
    982 T=   226. E= -.93596518E+03 F= -.94165179E+03 E0= -.94165179E+03  EK= 0.56866E+01 SP= 0.00E+00 SK= 0.00E+00
    983 T=   233. E= -.93592820E+03 F= -.94178960E+03 E0= -.94178960E+03  EK= 0.58614E+01 SP= 0.00E+00 SK= 0.00E+00
    984 T=   232. E= -.93586406E+03 F= -.94171040E+03 E0= -.94171040E+03  EK= 0.58463E+01 SP= 0.00E+00 SK= 0.00E+00
    985 T=   219. E= -.93594666E+03 F= -.94146664E+03 E0= -.94146664E+03  EK= 0.55200E+01 SP= 0.00E+00 SK= 0.00E+00
    986 T=   208. E= -.93595442E+03 F= -.94120101E+03 E0= -.94120101E+03  EK= 0.52466E+01 SP= 0.00E+00 SK= 0.00E+00
    987 T=   206. E= -.93587091E+03 F= -.94105513E+03 E0= -.94105513E+03  EK= 0.51842E+01 SP= 0.00E+00 SK= 0.00E+00
    988 T=   209. E= -.93583744E+03 F= -.94110706E+03 E0= -.94110706E+03  EK= 0.52696E+01 SP= 0.00E+00 SK= 0.00E+00
    989 T=   216. E= -.93583515E+03 F= -.94128696E+03 E0= -.94128696E+03  EK= 0.54518E+01 SP= 0.00E+00 SK= 0.00E+00
    990 T=   220. E= -.93589723E+03 F= -.94145364E+03 E0= -.94145364E+03  EK= 0.55564E+01 SP= 0.00E+00 SK= 0.00E+00
    991 T=   224. E= -.93588379E+03 F= -.94153714E+03 E0= -.94153714E+03  EK= 0.56534E+01 SP= 0.00E+00 SK= 0.00E+00
    992 T=   225. E= -.93584700E+03 F= -.94150736E+03 E0= -.94150736E+03  EK= 0.56604E+01 SP= 0.00E+00 SK= 0.00E+00
    993 T=   219. E= -.93587616E+03 F= -.94140306E+03 E0= -.94140306E+03  EK= 0.55269E+01 SP= 0.00E+00 SK= 0.00E+00
    994 T=   215. E= -.93589157E+03 F= -.94132248E+03 E0= -.94132248E+03  EK= 0.54309E+01 SP= 0.00E+00 SK= 0.00E+00
    995 T=   216. E= -.93587694E+03 F= -.94132310E+03 E0= -.94132310E+03  EK= 0.54462E+01 SP= 0.00E+00 SK= 0.00E+00
    996 T=   214. E= -.93598999E+03 F= -.94138243E+03 E0= -.94138243E+03  EK= 0.53924E+01 SP= 0.00E+00 SK= 0.00E+00
    997 T=   214. E= -.93606551E+03 F= -.94146210E+03 E0= -.94146210E+03  EK= 0.53966E+01 SP= 0.00E+00 SK= 0.00E+00
    998 T=   216. E= -.93604688E+03 F= -.94148982E+03 E0= -.94148982E+03  EK= 0.54429E+01 SP= 0.00E+00 SK= 0.00E+00
    999 T=   215. E= -.93604116E+03 F= -.94147247E+03 E0= -.94147247E+03  EK= 0.54313E+01 SP= 0.00E+00 SK= 0.00E+00
   1000 T=   214. E= -.93606262E+03 F= -.94145614E+03 E0= -.94145614E+03  EK= 0.53935E+01 SP= 0.00E+00 SK= 0.00E+00
   1001 T=   213. E= -.93608730E+03 F= -.94144783E+03 E0= -.94144783E+03  EK= 0.53605E+01 SP= 0.00E+00 SK= 0.00E+00
   1002 T=   212. E= -.93609322E+03 F= -.94143499E+03 E0= -.94143499E+03  EK= 0.53418E+01 SP= 0.00E+00 SK= 0.00E+00
   1003 T=   209. E= -.93614274E+03 F= -.94140772E+03 E0= -.94140772E+03  EK= 0.52650E+01 SP= 0.00E+00 SK= 0.00E+00
   1004 T=   211. E= -.93605393E+03 F= -.94137644E+03 E0= -.94137644E+03  EK= 0.53225E+01 SP= 0.00E+00 SK= 0.00E+00
   1005 T=   215. E= -.93594607E+03 F= -.94136813E+03 E0= -.94136813E+03  EK= 0.54221E+01 SP= 0.00E+00 SK= 0.00E+00
   1006 T=   216. E= -.93592167E+03 F= -.94135376E+03 E0= -.94135376E+03  EK= 0.54321E+01 SP= 0.00E+00 SK= 0.00E+00
   1007 T=   218. E= -.93587841E+03 F= -.94138416E+03 E0= -.94138416E+03  EK= 0.55057E+01 SP= 0.00E+00 SK= 0.00E+00
   1008 T=   222. E= -.93581875E+03 F= -.94141751E+03 E0= -.94141751E+03  EK= 0.55988E+01 SP= 0.00E+00 SK= 0.00E+00
   1009 T=   219. E= -.93586058E+03 F= -.94139021E+03 E0= -.94139021E+03  EK= 0.55296E+01 SP= 0.00E+00 SK= 0.00E+00
   1010 T=   214. E= -.93593568E+03 F= -.94132428E+03 E0= -.94132428E+03  EK= 0.53886E+01 SP= 0.00E+00 SK= 0.00E+00
   1011 T=   213. E= -.93592903E+03 F= -.94128852E+03 E0= -.94128852E+03  EK= 0.53595E+01 SP= 0.00E+00 SK= 0.00E+00
   1012 T=   213. E= -.93588190E+03 F= -.94125443E+03 E0= -.94125443E+03  EK= 0.53725E+01 SP= 0.00E+00 SK= 0.00E+00
   1013 T=   211. E= -.93588504E+03 F= -.94121130E+03 E0= -.94121130E+03  EK= 0.53263E+01 SP= 0.00E+00 SK= 0.00E+00
   1014 T=   205. E= -.93596607E+03 F= -.94114407E+03 E0= -.94114407E+03  EK= 0.51780E+01 SP= 0.00E+00 SK= 0.00E+00
   1015 T=   201. E= -.93606816E+03 F= -.94112366E+03 E0= -.94112366E+03  EK= 0.50555E+01 SP= 0.00E+00 SK= 0.00E+00
   1016 T=   199. E= -.93616461E+03 F= -.94117942E+03 E0= -.94117942E+03  EK= 0.50148E+01 SP= 0.00E+00 SK= 0.00E+00
   1017 T=   201. E= -.93622570E+03 F= -.94129608E+03 E0= -.94129608E+03  EK= 0.50704E+01 SP= 0.00E+00 SK= 0.00E+00
   1018 T=   204. E= -.93627974E+03 F= -.94141228E+03 E0= -.94141228E+03  EK= 0.51325E+01 SP= 0.00E+00 SK= 0.00E+00
   1019 T=   201. E= -.93638765E+03 F= -.94144963E+03 E0= -.94144963E+03  EK= 0.50620E+01 SP= 0.00E+00 SK= 0.00E+00
   1020 T=   197. E= -.93644510E+03 F= -.94140836E+03 E0= -.94140836E+03  EK= 0.49633E+01 SP= 0.00E+00 SK= 0.00E+00
   1021 T=   196. E= -.93641576E+03 F= -.94134585E+03 E0= -.94134585E+03  EK= 0.49301E+01 SP= 0.00E+00 SK= 0.00E+00
   1022 T=   198. E= -.93636569E+03 F= -.94135288E+03 E0= -.94135288E+03  EK= 0.49872E+01 SP= 0.00E+00 SK= 0.00E+00
   1023 T=   200. E= -.93641779E+03 F= -.94145882E+03 E0= -.94145882E+03  EK= 0.50410E+01 SP= 0.00E+00 SK= 0.00E+00
   1024 T=   203. E= -.93645549E+03 F= -.94157179E+03 E0= -.94157179E+03  EK= 0.51163E+01 SP= 0.00E+00 SK= 0.00E+00
   1025 T=   206. E= -.93641591E+03 F= -.94161216E+03 E0= -.94161216E+03  EK= 0.51962E+01 SP= 0.00E+00 SK= 0.00E+00
   1026 T=   206. E= -.93639082E+03 F= -.94159282E+03 E0= -.94159282E+03  EK= 0.52020E+01 SP= 0.00E+00 SK= 0.00E+00
   1027 T=   206. E= -.93635457E+03 F= -.94155920E+03 E0= -.94155920E+03  EK= 0.52046E+01 SP= 0.00E+00 SK= 0.00E+00
   1028 T=   204. E= -.93635540E+03 F= -.94150765E+03 E0= -.94150765E+03  EK= 0.51523E+01 SP= 0.00E+00 SK= 0.00E+00
   1029 T=   203. E= -.93637680E+03 F= -.94148568E+03 E0= -.94148568E+03  EK= 0.51089E+01 SP= 0.00E+00 SK= 0.00E+00
   1030 T=   203. E= -.93639724E+03 F= -.94150560E+03 E0= -.94150560E+03  EK= 0.51084E+01 SP= 0.00E+00 SK= 0.00E+00
   1031 T=   203. E= -.93644776E+03 F= -.94157623E+03 E0= -.94157623E+03  EK= 0.51285E+01 SP= 0.00E+00 SK= 0.00E+00
   1032 T=   205. E= -.93653040E+03 F= -.94170944E+03 E0= -.94170944E+03  EK= 0.51790E+01 SP= 0.00E+00 SK= 0.00E+00
   1033 T=   207. E= -.93661487E+03 F= -.94184158E+03 E0= -.94184158E+03  EK= 0.52267E+01 SP= 0.00E+00 SK= 0.00E+00
   1034 T=   208. E= -.93667847E+03 F= -.94193008E+03 E0= -.94193008E+03  EK= 0.52516E+01 SP= 0.00E+00 SK= 0.00E+00
   1035 T=   206. E= -.93671901E+03 F= -.94192375E+03 E0= -.94192375E+03  EK= 0.52047E+01 SP= 0.00E+00 SK= 0.00E+00
   1036 T=   204. E= -.93673064E+03 F= -.94186709E+03 E0= -.94186709E+03  EK= 0.51365E+01 SP= 0.00E+00 SK= 0.00E+00
   1037 T=   203. E= -.93667342E+03 F= -.94179899E+03 E0= -.94179899E+03  EK= 0.51256E+01 SP= 0.00E+00 SK= 0.00E+00
   1038 T=   206. E= -.93661363E+03 F= -.94180457E+03 E0= -.94180457E+03  EK= 0.51909E+01 SP= 0.00E+00 SK= 0.00E+00
   1039 T=   213. E= -.93657043E+03 F= -.94194331E+03 E0= -.94194331E+03  EK= 0.53729E+01 SP= 0.00E+00 SK= 0.00E+00
   1040 T=   224. E= -.93649486E+03 F= -.94212945E+03 E0= -.94212945E+03  EK= 0.56346E+01 SP= 0.00E+00 SK= 0.00E+00
   1041 T=   229. E= -.93645767E+03 F= -.94223861E+03 E0= -.94223861E+03  EK= 0.57809E+01 SP= 0.00E+00 SK= 0.00E+00
   1042 T=   227. E= -.93650924E+03 F= -.94223451E+03 E0= -.94223451E+03  EK= 0.57253E+01 SP= 0.00E+00 SK= 0.00E+00
   1043 T=   220. E= -.93659837E+03 F= -.94213603E+03 E0= -.94213603E+03  EK= 0.55377E+01 SP= 0.00E+00 SK= 0.00E+00
   1044 T=   212. E= -.93665863E+03 F= -.94201201E+03 E0= -.94201201E+03  EK= 0.53534E+01 SP= 0.00E+00 SK= 0.00E+00
   1045 T=   211. E= -.93662019E+03 F= -.94195022E+03 E0= -.94195022E+03  EK= 0.53300E+01 SP= 0.00E+00 SK= 0.00E+00
   1046 T=   212. E= -.93662389E+03 F= -.94195509E+03 E0= -.94195509E+03  EK= 0.53312E+01 SP= 0.00E+00 SK= 0.00E+00
   1047 T=   212. E= -.93663865E+03 F= -.94198452E+03 E0= -.94198452E+03  EK= 0.53459E+01 SP= 0.00E+00 SK= 0.00E+00
   1048 T=   215. E= -.93660277E+03 F= -.94201535E+03 E0= -.94201535E+03  EK= 0.54126E+01 SP= 0.00E+00 SK= 0.00E+00
   1049 T=   216. E= -.93658639E+03 F= -.94203898E+03 E0= -.94203898E+03  EK= 0.54526E+01 SP= 0.00E+00 SK= 0.00E+00
   1050 T=   216. E= -.93658121E+03 F= -.94203460E+03 E0= -.94203460E+03  EK= 0.54534E+01 SP= 0.00E+00 SK= 0.00E+00
   1051 T=   215. E= -.93657104E+03 F= -.94200122E+03 E0= -.94200122E+03  EK= 0.54302E+01 SP= 0.00E+00 SK= 0.00E+00
   1052 T=   215. E= -.93652180E+03 F= -.94193128E+03 E0= -.94193128E+03  EK= 0.54095E+01 SP= 0.00E+00 SK= 0.00E+00
   1053 T=   214. E= -.93651745E+03 F= -.94189905E+03 E0= -.94189905E+03  EK= 0.53816E+01 SP= 0.00E+00 SK= 0.00E+00
   1054 T=   213. E= -.93652475E+03 F= -.94190192E+03 E0= -.94190192E+03  EK= 0.53772E+01 SP= 0.00E+00 SK= 0.00E+00
   1055 T=   215. E= -.93653219E+03 F= -.94194932E+03 E0= -.94194932E+03  EK= 0.54171E+01 SP= 0.00E+00 SK= 0.00E+00
   1056 T=   214. E= -.93654643E+03 F= -.94193658E+03 E0= -.94193658E+03  EK= 0.53901E+01 SP= 0.00E+00 SK= 0.00E+00
   1057 T=   211. E= -.93652837E+03 F= -.94183848E+03 E0= -.94183848E+03  EK= 0.53101E+01 SP= 0.00E+00 SK= 0.00E+00
   1058 T=   207. E= -.93647152E+03 F= -.94168025E+03 E0= -.94168025E+03  EK= 0.52087E+01 SP= 0.00E+00 SK= 0.00E+00
   1059 T=   200. E= -.93645867E+03 F= -.94149041E+03 E0= -.94149041E+03  EK= 0.50317E+01 SP= 0.00E+00 SK= 0.00E+00
   1060 T=   194. E= -.93646236E+03 F= -.94134997E+03 E0= -.94134997E+03  EK= 0.48876E+01 SP= 0.00E+00 SK= 0.00E+00
   1061 T=   194. E= -.93639976E+03 F= -.94129871E+03 E0= -.94129871E+03  EK= 0.48990E+01 SP= 0.00E+00 SK= 0.00E+00
   1062 T=   197. E= -.93633991E+03 F= -.94131690E+03 E0= -.94131690E+03  EK= 0.49770E+01 SP= 0.00E+00 SK= 0.00E+00
   1063 T=   199. E= -.93631346E+03 F= -.94132393E+03 E0= -.94132393E+03  EK= 0.50105E+01 SP= 0.00E+00 SK= 0.00E+00
   1064 T=   199. E= -.93629367E+03 F= -.94131318E+03 E0= -.94131318E+03  EK= 0.50195E+01 SP= 0.00E+00 SK= 0.00E+00
   1065 T=   197. E= -.93631937E+03 F= -.94128827E+03 E0= -.94128827E+03  EK= 0.49689E+01 SP= 0.00E+00 SK= 0.00E+00
   1066 T=   196. E= -.93633554E+03 F= -.94127759E+03 E0= -.94127759E+03  EK= 0.49421E+01 SP= 0.00E+00 SK= 0.00E+00
   1067 T=   198. E= -.93624148E+03 F= -.94124449E+03 E0= -.94124449E+03  EK= 0.50030E+01 SP= 0.00E+00 SK= 0.00E+00
   1068 T=   200. E= -.93615425E+03 F= -.94120750E+03 E0= -.94120750E+03  EK= 0.50532E+01 SP= 0.00E+00 SK= 0.00E+00
   1069 T=   203. E= -.93608910E+03 F= -.94120202E+03 E0= -.94120202E+03  EK= 0.51129E+01 SP= 0.00E+00 SK= 0.00E+00
   1070 T=   207. E= -.93602875E+03 F= -.94124011E+03 E0= -.94124011E+03  EK= 0.52114E+01 SP= 0.00E+00 SK= 0.00E+00
   1071 T=   210. E= -.93606948E+03 F= -.94135174E+03 E0= -.94135174E+03  EK= 0.52823E+01 SP= 0.00E+00 SK= 0.00E+00
   1072 T=   212. E= -.93615478E+03 F= -.94148666E+03 E0= -.94148666E+03  EK= 0.53319E+01 SP= 0.00E+00 SK= 0.00E+00
   1073 T=   216. E= -.93613024E+03 F= -.94157907E+03 E0= -.94157907E+03  EK= 0.54488E+01 SP= 0.00E+00 SK= 0.00E+00
   1074 T=   222. E= -.93599777E+03 F= -.94158149E+03 E0= -.94158149E+03  EK= 0.55837E+01 SP= 0.00E+00 SK= 0.00E+00
       N       E                     dE             d eps       ncg     rms          rms(c)
DAV:   1    -0.469075444977E+03    0.46095E+03   -0.44125E+04 16238   0.382E+02
DAV:   2    -0.931960598969E+03   -0.46289E+03   -0.45773E+03 18534   0.110E+02
DAV:   3    -0.943214215179E+03   -0.11254E+02   -0.11243E+02 18836   0.193E+01
DAV:   4    -0.943396098460E+03   -0.18188E+00   -0.18185E+00 19332   0.231E+00    0.340E+01
DAV:   5    -0.930557331320E+03    0.12839E+02   -0.27042E+01 18812   0.113E+01    0.188E+01
DAV:   6    -0.929947581505E+03    0.60975E+00   -0.16594E+01 19452   0.856E+00    0.637E+00
DAV:   7    -0.930494436895E+03   -0.54686E+00   -0.30864E+00 18668   0.418E+00    0.222E+00
DAV:   8    -0.930513773742E+03   -0.19337E-01   -0.35318E-01 18852   0.138E+00    0.102E+00
DAV:   9    -0.930507267572E+03    0.65062E-02   -0.89443E-02 18604   0.688E-01    0.389E-01
DAV:  10    -0.930502978703E+03    0.42889E-02   -0.14401E-02 20588   0.382E-01    0.176E-01
DAV:  11    -0.930501176770E+03    0.18019E-02   -0.97599E-03 18820   0.255E-01    0.132E-01
DAV:  12    -0.930499396521E+03    0.17802E-02   -0.15826E-03 19908   0.163E-01    0.518E-02
DAV:  13    -0.930498030544E+03    0.13660E-02   -0.11990E-03 17628   0.198E-01    0.609E-02
DAV:  14    -0.930497907984E+03    0.12256E-03   -0.14744E-03 19580   0.104E-01    0.407E-02
DAV:  15    -0.930497885938E+03    0.22046E-04   -0.27228E-04 15660   0.345E-02
   1075 T=   225. E= -.93587522E+03 F= -.94154500E+03 E0= -.94154500E+03  EK= 0.56698E+01 SP= 0.00E+00 SK= 0.00E+00
   1076 T=   225. E= -.93584188E+03 F= -.94151146E+03 E0= -.94151146E+03  EK= 0.56696E+01 SP= 0.00E+00 SK= 0.00E+00
   1077 T=   222. E= -.93591348E+03 F= -.94150957E+03 E0= -.94150957E+03  EK= 0.55961E+01 SP= 0.00E+00 SK= 0.00E+00
   1078 T=   219. E= -.93599513E+03 F= -.94150771E+03 E0= -.94150771E+03  EK= 0.55126E+01 SP= 0.00E+00 SK= 0.00E+00
   1079 T=   218. E= -.93600049E+03 F= -.94150192E+03 E0= -.94150192E+03  EK= 0.55014E+01 SP= 0.00E+00 SK= 0.00E+00
   1080 T=   217. E= -.93604086E+03 F= -.94149991E+03 E0= -.94149991E+03  EK= 0.54590E+01 SP= 0.00E+00 SK= 0.00E+00
   1081 T=   217. E= -.93604501E+03 F= -.94152576E+03 E0= -.94152576E+03  EK= 0.54808E+01 SP= 0.00E+00 SK= 0.00E+00
   1082 T=   221. E= -.93602108E+03 F= -.94158261E+03 E0= -.94158261E+03  EK= 0.55615E+01 SP= 0.00E+00 SK= 0.00E+00
   1083 T=   225. E= -.93599219E+03 F= -.94166272E+03 E0= -.94166272E+03  EK= 0.56705E+01 SP= 0.00E+00 SK= 0.00E+00
   1084 T=   226. E= -.93604935E+03 F= -.94174444E+03 E0= -.94174444E+03  EK= 0.56951E+01 SP= 0.00E+00 SK= 0.00E+00
       N       E                     dE             d eps       ncg     rms          rms(c)
DAV:   1    -0.925256757217E+03    0.52412E+01   -0.25202E+03 16238   0.979E+01
DAV:   2    -0.931683764327E+03   -0.64270E+01   -0.64255E+01 19100   0.142E+01
DAV:   3    -0.931748907745E+03   -0.65143E-01   -0.65140E-01 19492   0.148E+00
DAV:   4    -0.931750356411E+03   -0.14487E-02   -0.14486E-02 19140   0.213E-01    0.960E+00
DAV:   5    -0.930792230769E+03    0.95813E+00   -0.18912E+00 20644   0.370E+00    0.521E+00
DAV:   6    -0.930688297371E+03    0.10393E+00   -0.14275E+00 19524   0.273E+00    0.158E+00
DAV:   7    -0.930698555652E+03   -0.10258E-01   -0.27239E-01 18708   0.133E+00    0.587E-01
DAV:   8    -0.930693623396E+03    0.49323E-02   -0.29506E-02 19060   0.414E-01    0.341E-01
DAV:   9    -0.930688900805E+03    0.47226E-02   -0.16569E-02 18292   0.328E-01    0.194E-01
DAV:  10    -0.930686663218E+03    0.22376E-02   -0.32528E-03 21892   0.214E-01    0.850E-02
DAV:  11    -0.930685881556E+03    0.78166E-03   -0.27264E-03 18852   0.153E-01    0.651E-02
DAV:  12    -0.930685345267E+03    0.53629E-03   -0.62349E-04 19260   0.108E-01    0.292E-02
DAV:  13    -0.930685108163E+03    0.23710E-03   -0.28083E-04 15332   0.802E-02    0.218E-02
DAV:  14    -0.930685054519E+03    0.53643E-04   -0.20980E-04 14508   0.579E-02
   1085 T=   228. E= -.93599185E+03 F= -.94173067E+03 E0= -.94173067E+03  EK= 0.57388E+01 SP= 0.00E+00 SK= 0.00E+00
   1086 T=   230. E= -.93598907E+03 F= -.94178878E+03 E0= -.94178878E+03  EK= 0.57997E+01 SP= 0.00E+00 SK= 0.00E+00
   1087 T=   227. E= -.93601394E+03 F= -.94174213E+03 E0= -.94174213E+03  EK= 0.57282E+01 SP= 0.00E+00 SK= 0.00E+00
   1088 T=   223. E= -.93602804E+03 F= -.94166016E+03 E0= -.94166016E+03  EK= 0.56321E+01 SP= 0.00E+00 SK= 0.00E+00
   1089 T=   223. E= -.93597955E+03 F= -.94159165E+03 E0= -.94159165E+03  EK= 0.56121E+01 SP= 0.00E+00 SK= 0.00E+00
   1090 T=   223. E= -.93593523E+03 F= -.94155444E+03 E0= -.94155444E+03  EK= 0.56192E+01 SP= 0.00E+00 SK= 0.00E+00
   1091 T=   223. E= -.93594131E+03 F= -.94155656E+03 E0= -.94155656E+03  EK= 0.56152E+01 SP= 0.00E+00 SK= 0.00E+00
   1092 T=   224. E= -.93592400E+03 F= -.94157879E+03 E0= -.94157879E+03  EK= 0.56548E+01 SP= 0.00E+00 SK= 0.00E+00
   1093 T=   225. E= -.93589608E+03 F= -.94155557E+03 E0= -.94155557E+03  EK= 0.56595E+01 SP= 0.00E+00 SK= 0.00E+00
   1094 T=   223. E= -.93582556E+03 F= -.94145370E+03 E0= -.94145370E+03  EK= 0.56281E+01 SP= 0.00E+00 SK= 0.00E+00
       N       E                     dE             d eps       ncg     rms          rms(c)
DAV:   1    -0.924267650876E+03    0.64175E+01   -0.25891E+03 16238   0.992E+01
DAV:   2    -0.931126553690E+03   -0.68589E+01   -0.68574E+01 19052   0.147E+01
DAV:   3    -0.931196761005E+03   -0.70207E-01   -0.70204E-01 19484   0.154E+00
DAV:   4    -0.931198325104E+03   -0.15641E-02   -0.15641E-02 19092   0.221E-01    0.959E+00
DAV:   5    -0.930270959480E+03    0.92737E+00   -0.17711E+00 20724   0.361E+00    0.521E+00
DAV:   6    -0.930178203257E+03    0.92756E-01   -0.14798E+00 19564   0.281E+00    0.155E+00
DAV:   7    -0.930189011380E+03   -0.10808E-01   -0.28619E-01 18612   0.139E+00    0.582E-01
DAV:   8    -0.930184669783E+03    0.43416E-02   -0.32220E-02 18748   0.449E-01    0.305E-01
DAV:   9    -0.930181525524E+03    0.31443E-02   -0.15182E-02 18252   0.290E-01    0.191E-01
DAV:  10    -0.930179542382E+03    0.19831E-02   -0.33633E-03 22396   0.213E-01    0.567E-02
DAV:  11    -0.930179020684E+03    0.52170E-03   -0.17703E-03 18660   0.118E-01    0.551E-02
DAV:  12    -0.930178602272E+03    0.41841E-03   -0.38492E-04 17044   0.837E-02    0.225E-02
DAV:  13    -0.930178445159E+03    0.15711E-03   -0.21500E-04 13908   0.702E-02    0.267E-02
DAV:  14    -0.930178425188E+03    0.19970E-04   -0.21951E-04 14748   0.442E-02
   1095 T=   219. E= -.93571538E+03 F= -.94122818E+03 E0= -.94122818E+03  EK= 0.55128E+01 SP= 0.00E+00 SK= 0.00E+00
   1096 T=   213. E= -.93575382E+03 F= -.94111958E+03 E0= -.94111958E+03  EK= 0.53658E+01 SP= 0.00E+00 SK= 0.00E+00
   1097 T=   205. E= -.93582328E+03 F= -.94099430E+03 E0= -.94099430E+03  EK= 0.51710E+01 SP= 0.00E+00 SK= 0.00E+00
   1098 T=   204. E= -.93584754E+03 F= -.94098501E+03 E0= -.94098501E+03  EK= 0.51375E+01 SP= 0.00E+00 SK= 0.00E+00
   1099 T=   207. E= -.93583393E+03 F= -.94104411E+03 E0= -.94104411E+03  EK= 0.52102E+01 SP= 0.00E+00 SK= 0.00E+00
   1100 T=   210. E= -.93585910E+03 F= -.94114467E+03 E0= -.94114467E+03  EK= 0.52856E+01 SP= 0.00E+00 SK= 0.00E+00
   1101 T=   215. E= -.93580409E+03 F= -.94121957E+03 E0= -.94121957E+03  EK= 0.54155E+01 SP= 0.00E+00 SK= 0.00E+00
   1102 T=   218. E= -.93574873E+03 F= -.94124351E+03 E0= -.94124351E+03  EK= 0.54948E+01 SP= 0.00E+00 SK= 0.00E+00
   1103 T=   213. E= -.93579194E+03 F= -.94116565E+03 E0= -.94116565E+03  EK= 0.53737E+01 SP= 0.00E+00 SK= 0.00E+00
   1104 T=   206. E= -.93581726E+03 F= -.94100033E+03 E0= -.94100033E+03  EK= 0.51831E+01 SP= 0.00E+00 SK= 0.00E+00
       N       E                     dE             d eps       ncg     rms          rms(c)
DAV:   1    -0.924735131022E+03    0.54433E+01   -0.22444E+03 16238   0.921E+01
DAV:   2    -0.930715070673E+03   -0.59799E+01   -0.59785E+01 19100   0.138E+01
DAV:   3    -0.930776518669E+03   -0.61448E-01   -0.61445E-01 19484   0.143E+00
DAV:   4    -0.930777940558E+03   -0.14219E-02   -0.14218E-02 19156   0.207E-01    0.911E+00
DAV:   5    -0.929937169021E+03    0.84077E+00   -0.16690E+00 20444   0.345E+00    0.496E+00
DAV:   6    -0.929850773008E+03    0.86396E-01   -0.13610E+00 19532   0.267E+00    0.150E+00
DAV:   7    -0.929857917002E+03   -0.71440E-02   -0.25613E-01 18708   0.129E+00    0.558E-01
DAV:   8    -0.929853142111E+03    0.47749E-02   -0.27658E-02 18884   0.419E-01    0.292E-01
DAV:   9    -0.929849259139E+03    0.38830E-02   -0.13899E-02 18220   0.289E-01    0.180E-01
DAV:  10    -0.929847083579E+03    0.21756E-02   -0.31707E-03 22116   0.199E-01    0.606E-02
DAV:  11    -0.929846349745E+03    0.73383E-03   -0.16549E-03 18564   0.114E-01    0.537E-02
DAV:  12    -0.929845780134E+03    0.56961E-03   -0.35942E-04 15532   0.900E-02    0.230E-02
DAV:  13    -0.929845636963E+03    0.14317E-03   -0.42889E-04 17212   0.695E-02    0.310E-02
DAV:  14    -0.929845609399E+03    0.27564E-04   -0.16711E-04 13716   0.373E-02
   1105 T=   200. E= -.93584785E+03 F= -.94089813E+03 E0= -.94089813E+03  EK= 0.50503E+01 SP= 0.00E+00 SK= 0.00E+00
   1106 T=   200. E= -.93585194E+03 F= -.94089831E+03 E0= -.94089831E+03  EK= 0.50464E+01 SP= 0.00E+00 SK= 0.00E+00
   1107 T=   204. E= -.93587554E+03 F= -.94102169E+03 E0= -.94102169E+03  EK= 0.51462E+01 SP= 0.00E+00 SK= 0.00E+00
   1108 T=   211. E= -.93589732E+03 F= -.94121108E+03 E0= -.94121108E+03  EK= 0.53138E+01 SP= 0.00E+00 SK= 0.00E+00
   1109 T=   215. E= -.93586395E+03 F= -.94129500E+03 E0= -.94129500E+03  EK= 0.54310E+01 SP= 0.00E+00 SK= 0.00E+00
   1110 T=   214. E= -.93582847E+03 F= -.94122618E+03 E0= -.94122618E+03  EK= 0.53977E+01 SP= 0.00E+00 SK= 0.00E+00
   1111 T=   208. E= -.93584179E+03 F= -.94107298E+03 E0= -.94107298E+03  EK= 0.52312E+01 SP= 0.00E+00 SK= 0.00E+00
   1112 T=   203. E= -.93585508E+03 F= -.94096659E+03 E0= -.94096659E+03  EK= 0.51115E+01 SP= 0.00E+00 SK= 0.00E+00
   1113 T=   202. E= -.93584657E+03 F= -.94094146E+03 E0= -.94094146E+03  EK= 0.50949E+01 SP= 0.00E+00 SK= 0.00E+00
   1114 T=   205. E= -.93584710E+03 F= -.94101065E+03 E0= -.94101065E+03  EK= 0.51636E+01 SP= 0.00E+00 SK= 0.00E+00
       N       E                     dE             d eps       ncg     rms          rms(c)
DAV:   1    -0.924804619347E+03    0.50410E+01   -0.22346E+03 16238   0.923E+01
DAV:   2    -0.930967888166E+03   -0.61633E+01   -0.61617E+01 19244   0.139E+01
DAV:   3    -0.931029568509E+03   -0.61680E-01   -0.61677E-01 19484   0.145E+00
DAV:   4    -0.931030953611E+03   -0.13851E-02   -0.13851E-02 19212   0.208E-01    0.926E+00
DAV:   5    -0.930120363670E+03    0.91059E+00   -0.18581E+00 20420   0.362E+00    0.496E+00
DAV:   6    -0.930045251018E+03    0.75113E-01   -0.13597E+00 19572   0.264E+00    0.156E+00
DAV:   7    -0.930061209319E+03   -0.15958E-01   -0.26863E-01 18972   0.132E+00    0.587E-01
DAV:   8    -0.930057060731E+03    0.41486E-02   -0.29100E-02 18852   0.439E-01    0.294E-01
DAV:   9    -0.930053657936E+03    0.34028E-02   -0.11975E-02 18404   0.270E-01    0.162E-01
DAV:  10    -0.930051804239E+03    0.18537E-02   -0.31162E-03 22228   0.206E-01    0.529E-02
DAV:  11    -0.930051227509E+03    0.57673E-03   -0.14590E-03 18796   0.110E-01    0.528E-02
DAV:  12    -0.930050684593E+03    0.54292E-03   -0.29610E-04 15636   0.964E-02    0.201E-02
DAV:  13    -0.930050528680E+03    0.15591E-03   -0.43170E-04 17564   0.855E-02    0.326E-02
DAV:  14    -0.930050519556E+03    0.91239E-05   -0.35468E-04 18700   0.460E-02
   1115 T=   209. E= -.93581596E+03 F= -.94108648E+03 E0= -.94108648E+03  EK= 0.52705E+01 SP= 0.00E+00 SK= 0.00E+00
   1116 T=   216. E= -.93581172E+03 F= -.94126545E+03 E0= -.94126545E+03  EK= 0.54537E+01 SP= 0.00E+00 SK= 0.00E+00
   1117 T=   224. E= -.93573450E+03 F= -.94139038E+03 E0= -.94139038E+03  EK= 0.56559E+01 SP= 0.00E+00 SK= 0.00E+00
   1118 T=   228. E= -.93571779E+03 F= -.94147265E+03 E0= -.94147265E+03  EK= 0.57549E+01 SP= 0.00E+00 SK= 0.00E+00
   1119 T=   228. E= -.93571562E+03 F= -.94147081E+03 E0= -.94147081E+03  EK= 0.57552E+01 SP= 0.00E+00 SK= 0.00E+00
   1120 T=   227. E= -.93569072E+03 F= -.94140541E+03 E0= -.94140541E+03  EK= 0.57147E+01 SP= 0.00E+00 SK= 0.00E+00
   1121 T=   224. E= -.93572423E+03 F= -.94136053E+03 E0= -.94136053E+03  EK= 0.56363E+01 SP= 0.00E+00 SK= 0.00E+00
   1122 T=   223. E= -.93578718E+03 F= -.94139829E+03 E0= -.94139829E+03  EK= 0.56111E+01 SP= 0.00E+00 SK= 0.00E+00
   1123 T=   225. E= -.93582894E+03 F= -.94150394E+03 E0= -.94150394E+03  EK= 0.56750E+01 SP= 0.00E+00 SK= 0.00E+00
   1124 T=   226. E= -.93589469E+03 F= -.94160056E+03 E0= -.94160056E+03  EK= 0.57059E+01 SP= 0.00E+00 SK= 0.00E+00
       N       E                     dE             d eps       ncg     rms          rms(c)
DAV:   1    -0.924960441945E+03    0.50901E+01   -0.23988E+03 16238   0.958E+01
DAV:   2    -0.931500328678E+03   -0.65399E+01   -0.65382E+01 19108   0.143E+01
DAV:   3    -0.931567750700E+03   -0.67422E-01   -0.67418E-01 19492   0.150E+00
DAV:   4    -0.931569260863E+03   -0.15102E-02   -0.15101E-02 19172   0.215E-01    0.947E+00
DAV:   5    -0.930619340398E+03    0.94992E+00   -0.20506E+00 20620   0.377E+00    0.506E+00
DAV:   6    -0.930537473846E+03    0.81867E-01   -0.12853E+00 19428   0.259E+00    0.170E+00
DAV:   7    -0.930550981220E+03   -0.13507E-01   -0.27990E-01 19052   0.134E+00    0.599E-01
DAV:   8    -0.930544766183E+03    0.62150E-02   -0.32409E-02 19636   0.483E-01    0.286E-01
DAV:   9    -0.930540482785E+03    0.42834E-02   -0.10353E-02 18076   0.243E-01    0.132E-01
DAV:  10    -0.930538863111E+03    0.16197E-02   -0.22989E-03 21596   0.172E-01    0.551E-02
DAV:  11    -0.930538242323E+03    0.62079E-03   -0.11239E-03 18716   0.100E-01    0.503E-02
DAV:  12    -0.930537747893E+03    0.49443E-03   -0.22714E-04 14428   0.866E-02    0.194E-02
DAV:  13    -0.930537622856E+03    0.12504E-03   -0.40053E-04 17524   0.736E-02    0.289E-02
DAV:  14    -0.930537609745E+03    0.13111E-04   -0.23537E-04 15452   0.384E-02
   1125 T=   224. E= -.93592808E+03 F= -.94157457E+03 E0= -.94157457E+03  EK= 0.56465E+01 SP= 0.00E+00 SK= 0.00E+00
   1126 T=   220. E= -.93594860E+03 F= -.94150577E+03 E0= -.94150577E+03  EK= 0.55572E+01 SP= 0.00E+00 SK= 0.00E+00
   1127 T=   215. E= -.93593530E+03 F= -.94136564E+03 E0= -.94136564E+03  EK= 0.54303E+01 SP= 0.00E+00 SK= 0.00E+00
   1128 T=   210. E= -.93598249E+03 F= -.94128292E+03 E0= -.94128292E+03  EK= 0.53004E+01 SP= 0.00E+00 SK= 0.00E+00
   1129 T=   211. E= -.93597350E+03 F= -.94128871E+03 E0= -.94128871E+03  EK= 0.53152E+01 SP= 0.00E+00 SK= 0.00E+00
   1130 T=   219. E= -.93588141E+03 F= -.94141214E+03 E0= -.94141214E+03  EK= 0.55307E+01 SP= 0.00E+00 SK= 0.00E+00
   1131 T=   227. E= -.93580202E+03 F= -.94152620E+03 E0= -.94152620E+03  EK= 0.57242E+01 SP= 0.00E+00 SK= 0.00E+00
   1132 T=   228. E= -.93578306E+03 F= -.94153325E+03 E0= -.94153325E+03  EK= 0.57502E+01 SP= 0.00E+00 SK= 0.00E+00
   1133 T=   225. E= -.93579110E+03 F= -.94146351E+03 E0= -.94146351E+03  EK= 0.56724E+01 SP= 0.00E+00 SK= 0.00E+00
   1134 T=   217. E= -.93589179E+03 F= -.94135593E+03 E0= -.94135593E+03  EK= 0.54641E+01 SP= 0.00E+00 SK= 0.00E+00
       N       E                     dE             d eps       ncg     rms          rms(c)
DAV:   1    -0.924307227342E+03    0.62304E+01   -0.25506E+03 16238   0.987E+01
DAV:   2    -0.931029627194E+03   -0.67224E+01   -0.67208E+01 19124   0.146E+01
DAV:   3    -0.931098750405E+03   -0.69123E-01   -0.69119E-01 19484   0.151E+00
DAV:   4    -0.931100341979E+03   -0.15916E-02   -0.15915E-02 19180   0.218E-01    0.940E+00
DAV:   5    -0.930212925657E+03    0.88742E+00   -0.17568E+00 20220   0.347E+00    0.507E+00
DAV:   6    -0.930131368952E+03    0.81557E-01   -0.13492E+00 19420   0.257E+00    0.153E+00
DAV:   7    -0.930145793949E+03   -0.14425E-01   -0.25718E-01 18596   0.132E+00    0.578E-01
DAV:   8    -0.930142496312E+03    0.32976E-02   -0.29889E-02 18716   0.454E-01    0.277E-01
DAV:   9    -0.930140315836E+03    0.21805E-02   -0.11861E-02 18268   0.239E-01    0.167E-01
DAV:  10    -0.930138849877E+03    0.14660E-02   -0.29948E-03 22556   0.192E-01    0.465E-02
DAV:  11    -0.930138540499E+03    0.30938E-03   -0.12031E-03 18724   0.878E-02    0.484E-02
DAV:  12    -0.930138167484E+03    0.37302E-03   -0.18450E-04 13684   0.678E-02    0.178E-02
DAV:  13    -0.930138077573E+03    0.89911E-04   -0.33951E-04 17132   0.635E-02
   1135 T=   207. E= -.93595169E+03 F= -.94117862E+03 E0= -.94117862E+03  EK= 0.52269E+01 SP= 0.00E+00 SK= 0.00E+00
   1136 T=   205. E= -.93596216E+03 F= -.94112424E+03 E0= -.94112424E+03  EK= 0.51621E+01 SP= 0.00E+00 SK= 0.00E+00
   1137 T=   202. E= -.93600533E+03 F= -.94110247E+03 E0= -.94110247E+03  EK= 0.50971E+01 SP= 0.00E+00 SK= 0.00E+00
   1138 T=   200. E= -.93609606E+03 F= -.94114662E+03 E0= -.94114662E+03  EK= 0.50506E+01 SP= 0.00E+00 SK= 0.00E+00
   1139 T=   202. E= -.93613504E+03 F= -.94123199E+03 E0= -.94123199E+03  EK= 0.50969E+01 SP= 0.00E+00 SK= 0.00E+00
   1140 T=   204. E= -.93615356E+03 F= -.94130548E+03 E0= -.94130548E+03  EK= 0.51519E+01 SP= 0.00E+00 SK= 0.00E+00
   1141 T=   204. E= -.93614816E+03 F= -.94130012E+03 E0= -.94130012E+03  EK= 0.51520E+01 SP= 0.00E+00 SK= 0.00E+00
   1142 T=   198. E= -.93616594E+03 F= -.94116587E+03 E0= -.94116587E+03  EK= 0.49999E+01 SP= 0.00E+00 SK= 0.00E+00
   1143 T=   191. E= -.93619214E+03 F= -.94100403E+03 E0= -.94100403E+03  EK= 0.48119E+01 SP= 0.00E+00 SK= 0.00E+00
   1144 T=   186. E= -.93618259E+03 F= -.94088133E+03 E0= -.94088133E+03  EK= 0.46987E+01 SP= 0.00E+00 SK= 0.00E+00
   1145 T=   186. E= -.93622859E+03 F= -.94090529E+03 E0= -.94090529E+03  EK= 0.46767E+01 SP= 0.00E+00 SK= 0.00E+00
       N       E                     dE             d eps       ncg     rms          rms(c)
DAV:   1    -0.924836889698E+03    0.53013E+01   -0.23251E+03 16238   0.943E+01
DAV:   2    -0.930847464240E+03   -0.60106E+01   -0.60092E+01 19124   0.138E+01
DAV:   3    -0.930910898160E+03   -0.63434E-01   -0.63430E-01 19508   0.144E+00
DAV:   4    -0.930912356253E+03   -0.14581E-02   -0.14580E-02 19140   0.208E-01    0.920E+00
DAV:   5    -0.930122224376E+03    0.79013E+00   -0.15714E+00 19756   0.334E+00    0.503E+00
DAV:   6    -0.930040237536E+03    0.81987E-01   -0.12014E+00 19396   0.254E+00    0.154E+00
DAV:   7    -0.930046365268E+03   -0.61277E-02   -0.27598E-01 19172   0.142E+00    0.591E-01
DAV:   8    -0.930041087142E+03    0.52781E-02   -0.37669E-02 18652   0.489E-01    0.303E-01
DAV:   9    -0.930037061517E+03    0.40256E-02   -0.13320E-02 18340   0.248E-01    0.166E-01
DAV:  10    -0.930035015479E+03    0.20460E-02   -0.24203E-03 22404   0.202E-01    0.610E-02
DAV:  11    -0.930034425254E+03    0.59022E-03   -0.21623E-03 18836   0.134E-01    0.683E-02
DAV:  12    -0.930033981899E+03    0.44335E-03   -0.54445E-04 18852   0.774E-02    0.245E-02
DAV:  13    -0.930033787733E+03    0.19417E-03   -0.18393E-04 13324   0.704E-02    0.301E-02
DAV:  14    -0.930033753549E+03    0.34183E-04   -0.23237E-04 15508   0.496E-02
   1146 T=   189. E= -.93629700E+03 F= -.94107243E+03 E0= -.94107243E+03  EK= 0.47754E+01 SP= 0.00E+00 SK= 0.00E+00
   1147 T=   197. E= -.93630011E+03 F= -.94127568E+03 E0= -.94127568E+03  EK= 0.49756E+01 SP= 0.00E+00 SK= 0.00E+00
   1148 T=   205. E= -.93627936E+03 F= -.94144589E+03 E0= -.94144589E+03  EK= 0.51665E+01 SP= 0.00E+00 SK= 0.00E+00
   1149 T=   209. E= -.93623223E+03 F= -.94149124E+03 E0= -.94149124E+03  EK= 0.52590E+01 SP= 0.00E+00 SK= 0.00E+00
   1150 T=   206. E= -.93621190E+03 F= -.94141227E+03 E0= -.94141227E+03  EK= 0.52004E+01 SP= 0.00E+00 SK= 0.00E+00
   1151 T=   205. E= -.93615595E+03 F= -.94132845E+03 E0= -.94132845E+03  EK= 0.51725E+01 SP= 0.00E+00 SK= 0.00E+00
   1152 T=   205. E= -.93609512E+03 F= -.94125232E+03 E0= -.94125232E+03  EK= 0.51572E+01 SP= 0.00E+00 SK= 0.00E+00
   1153 T=   206. E= -.93609152E+03 F= -.94128427E+03 E0= -.94128427E+03  EK= 0.51928E+01 SP= 0.00E+00 SK= 0.00E+00
   1154 T=   212. E= -.93608676E+03 F= -.94142351E+03 E0= -.94142351E+03  EK= 0.53367E+01 SP= 0.00E+00 SK= 0.00E+00
   1155 T=   216. E= -.93612788E+03 F= -.94157832E+03 E0= -.94157832E+03  EK= 0.54504E+01 SP= 0.00E+00 SK= 0.00E+00
       N       E                     dE             d eps       ncg     rms          rms(c)
DAV:   1    -0.925968895132E+03    0.40649E+01   -0.22118E+03 16238   0.920E+01
DAV:   2    -0.931588909473E+03   -0.56200E+01   -0.56188E+01 19084   0.134E+01
DAV:   3    -0.931646011035E+03   -0.57102E-01   -0.57099E-01 19476   0.137E+00
DAV:   4    -0.931647299733E+03   -0.12887E-02   -0.12887E-02 19164   0.198E-01    0.910E+00
DAV:   5    -0.930766208687E+03    0.88109E+00   -0.18392E+00 20700   0.350E+00    0.484E+00
DAV:   6    -0.930671408495E+03    0.94800E-01   -0.11988E+00 19396   0.246E+00    0.158E+00
DAV:   7    -0.930680060087E+03   -0.86516E-02   -0.25795E-01 19196   0.132E+00    0.567E-01
DAV:   8    -0.930675495715E+03    0.45644E-02   -0.30660E-02 18724   0.432E-01    0.311E-01
DAV:   9    -0.930671607855E+03    0.38879E-02   -0.14499E-02 18092   0.272E-01    0.174E-01
DAV:  10    -0.930669786029E+03    0.18218E-02   -0.28863E-03 22012   0.201E-01    0.576E-02
DAV:  11    -0.930669297873E+03    0.48816E-03   -0.17760E-03 18644   0.116E-01    0.556E-02
DAV:  12    -0.930668919138E+03    0.37874E-03   -0.27791E-04 15148   0.763E-02    0.225E-02
DAV:  13    -0.930668725435E+03    0.19370E-03   -0.21854E-04 14412   0.787E-02    0.246E-02
DAV:  14    -0.930668701528E+03    0.23906E-04   -0.24768E-04 15956   0.506E-02
   1156 T=   220. E= -.93615408E+03 F= -.94170184E+03 E0= -.94170184E+03  EK= 0.55478E+01 SP= 0.00E+00 SK= 0.00E+00
   1157 T=   224. E= -.93609161E+03 F= -.94174059E+03 E0= -.94174059E+03  EK= 0.56490E+01 SP= 0.00E+00 SK= 0.00E+00
   1158 T=   221. E= -.93611575E+03 F= -.94167552E+03 E0= -.94167552E+03  EK= 0.55598E+01 SP= 0.00E+00 SK= 0.00E+00
   1159 T=   212. E= -.93620267E+03 F= -.94154575E+03 E0= -.94154575E+03  EK= 0.53431E+01 SP= 0.00E+00 SK= 0.00E+00
   1160 T=   207. E= -.93618464E+03 F= -.94139609E+03 E0= -.94139609E+03  EK= 0.52114E+01 SP= 0.00E+00 SK= 0.00E+00
   1161 T=   206. E= -.93614114E+03 F= -.94133490E+03 E0= -.94133490E+03  EK= 0.51938E+01 SP= 0.00E+00 SK= 0.00E+00
   1162 T=   209. E= -.93614804E+03 F= -.94141134E+03 E0= -.94141134E+03  EK= 0.52633E+01 SP= 0.00E+00 SK= 0.00E+00
   1163 T=   213. E= -.93614481E+03 F= -.94152364E+03 E0= -.94152364E+03  EK= 0.53788E+01 SP= 0.00E+00 SK= 0.00E+00
   1164 T=   217. E= -.93614437E+03 F= -.94161985E+03 E0= -.94161985E+03  EK= 0.54755E+01 SP= 0.00E+00 SK= 0.00E+00
   1165 T=   216. E= -.93618672E+03 F= -.94163023E+03 E0= -.94163023E+03  EK= 0.54435E+01 SP= 0.00E+00 SK= 0.00E+00
   1166 T=   211. E= -.93622250E+03 F= -.94155108E+03 E0= -.94155108E+03  EK= 0.53286E+01 SP= 0.00E+00 SK= 0.00E+00
   1167 T=   205. E= -.93627287E+03 F= -.94144885E+03 E0= -.94144885E+03  EK= 0.51760E+01 SP= 0.00E+00 SK= 0.00E+00
   1168 T=   200. E= -.93631113E+03 F= -.94135936E+03 E0= -.94135936E+03  EK= 0.50482E+01 SP= 0.00E+00 SK= 0.00E+00
   1169 T=   198. E= -.93629971E+03 F= -.94128132E+03 E0= -.94128132E+03  EK= 0.49816E+01 SP= 0.00E+00 SK= 0.00E+00
   1170 T=   197. E= -.93629653E+03 F= -.94127468E+03 E0= -.94127468E+03  EK= 0.49781E+01 SP= 0.00E+00 SK= 0.00E+00
   1171 T=   200. E= -.93624293E+03 F= -.94128165E+03 E0= -.94128165E+03  EK= 0.50387E+01 SP= 0.00E+00 SK= 0.00E+00
   1172 T=   205. E= -.93610454E+03 F= -.94127741E+03 E0= -.94127741E+03  EK= 0.51729E+01 SP= 0.00E+00 SK= 0.00E+00
   1173 T=   206. E= -.93602670E+03 F= -.94121382E+03 E0= -.94121382E+03  EK= 0.51871E+01 SP= 0.00E+00 SK= 0.00E+00
   1174 T=   204. E= -.93597790E+03 F= -.94112708E+03 E0= -.94112708E+03  EK= 0.51492E+01 SP= 0.00E+00 SK= 0.00E+00
   1175 T=   202. E= -.93597045E+03 F= -.94106001E+03 E0= -.94106001E+03  EK= 0.50896E+01 SP= 0.00E+00 SK= 0.00E+00
   1176 T=   200. E= -.93602519E+03 F= -.94107219E+03 E0= -.94107219E+03  EK= 0.50470E+01 SP= 0.00E+00 SK= 0.00E+00
   1177 T=   205. E= -.93597769E+03 F= -.94113593E+03 E0= -.94113593E+03  EK= 0.51582E+01 SP= 0.00E+00 SK= 0.00E+00
   1178 T=   210. E= -.93593228E+03 F= -.94123587E+03 E0= -.94123587E+03  EK= 0.53036E+01 SP= 0.00E+00 SK= 0.00E+00
   1179 T=   214. E= -.93596070E+03 F= -.94136226E+03 E0= -.94136226E+03  EK= 0.54016E+01 SP= 0.00E+00 SK= 0.00E+00
   1180 T=   218. E= -.93599399E+03 F= -.94148607E+03 E0= -.94148607E+03  EK= 0.54921E+01 SP= 0.00E+00 SK= 0.00E+00
   1181 T=   219. E= -.93605662E+03 F= -.94158158E+03 E0= -.94158158E+03  EK= 0.55250E+01 SP= 0.00E+00 SK= 0.00E+00
   1182 T=   216. E= -.93615416E+03 F= -.94159904E+03 E0= -.94159904E+03  EK= 0.54449E+01 SP= 0.00E+00 SK= 0.00E+00
   1183 T=   214. E= -.93616694E+03 F= -.94155816E+03 E0= -.94155816E+03  EK= 0.53912E+01 SP= 0.00E+00 SK= 0.00E+00
   1184 T=   213. E= -.93613539E+03 F= -.94150171E+03 E0= -.94150171E+03  EK= 0.53663E+01 SP= 0.00E+00 SK= 0.00E+00
   1185 T=   212. E= -.93615448E+03 F= -.94149216E+03 E0= -.94149216E+03  EK= 0.53377E+01 SP= 0.00E+00 SK= 0.00E+00
   1186 T=   212. E= -.93619777E+03 F= -.94154752E+03 E0= -.94154752E+03  EK= 0.53497E+01 SP= 0.00E+00 SK= 0.00E+00
   1187 T=   216. E= -.93621104E+03 F= -.94165544E+03 E0= -.94165544E+03  EK= 0.54444E+01 SP= 0.00E+00 SK= 0.00E+00
   1188 T=   218. E= -.93623773E+03 F= -.94173822E+03 E0= -.94173822E+03  EK= 0.55005E+01 SP= 0.00E+00 SK= 0.00E+00
   1189 T=   216. E= -.93631189E+03 F= -.94176211E+03 E0= -.94176211E+03  EK= 0.54502E+01 SP= 0.00E+00 SK= 0.00E+00
   1190 T=   212. E= -.93633786E+03 F= -.94167740E+03 E0= -.94167740E+03  EK= 0.53395E+01 SP= 0.00E+00 SK= 0.00E+00
   1191 T=   208. E= -.93629701E+03 F= -.94154693E+03 E0= -.94154693E+03  EK= 0.52499E+01 SP= 0.00E+00 SK= 0.00E+00
   1192 T=   205. E= -.93630677E+03 F= -.94146319E+03 E0= -.94146319E+03  EK= 0.51564E+01 SP= 0.00E+00 SK= 0.00E+00
   1193 T=   207. E= -.93626364E+03 F= -.94148885E+03 E0= -.94148885E+03  EK= 0.52252E+01 SP= 0.00E+00 SK= 0.00E+00
   1194 T=   217. E= -.93612547E+03 F= -.94159023E+03 E0= -.94159023E+03  EK= 0.54648E+01 SP= 0.00E+00 SK= 0.00E+00
   1195 T=   224. E= -.93606739E+03 F= -.94171635E+03 E0= -.94171635E+03  EK= 0.56490E+01 SP= 0.00E+00 SK= 0.00E+00
   1196 T=   225. E= -.93611259E+03 F= -.94177181E+03 E0= -.94177181E+03  EK= 0.56592E+01 SP= 0.00E+00 SK= 0.00E+00
   1197 T=   222. E= -.93614280E+03 F= -.94173068E+03 E0= -.94173068E+03  EK= 0.55879E+01 SP= 0.00E+00 SK= 0.00E+00
   1198 T=   217. E= -.93613504E+03 F= -.94159657E+03 E0= -.94159657E+03  EK= 0.54615E+01 SP= 0.00E+00 SK= 0.00E+00
   1199 T=   210. E= -.93617680E+03 F= -.94147484E+03 E0= -.94147484E+03  EK= 0.52980E+01 SP= 0.00E+00 SK= 0.00E+00
   1200 T=   205. E= -.93623107E+03 F= -.94140487E+03 E0= -.94140487E+03  EK= 0.51738E+01 SP= 0.00E+00 SK= 0.00E+00
   1201 T=   205. E= -.93623586E+03 F= -.94141533E+03 E0= -.94141533E+03  EK= 0.51795E+01 SP= 0.00E+00 SK= 0.00E+00
   1202 T=   210. E= -.93623642E+03 F= -.94152776E+03 E0= -.94152776E+03  EK= 0.52913E+01 SP= 0.00E+00 SK= 0.00E+00
   1203 T=   213. E= -.93627589E+03 F= -.94163687E+03 E0= -.94163687E+03  EK= 0.53610E+01 SP= 0.00E+00 SK= 0.00E+00
   1204 T=   214. E= -.93628795E+03 F= -.94169359E+03 E0= -.94169359E+03  EK= 0.54056E+01 SP= 0.00E+00 SK= 0.00E+00
   1205 T=   218. E= -.93618441E+03 F= -.94167829E+03 E0= -.94167829E+03  EK= 0.54939E+01 SP= 0.00E+00 SK= 0.00E+00
   1206 T=   217. E= -.93609564E+03 F= -.94155856E+03 E0= -.94155856E+03  EK= 0.54629E+01 SP= 0.00E+00 SK= 0.00E+00
   1207 T=   212. E= -.93605070E+03 F= -.94138525E+03 E0= -.94138525E+03  EK= 0.53345E+01 SP= 0.00E+00 SK= 0.00E+00
   1208 T=   210. E= -.93597992E+03 F= -.94126402E+03 E0= -.94126402E+03  EK= 0.52841E+01 SP= 0.00E+00 SK= 0.00E+00
       N       E                     dE             d eps       ncg     rms          rms(c)
DAV:   1    -0.793534175381E+03    0.13713E+03   -0.20693E+04 16238   0.271E+02
DAV:   2    -0.932194351964E+03   -0.13866E+03   -0.13836E+03 18604   0.613E+01
DAV:   3    -0.934273897953E+03   -0.20795E+01   -0.20791E+01 19476   0.823E+00
DAV:   4    -0.934312548217E+03   -0.38650E-01   -0.38648E-01 18852   0.110E+00    0.231E+01
DAV:   5    -0.930296742460E+03    0.40158E+01   -0.67603E+00 18372   0.632E+00    0.132E+01
DAV:   6    -0.930040934497E+03    0.25581E+00   -0.83259E+00 19516   0.651E+00    0.289E+00
DAV:   7    -0.930174315918E+03   -0.13338E+00   -0.14724E+00 18828   0.268E+00    0.145E+00
DAV:   8    -0.930168485450E+03    0.58305E-02   -0.13117E-01 18636   0.748E-01    0.705E-01
DAV:   9    -0.930162211790E+03    0.62737E-02   -0.33124E-02 18860   0.509E-01    0.307E-01
DAV:  10    -0.930158905125E+03    0.33067E-02   -0.82193E-03 20124   0.311E-01    0.119E-01
DAV:  11    -0.930158042160E+03    0.86296E-03   -0.55292E-03 19644   0.194E-01    0.915E-02
DAV:  12    -0.930157199371E+03    0.84279E-03   -0.92268E-04 18804   0.108E-01    0.397E-02
DAV:  13    -0.930156489614E+03    0.70976E-03   -0.56871E-04 17596   0.143E-01    0.483E-02
DAV:  14    -0.930156370961E+03    0.11865E-03   -0.77056E-04 19012   0.896E-02    0.269E-02
DAV:  15    -0.930156377584E+03   -0.66229E-05   -0.28110E-04 15908   0.340E-02
   1209 T=   213. E= -.93582251E+03 F= -.94119621E+03 E0= -.94119621E+03  EK= 0.53737E+01 SP= 0.00E+00 SK= 0.00E+00
   1210 T=   220. E= -.93579483E+03 F= -.94135228E+03 E0= -.94135228E+03  EK= 0.55574E+01 SP= 0.00E+00 SK= 0.00E+00
   1211 T=   222. E= -.93585332E+03 F= -.94145891E+03 E0= -.94145891E+03  EK= 0.56056E+01 SP= 0.00E+00 SK= 0.00E+00
   1212 T=   223. E= -.93586952E+03 F= -.94148014E+03 E0= -.94148014E+03  EK= 0.56106E+01 SP= 0.00E+00 SK= 0.00E+00
   1213 T=   222. E= -.93585018E+03 F= -.94144537E+03 E0= -.94144537E+03  EK= 0.55952E+01 SP= 0.00E+00 SK= 0.00E+00
   1214 T=   218. E= -.93586498E+03 F= -.94136588E+03 E0= -.94136588E+03  EK= 0.55009E+01 SP= 0.00E+00 SK= 0.00E+00
   1215 T=   216. E= -.93587693E+03 F= -.94131767E+03 E0= -.94131767E+03  EK= 0.54407E+01 SP= 0.00E+00 SK= 0.00E+00
   1216 T=   212. E= -.93593252E+03 F= -.94128094E+03 E0= -.94128094E+03  EK= 0.53484E+01 SP= 0.00E+00 SK= 0.00E+00
   1217 T=   214. E= -.93594296E+03 F= -.94132859E+03 E0= -.94132859E+03  EK= 0.53856E+01 SP= 0.00E+00 SK= 0.00E+00
   1218 T=   220. E= -.93590795E+03 F= -.94145413E+03 E0= -.94145413E+03  EK= 0.55462E+01 SP= 0.00E+00 SK= 0.00E+00
       N       E                     dE             d eps       ncg     rms          rms(c)
DAV:   1    -0.924677854459E+03    0.54785E+01   -0.25278E+03 16238   0.982E+01
DAV:   2    -0.931423379808E+03   -0.67455E+01   -0.67441E+01 19140   0.146E+01
DAV:   3    -0.931493907451E+03   -0.70528E-01   -0.70524E-01 19484   0.153E+00
DAV:   4    -0.931495510370E+03   -0.16029E-02   -0.16029E-02 19172   0.221E-01    0.953E+00
DAV:   5    -0.930570744074E+03    0.92477E+00   -0.16434E+00 20596   0.352E+00    0.521E+00
DAV:   6    -0.930464751690E+03    0.10599E+00   -0.15201E+00 19596   0.293E+00    0.148E+00
DAV:   7    -0.930477726647E+03   -0.12975E-01   -0.30274E-01 18868   0.143E+00    0.607E-01
DAV:   8    -0.930474242626E+03    0.34840E-02   -0.35470E-02 19204   0.438E-01    0.358E-01
DAV:   9    -0.930470005407E+03    0.42372E-02   -0.15922E-02 18692   0.351E-01    0.201E-01
DAV:  10    -0.930467336778E+03    0.26686E-02   -0.32102E-03 21260   0.252E-01    0.930E-02
DAV:  11    -0.930466519726E+03    0.81705E-03   -0.42974E-03 19468   0.204E-01    0.839E-02
DAV:  12    -0.930465780326E+03    0.73940E-03   -0.12686E-03 19516   0.146E-01    0.344E-02
DAV:  13    -0.930465525024E+03    0.25530E-03   -0.45838E-04 19212   0.101E-01    0.393E-02
DAV:  14    -0.930465431088E+03    0.93935E-04   -0.34001E-04 17180   0.839E-02
   1219 T=   225. E= -.93583080E+03 F= -.94150311E+03 E0= -.94150311E+03  EK= 0.56723E+01 SP= 0.00E+00 SK= 0.00E+00
   1220 T=   227. E= -.93591435E+03 F= -.94163524E+03 E0= -.94163524E+03  EK= 0.57209E+01 SP= 0.00E+00 SK= 0.00E+00
   1221 T=   227. E= -.93588167E+03 F= -.94161171E+03 E0= -.94161171E+03  EK= 0.57300E+01 SP= 0.00E+00 SK= 0.00E+00
   1222 T=   224. E= -.93585956E+03 F= -.94149965E+03 E0= -.94149965E+03  EK= 0.56401E+01 SP= 0.00E+00 SK= 0.00E+00
   1223 T=   220. E= -.93583095E+03 F= -.94137677E+03 E0= -.94137677E+03  EK= 0.55458E+01 SP= 0.00E+00 SK= 0.00E+00
   1224 T=   218. E= -.93584483E+03 F= -.94135135E+03 E0= -.94135135E+03  EK= 0.55065E+01 SP= 0.00E+00 SK= 0.00E+00
   1225 T=   221. E= -.93587341E+03 F= -.94144243E+03 E0= -.94144243E+03  EK= 0.55690E+01 SP= 0.00E+00 SK= 0.00E+00
   1226 T=   228. E= -.93585372E+03 F= -.94158808E+03 E0= -.94158808E+03  EK= 0.57344E+01 SP= 0.00E+00 SK= 0.00E+00
   1227 T=   229. E= -.93589043E+03 F= -.94166265E+03 E0= -.94166265E+03  EK= 0.57722E+01 SP= 0.00E+00 SK= 0.00E+00
   1228 T=   225. E= -.93594406E+03 F= -.94161774E+03 E0= -.94161774E+03  EK= 0.56737E+01 SP= 0.00E+00 SK= 0.00E+00
       N       E                     dE             d eps       ncg     rms          rms(c)
DAV:   1    -0.925102440546E+03    0.53631E+01   -0.23464E+03 16238   0.947E+01
DAV:   2    -0.931137680901E+03   -0.60352E+01   -0.60339E+01 19068   0.138E+01
DAV:   3    -0.931201794599E+03   -0.64114E-01   -0.64111E-01 19460   0.146E+00
DAV:   4    -0.931203264366E+03   -0.14698E-02   -0.14697E-02 19148   0.212E-01    0.924E+00
DAV:   5    -0.930400931456E+03    0.80233E+00   -0.16039E+00 20428   0.341E+00    0.509E+00
DAV:   6    -0.930334108281E+03    0.66823E-01   -0.13612E+00 19612   0.281E+00    0.148E+00
DAV:   7    -0.930346831517E+03   -0.12723E-01   -0.28595E-01 18860   0.140E+00    0.592E-01
DAV:   8    -0.930342752462E+03    0.40791E-02   -0.33739E-02 19036   0.420E-01    0.342E-01
DAV:   9    -0.930338479337E+03    0.42731E-02   -0.14074E-02 18532   0.321E-01    0.183E-01
DAV:  10    -0.930335954578E+03    0.25248E-02   -0.26082E-03 20484   0.229E-01    0.884E-02
DAV:  11    -0.930335123726E+03    0.83085E-03   -0.37867E-03 19524   0.194E-01    0.773E-02
DAV:  12    -0.930334527212E+03    0.59651E-03   -0.11224E-03 19284   0.132E-01    0.327E-02
DAV:  13    -0.930334330006E+03    0.19721E-03   -0.44205E-04 18396   0.858E-02    0.408E-02
DAV:  14    -0.930334240989E+03    0.89017E-04   -0.19319E-04 13908   0.685E-02
   1229 T=   218. E= -.93586860E+03 F= -.94137296E+03 E0= -.94137296E+03  EK= 0.55044E+01 SP= 0.00E+00 SK= 0.00E+00
   1230 T=   213. E= -.93597519E+03 F= -.94134207E+03 E0= -.94134207E+03  EK= 0.53669E+01 SP= 0.00E+00 SK= 0.00E+00
   1231 T=   211. E= -.93594583E+03 F= -.94126787E+03 E0= -.94126787E+03  EK= 0.53220E+01 SP= 0.00E+00 SK= 0.00E+00
   1232 T=   212. E= -.93592075E+03 F= -.94127018E+03 E0= -.94127018E+03  EK= 0.53494E+01 SP= 0.00E+00 SK= 0.00E+00
   1233 T=   212. E= -.93597921E+03 F= -.94131889E+03 E0= -.94131889E+03  EK= 0.53397E+01 SP= 0.00E+00 SK= 0.00E+00
   1234 T=   213. E= -.93602916E+03 F= -.94138965E+03 E0= -.94138965E+03  EK= 0.53605E+01 SP= 0.00E+00 SK= 0.00E+00
   1235 T=   218. E= -.93593703E+03 F= -.94143504E+03 E0= -.94143504E+03  EK= 0.54980E+01 SP= 0.00E+00 SK= 0.00E+00
   1236 T=   217. E= -.93592642E+03 F= -.94140050E+03 E0= -.94140050E+03  EK= 0.54741E+01 SP= 0.00E+00 SK= 0.00E+00
   1237 T=   211. E= -.93599776E+03 F= -.94131005E+03 E0= -.94131005E+03  EK= 0.53123E+01 SP= 0.00E+00 SK= 0.00E+00
   1238 T=   210. E= -.93596538E+03 F= -.94125334E+03 E0= -.94125334E+03  EK= 0.52880E+01 SP= 0.00E+00 SK= 0.00E+00
       N       E                     dE             d eps       ncg     rms          rms(c)
DAV:   1    -0.924537364010E+03    0.57970E+01   -0.24364E+03 16238   0.966E+01
DAV:   2    -0.931010336126E+03   -0.64730E+01   -0.64714E+01 19188   0.143E+01
DAV:   3    -0.931076584999E+03   -0.66249E-01   -0.66245E-01 19508   0.150E+00
DAV:   4    -0.931078075650E+03   -0.14907E-02   -0.14906E-02 19236   0.215E-01    0.939E+00
DAV:   5    -0.930237570120E+03    0.84051E+00   -0.15675E+00 20308   0.336E+00    0.516E+00
DAV:   6    -0.930177281860E+03    0.60288E-01   -0.14828E+00 19532   0.272E+00    0.143E+00
DAV:   7    -0.930194284136E+03   -0.17002E-01   -0.25419E-01 18508   0.131E+00    0.548E-01
DAV:   8    -0.930193405051E+03    0.87909E-03   -0.29509E-02 18772   0.396E-01    0.293E-01
DAV:   9    -0.930191886988E+03    0.15181E-02   -0.11014E-02 18484   0.264E-01    0.172E-01
DAV:  10    -0.930190617402E+03    0.12696E-02   -0.25639E-03 22492   0.186E-01    0.494E-02
DAV:  11    -0.930190379793E+03    0.23761E-03   -0.12586E-03 19188   0.916E-02    0.391E-02
DAV:  12    -0.930190135125E+03    0.24467E-03   -0.12917E-04 12916   0.570E-02    0.162E-02
DAV:  13    -0.930190020531E+03    0.11459E-03   -0.19703E-04 14324   0.637E-02    0.218E-02
DAV:  14    -0.930190004247E+03    0.16284E-04   -0.17099E-04 13756   0.422E-02
   1239 T=   214. E= -.93583152E+03 F= -.94121721E+03 E0= -.94121721E+03  EK= 0.53857E+01 SP= 0.00E+00 SK= 0.00E+00
   1240 T=   220. E= -.93587492E+03 F= -.94140832E+03 E0= -.94140832E+03  EK= 0.55334E+01 SP= 0.00E+00 SK= 0.00E+00
   1241 T=   223. E= -.93587999E+03 F= -.94151090E+03 E0= -.94151090E+03  EK= 0.56309E+01 SP= 0.00E+00 SK= 0.00E+00
   1242 T=   224. E= -.93590191E+03 F= -.94155401E+03 E0= -.94155401E+03  EK= 0.56521E+01 SP= 0.00E+00 SK= 0.00E+00
   1243 T=   226. E= -.93583253E+03 F= -.94153289E+03 E0= -.94153289E+03  EK= 0.57004E+01 SP= 0.00E+00 SK= 0.00E+00
   1244 T=   225. E= -.93575413E+03 F= -.94143588E+03 E0= -.94143588E+03  EK= 0.56818E+01 SP= 0.00E+00 SK= 0.00E+00
   1245 T=   224. E= -.93567954E+03 F= -.94132489E+03 E0= -.94132489E+03  EK= 0.56453E+01 SP= 0.00E+00 SK= 0.00E+00
   1246 T=   223. E= -.93560100E+03 F= -.94123305E+03 E0= -.94123305E+03  EK= 0.56320E+01 SP= 0.00E+00 SK= 0.00E+00
   1247 T=   223. E= -.93557588E+03 F= -.94119400E+03 E0= -.94119400E+03  EK= 0.56181E+01 SP= 0.00E+00 SK= 0.00E+00
   1248 T=   226. E= -.93553738E+03 F= -.94122585E+03 E0= -.94122585E+03  EK= 0.56885E+01 SP= 0.00E+00 SK= 0.00E+00
       N       E                     dE             d eps       ncg     rms          rms(c)
DAV:   1    -0.925619663253E+03    0.45704E+01   -0.21289E+03 16238   0.906E+01
DAV:   2    -0.930789479462E+03   -0.51698E+01   -0.51686E+01 19140   0.129E+01
DAV:   3    -0.930844468899E+03   -0.54989E-01   -0.54986E-01 19476   0.135E+00
DAV:   4    -0.930845756656E+03   -0.12878E-02   -0.12877E-02 19180   0.197E-01    0.915E+00
DAV:   5    -0.930207278188E+03    0.63848E+00   -0.13433E+00 20404   0.317E+00    0.511E+00
DAV:   6    -0.930195872625E+03    0.11406E-01   -0.12565E+00 19404   0.257E+00    0.141E+00
DAV:   7    -0.930208142762E+03   -0.12270E-01   -0.23169E-01 18596   0.123E+00    0.534E-01
DAV:   8    -0.930204475068E+03    0.36677E-02   -0.25797E-02 18548   0.406E-01    0.255E-01
DAV:   9    -0.930202100173E+03    0.23749E-02   -0.10520E-02 18484   0.249E-01    0.161E-01
DAV:  10    -0.930200588021E+03    0.15122E-02   -0.32005E-03 22644   0.191E-01    0.478E-02
DAV:  11    -0.930200229750E+03    0.35827E-03   -0.10097E-03 18796   0.817E-02    0.466E-02
DAV:  12    -0.930199906109E+03    0.32364E-03   -0.27050E-04 14764   0.616E-02    0.184E-02
DAV:  13    -0.930199810683E+03    0.95427E-04   -0.17882E-04 13284   0.509E-02
   1249 T=   230. E= -.93543697E+03 F= -.94123514E+03 E0= -.94123514E+03  EK= 0.57982E+01 SP= 0.00E+00 SK= 0.00E+00
   1250 T=   237. E= -.93546501E+03 F= -.94143819E+03 E0= -.94143819E+03  EK= 0.59732E+01 SP= 0.00E+00 SK= 0.00E+00
   1251 T=   245. E= -.93531436E+03 F= -.94148981E+03 E0= -.94148981E+03  EK= 0.61754E+01 SP= 0.00E+00 SK= 0.00E+00
   1252 T=   245. E= -.93524801E+03 F= -.94143555E+03 E0= -.94143555E+03  EK= 0.61875E+01 SP= 0.00E+00 SK= 0.00E+00
   1253 T=   240. E= -.93521839E+03 F= -.94127472E+03 E0= -.94127472E+03  EK= 0.60563E+01 SP= 0.00E+00 SK= 0.00E+00
   1254 T=   234. E= -.93515582E+03 F= -.94106032E+03 E0= -.94106032E+03  EK= 0.59045E+01 SP= 0.00E+00 SK= 0.00E+00
   1255 T=   230. E= -.93512443E+03 F= -.94093235E+03 E0= -.94093235E+03  EK= 0.58079E+01 SP= 0.00E+00 SK= 0.00E+00
   1256 T=   232. E= -.93508075E+03 F= -.94093259E+03 E0= -.94093259E+03  EK= 0.58518E+01 SP= 0.00E+00 SK= 0.00E+00
   1257 T=   239. E= -.93500909E+03 F= -.94102760E+03 E0= -.94102760E+03  EK= 0.60185E+01 SP= 0.00E+00 SK= 0.00E+00
   1258 T=   240. E= -.93502083E+03 F= -.94106286E+03 E0= -.94106286E+03  EK= 0.60420E+01 SP= 0.00E+00 SK= 0.00E+00
       N       E                     dE             d eps       ncg     rms          rms(c)
DAV:   1    -0.923502043800E+03    0.66979E+01   -0.27318E+03 16238   0.102E+02
DAV:   2    -0.930699809298E+03   -0.71978E+01   -0.71960E+01 19068   0.151E+01
DAV:   3    -0.930774627900E+03   -0.74819E-01   -0.74815E-01 19484   0.158E+00
DAV:   4    -0.930776301073E+03   -0.16732E-02   -0.16731E-02 19180   0.228E-01    0.978E+00
DAV:   5    -0.929930991273E+03    0.84531E+00   -0.15851E+00 19748   0.330E+00    0.542E+00
DAV:   6    -0.929847900399E+03    0.83091E-01   -0.15036E+00 19532   0.287E+00    0.145E+00
DAV:   7    -0.929863424857E+03   -0.15524E-01   -0.29850E-01 18772   0.135E+00    0.625E-01
DAV:   8    -0.929858725695E+03    0.46992E-02   -0.32111E-02 18588   0.411E-01    0.315E-01
DAV:   9    -0.929855091636E+03    0.36341E-02   -0.90052E-03 18596   0.253E-01    0.147E-01
DAV:  10    -0.929853100488E+03    0.19911E-02   -0.20128E-03 20940   0.187E-01    0.629E-02
DAV:  11    -0.929852484517E+03    0.61597E-03   -0.19499E-03 19196   0.136E-01    0.577E-02
DAV:  12    -0.929852092363E+03    0.39215E-03   -0.56382E-04 18564   0.900E-02    0.277E-02
DAV:  13    -0.929851887642E+03    0.20472E-03   -0.15498E-04 13220   0.796E-02    0.288E-02
DAV:  14    -0.929851863211E+03    0.24431E-04   -0.31697E-04 17132   0.519E-02
   1259 T=   235. E= -.93499079E+03 F= -.94092415E+03 E0= -.94092415E+03  EK= 0.59334E+01 SP= 0.00E+00 SK= 0.00E+00
   1260 T=   229. E= -.93502965E+03 F= -.94080634E+03 E0= -.94080634E+03  EK= 0.57767E+01 SP= 0.00E+00 SK= 0.00E+00
   1261 T=   223. E= -.93496984E+03 F= -.94057824E+03 E0= -.94057824E+03  EK= 0.56084E+01 SP= 0.00E+00 SK= 0.00E+00
   1262 T=   216. E= -.93496163E+03 F= -.94040524E+03 E0= -.94040524E+03  EK= 0.54436E+01 SP= 0.00E+00 SK= 0.00E+00
   1263 T=   215. E= -.93492890E+03 F= -.94035932E+03 E0= -.94035932E+03  EK= 0.54304E+01 SP= 0.00E+00 SK= 0.00E+00
   1264 T=   215. E= -.93494198E+03 F= -.94035625E+03 E0= -.94035625E+03  EK= 0.54143E+01 SP= 0.00E+00 SK= 0.00E+00
   1265 T=   216. E= -.93496965E+03 F= -.94041461E+03 E0= -.94041461E+03  EK= 0.54450E+01 SP= 0.00E+00 SK= 0.00E+00
   1266 T=   224. E= -.93486966E+03 F= -.94051282E+03 E0= -.94051282E+03  EK= 0.56432E+01 SP= 0.00E+00 SK= 0.00E+00
   1267 T=   226. E= -.93486034E+03 F= -.94056278E+03 E0= -.94056278E+03  EK= 0.57024E+01 SP= 0.00E+00 SK= 0.00E+00
   1268 T=   225. E= -.93490077E+03 F= -.94057062E+03 E0= -.94057062E+03  EK= 0.56698E+01 SP= 0.00E+00 SK= 0.00E+00
       N       E                     dE             d eps       ncg     rms          rms(c)
DAV:   1    -0.922691747444E+03    0.71601E+01   -0.27618E+03 16238   0.102E+02
DAV:   2    -0.930404562329E+03   -0.77128E+01   -0.77109E+01 19204   0.153E+01
DAV:   3    -0.930484517582E+03   -0.79955E-01   -0.79951E-01 19516   0.162E+00
DAV:   4    -0.930486334176E+03   -0.18166E-02   -0.18165E-02 19212   0.233E-01    0.953E+00
DAV:   5    -0.929536102731E+03    0.95023E+00   -0.16141E+00 20252   0.336E+00    0.523E+00
DAV:   6    -0.929400382539E+03    0.13572E+00   -0.15121E+00 19500   0.282E+00    0.143E+00
DAV:   7    -0.929413224778E+03   -0.12842E-01   -0.30962E-01 18844   0.138E+00    0.633E-01
DAV:   8    -0.929408745225E+03    0.44796E-02   -0.31320E-02 18900   0.423E-01    0.344E-01
DAV:   9    -0.929405084685E+03    0.36605E-02   -0.14613E-02 18444   0.297E-01    0.187E-01
DAV:  10    -0.929402999887E+03    0.20848E-02   -0.30656E-03 21876   0.217E-01    0.677E-02
DAV:  11    -0.929402541814E+03    0.45807E-03   -0.23506E-03 19332   0.131E-01    0.634E-02
DAV:  12    -0.929402057117E+03    0.48470E-03   -0.51624E-04 17316   0.927E-02    0.266E-02
DAV:  13    -0.929401898379E+03    0.15874E-03   -0.26959E-04 15868   0.748E-02    0.363E-02
DAV:  14    -0.929401853979E+03    0.44399E-04   -0.27993E-04 16268   0.557E-02
   1269 T=   226. E= -.93477327E+03 F= -.94046780E+03 E0= -.94046780E+03  EK= 0.56945E+01 SP= 0.00E+00 SK= 0.00E+00
   1270 T=   226. E= -.93486787E+03 F= -.94055285E+03 E0= -.94055285E+03  EK= 0.56850E+01 SP= 0.00E+00 SK= 0.00E+00
   1271 T=   226. E= -.93489533E+03 F= -.94059027E+03 E0= -.94059027E+03  EK= 0.56949E+01 SP= 0.00E+00 SK= 0.00E+00
   1272 T=   231. E= -.93487812E+03 F= -.94070836E+03 E0= -.94070836E+03  EK= 0.58302E+01 SP= 0.00E+00 SK= 0.00E+00
   1273 T=   238. E= -.93482304E+03 F= -.94082745E+03 E0= -.94082745E+03  EK= 0.60044E+01 SP= 0.00E+00 SK= 0.00E+00
   1274 T=   240. E= -.93482160E+03 F= -.94085910E+03 E0= -.94085910E+03  EK= 0.60375E+01 SP= 0.00E+00 SK= 0.00E+00
   1275 T=   237. E= -.93483562E+03 F= -.94080165E+03 E0= -.94080165E+03  EK= 0.59660E+01 SP= 0.00E+00 SK= 0.00E+00
   1276 T=   233. E= -.93482635E+03 F= -.94070562E+03 E0= -.94070562E+03  EK= 0.58793E+01 SP= 0.00E+00 SK= 0.00E+00
   1277 T=   232. E= -.93481925E+03 F= -.94067255E+03 E0= -.94067255E+03  EK= 0.58533E+01 SP= 0.00E+00 SK= 0.00E+00
   1278 T=   231. E= -.93486555E+03 F= -.94070061E+03 E0= -.94070061E+03  EK= 0.58351E+01 SP= 0.00E+00 SK= 0.00E+00
       N       E                     dE             d eps       ncg     rms          rms(c)
DAV:   1    -0.922786764908E+03    0.66151E+01   -0.28648E+03 16238   0.104E+02
DAV:   2    -0.930709289258E+03   -0.79225E+01   -0.79204E+01 19116   0.158E+01
DAV:   3    -0.930791226852E+03   -0.81938E-01   -0.81933E-01 19460   0.167E+00
DAV:   4    -0.930793044036E+03   -0.18172E-02   -0.18171E-02 19164   0.237E-01    0.100E+01
DAV:   5    -0.929717170740E+03    0.10759E+01   -0.19197E+00 19908   0.363E+00    0.543E+00
DAV:   6    -0.929571545084E+03    0.14563E+00   -0.16144E+00 19564   0.298E+00    0.158E+00
DAV:   7    -0.929585509729E+03   -0.13965E-01   -0.31971E-01 18828   0.136E+00    0.677E-01
DAV:   8    -0.929578351032E+03    0.71587E-02   -0.31930E-02 18932   0.427E-01    0.327E-01
DAV:   9    -0.929572815723E+03    0.55353E-02   -0.93942E-03 18700   0.292E-01    0.147E-01
DAV:  10    -0.929569828427E+03    0.29873E-02   -0.28160E-03 21044   0.223E-01    0.710E-02
DAV:  11    -0.929568801505E+03    0.10269E-02   -0.24528E-03 19188   0.156E-01    0.686E-02
DAV:  12    -0.929568108729E+03    0.69278E-03   -0.67887E-04 18604   0.107E-01    0.326E-02
DAV:  13    -0.929567773277E+03    0.33545E-03   -0.31928E-04 16356   0.106E-01    0.367E-02
DAV:  14    -0.929567763441E+03    0.98358E-05   -0.58392E-04 19188   0.596E-02
   1279 T=   232. E= -.93482905E+03 F= -.94066549E+03 E0= -.94066549E+03  EK= 0.58364E+01 SP= 0.00E+00 SK= 0.00E+00
   1280 T=   232. E= -.93490260E+03 F= -.94074266E+03 E0= -.94074266E+03  EK= 0.58401E+01 SP= 0.00E+00 SK= 0.00E+00
   1281 T=   229. E= -.93497372E+03 F= -.94075256E+03 E0= -.94075256E+03  EK= 0.57788E+01 SP= 0.00E+00 SK= 0.00E+00
   1282 T=   225. E= -.93505275E+03 F= -.94072511E+03 E0= -.94072511E+03  EK= 0.56724E+01 SP= 0.00E+00 SK= 0.00E+00
   1283 T=   219. E= -.93514050E+03 F= -.94065660E+03 E0= -.94065660E+03  EK= 0.55161E+01 SP= 0.00E+00 SK= 0.00E+00
   1284 T=   216. E= -.93516431E+03 F= -.94060013E+03 E0= -.94060013E+03  EK= 0.54358E+01 SP= 0.00E+00 SK= 0.00E+00
   1285 T=   217. E= -.93517176E+03 F= -.94064123E+03 E0= -.94064123E+03  EK= 0.54695E+01 SP= 0.00E+00 SK= 0.00E+00
   1286 T=   224. E= -.93511913E+03 F= -.94077687E+03 E0= -.94077687E+03  EK= 0.56577E+01 SP= 0.00E+00 SK= 0.00E+00
   1287 T=   232. E= -.93510180E+03 F= -.94094360E+03 E0= -.94094360E+03  EK= 0.58418E+01 SP= 0.00E+00 SK= 0.00E+00
   1288 T=   233. E= -.93517530E+03 F= -.94104975E+03 E0= -.94104975E+03  EK= 0.58745E+01 SP= 0.00E+00 SK= 0.00E+00
       N       E                     dE             d eps       ncg     rms          rms(c)
DAV:   1    -0.924366172470E+03    0.52016E+01   -0.24534E+03 16238   0.967E+01
DAV:   2    -0.930683018858E+03   -0.63168E+01   -0.63153E+01 19180   0.141E+01
DAV:   3    -0.930749008773E+03   -0.65990E-01   -0.65986E-01 19476   0.148E+00
DAV:   4    -0.930750502699E+03   -0.14939E-02   -0.14939E-02 19204   0.216E-01    0.951E+00
DAV:   5    -0.929945712721E+03    0.80479E+00   -0.15488E+00 20420   0.330E+00    0.525E+00
DAV:   6    -0.929880870591E+03    0.64842E-01   -0.13830E+00 19404   0.263E+00    0.147E+00
DAV:   7    -0.929893057934E+03   -0.12187E-01   -0.27154E-01 18972   0.133E+00    0.583E-01
DAV:   8    -0.929888990719E+03    0.40672E-02   -0.29020E-02 18676   0.434E-01    0.304E-01
DAV:   9    -0.929885842870E+03    0.31478E-02   -0.14279E-02 18300   0.277E-01    0.181E-01
DAV:  10    -0.929884114687E+03    0.17282E-02   -0.32069E-03 22156   0.198E-01    0.565E-02
DAV:  11    -0.929883700061E+03    0.41463E-03   -0.15389E-03 18692   0.997E-02    0.513E-02
DAV:  12    -0.929883304603E+03    0.39546E-03   -0.23324E-04 14236   0.706E-02    0.208E-02
DAV:  13    -0.929883171813E+03    0.13279E-03   -0.32252E-04 16932   0.680E-02    0.285E-02
DAV:  14    -0.929883151819E+03    0.19994E-04   -0.18353E-04 13924   0.392E-02
   1289 T=   234. E= -.93506980E+03 F= -.94096425E+03 E0= -.94096425E+03  EK= 0.58944E+01 SP= 0.00E+00 SK= 0.00E+00
   1290 T=   228. E= -.93513303E+03 F= -.94088369E+03 E0= -.94088369E+03  EK= 0.57507E+01 SP= 0.00E+00 SK= 0.00E+00
   1291 T=   216. E= -.93529026E+03 F= -.94074198E+03 E0= -.94074198E+03  EK= 0.54517E+01 SP= 0.00E+00 SK= 0.00E+00
   1292 T=   213. E= -.93535438E+03 F= -.94072328E+03 E0= -.94072328E+03  EK= 0.53689E+01 SP= 0.00E+00 SK= 0.00E+00
   1293 T=   222. E= -.93525081E+03 F= -.94085527E+03 E0= -.94085527E+03  EK= 0.56045E+01 SP= 0.00E+00 SK= 0.00E+00
   1294 T=   237. E= -.93510306E+03 F= -.94107091E+03 E0= -.94107091E+03  EK= 0.59679E+01 SP= 0.00E+00 SK= 0.00E+00
   1295 T=   245. E= -.93504384E+03 F= -.94122281E+03 E0= -.94122281E+03  EK= 0.61790E+01 SP= 0.00E+00 SK= 0.00E+00
   1296 T=   243. E= -.93514126E+03 F= -.94126055E+03 E0= -.94126055E+03  EK= 0.61193E+01 SP= 0.00E+00 SK= 0.00E+00
   1297 T=   237. E= -.93524537E+03 F= -.94122122E+03 E0= -.94122122E+03  EK= 0.59759E+01 SP= 0.00E+00 SK= 0.00E+00
   1298 T=   234. E= -.93524651E+03 F= -.94114513E+03 E0= -.94114513E+03  EK= 0.58986E+01 SP= 0.00E+00 SK= 0.00E+00
       N       E                     dE             d eps       ncg     rms          rms(c)
DAV:   1    -0.923696981636E+03    0.61862E+01   -0.27171E+03 16238   0.101E+02
DAV:   2    -0.930905601088E+03   -0.72086E+01   -0.72068E+01 19148   0.150E+01
DAV:   3    -0.930978788073E+03   -0.73187E-01   -0.73183E-01 19492   0.156E+00
DAV:   4    -0.930980408481E+03   -0.16204E-02   -0.16204E-02 19164   0.224E-01    0.980E+00
DAV:   5    -0.930016350339E+03    0.96406E+00   -0.17926E+00 20596   0.360E+00    0.535E+00
DAV:   6    -0.929916079317E+03    0.10027E+00   -0.15597E+00 19540   0.285E+00    0.155E+00
DAV:   7    -0.929928944800E+03   -0.12865E-01   -0.29260E-01 18636   0.135E+00    0.587E-01
DAV:   8    -0.929924376020E+03    0.45688E-02   -0.27530E-02 19052   0.434E-01    0.308E-01
DAV:   9    -0.929921124085E+03    0.32519E-02   -0.15495E-02 18300   0.308E-01    0.192E-01
DAV:  10    -0.929919337701E+03    0.17864E-02   -0.34363E-03 21964   0.196E-01    0.652E-02
DAV:  11    -0.929918795733E+03    0.54197E-03   -0.16413E-03 18572   0.106E-01    0.519E-02
DAV:  12    -0.929918348172E+03    0.44756E-03   -0.26839E-04 15004   0.824E-02    0.238E-02
DAV:  13    -0.929918165139E+03    0.18303E-03   -0.34618E-04 16860   0.744E-02    0.261E-02
DAV:  14    -0.929918142124E+03    0.23015E-04   -0.18991E-04 14140   0.395E-02
   1299 T=   230. E= -.93522942E+03 F= -.94101809E+03 E0= -.94101809E+03  EK= 0.57887E+01 SP= 0.00E+00 SK= 0.00E+00
   1300 T=   226. E= -.93533414E+03 F= -.94103172E+03 E0= -.94103172E+03  EK= 0.56976E+01 SP= 0.00E+00 SK= 0.00E+00
   1301 T=   229. E= -.93532509E+03 F= -.94109041E+03 E0= -.94109041E+03  EK= 0.57653E+01 SP= 0.00E+00 SK= 0.00E+00
   1302 T=   232. E= -.93532543E+03 F= -.94118531E+03 E0= -.94118531E+03  EK= 0.58599E+01 SP= 0.00E+00 SK= 0.00E+00
   1303 T=   233. E= -.93538512E+03 F= -.94126361E+03 E0= -.94126361E+03  EK= 0.58785E+01 SP= 0.00E+00 SK= 0.00E+00
   1304 T=   230. E= -.93544362E+03 F= -.94124588E+03 E0= -.94124588E+03  EK= 0.58023E+01 SP= 0.00E+00 SK= 0.00E+00
   1305 T=   227. E= -.93543943E+03 F= -.94115364E+03 E0= -.94115364E+03  EK= 0.57142E+01 SP= 0.00E+00 SK= 0.00E+00
   1306 T=   220. E= -.93545099E+03 F= -.94098755E+03 E0= -.94098755E+03  EK= 0.55366E+01 SP= 0.00E+00 SK= 0.00E+00
   1307 T=   215. E= -.93546770E+03 F= -.94088926E+03 E0= -.94088926E+03  EK= 0.54216E+01 SP= 0.00E+00 SK= 0.00E+00
   1308 T=   216. E= -.93549610E+03 F= -.94093111E+03 E0= -.94093111E+03  EK= 0.54350E+01 SP= 0.00E+00 SK= 0.00E+00
       N       E                     dE             d eps       ncg     rms          rms(c)
DAV:   1    -0.924022342153E+03    0.58958E+01   -0.25902E+03 16238   0.994E+01
DAV:   2    -0.930959407040E+03   -0.69371E+01   -0.69353E+01 19244   0.147E+01
DAV:   3    -0.931027360206E+03   -0.67953E-01   -0.67950E-01 19516   0.152E+00
DAV:   4    -0.931028832136E+03   -0.14719E-02   -0.14719E-02 19292   0.218E-01    0.986E+00
DAV:   5    -0.930076387050E+03    0.95245E+00   -0.17530E+00 20340   0.344E+00    0.542E+00
DAV:   6    -0.929972661751E+03    0.10373E+00   -0.15601E+00 19548   0.280E+00    0.150E+00
DAV:   7    -0.929987699743E+03   -0.15038E-01   -0.29224E-01 18788   0.137E+00    0.584E-01
DAV:   8    -0.929984762551E+03    0.29372E-02   -0.31479E-02 19028   0.418E-01    0.328E-01
DAV:   9    -0.929981946646E+03    0.28159E-02   -0.14303E-02 18500   0.295E-01    0.188E-01
DAV:  10    -0.929980149309E+03    0.17973E-02   -0.28937E-03 21796   0.204E-01    0.684E-02
DAV:  11    -0.929979721727E+03    0.42758E-03   -0.22206E-03 19300   0.129E-01    0.592E-02
DAV:  12    -0.929979332341E+03    0.38939E-03   -0.46519E-04 17564   0.856E-02    0.224E-02
DAV:  13    -0.929979169166E+03    0.16318E-03   -0.17619E-04 13468   0.727E-02    0.256E-02
DAV:  14    -0.929979137221E+03    0.31944E-04   -0.24441E-04 15612   0.531E-02
   1309 T=   219. E= -.93554424E+03 F= -.94106013E+03 E0= -.94106013E+03  EK= 0.55159E+01 SP= 0.00E+00 SK= 0.00E+00
   1310 T=   222. E= -.93563790E+03 F= -.94123758E+03 E0= -.94123758E+03  EK= 0.55997E+01 SP= 0.00E+00 SK= 0.00E+00
   1311 T=   224. E= -.93568684E+03 F= -.94132427E+03 E0= -.94132427E+03  EK= 0.56374E+01 SP= 0.00E+00 SK= 0.00E+00
   1312 T=   224. E= -.93562483E+03 F= -.94127315E+03 E0= -.94127315E+03  EK= 0.56483E+01 SP= 0.00E+00 SK= 0.00E+00
   1313 T=   222. E= -.93550015E+03 F= -.94109182E+03 E0= -.94109182E+03  EK= 0.55917E+01 SP= 0.00E+00 SK= 0.00E+00
   1314 T=   219. E= -.93538311E+03 F= -.94089876E+03 E0= -.94089876E+03  EK= 0.55156E+01 SP= 0.00E+00 SK= 0.00E+00
   1315 T=   217. E= -.93529927E+03 F= -.94077197E+03 E0= -.94077197E+03  EK= 0.54727E+01 SP= 0.00E+00 SK= 0.00E+00
   1316 T=   217. E= -.93528777E+03 F= -.94075586E+03 E0= -.94075586E+03  EK= 0.54681E+01 SP= 0.00E+00 SK= 0.00E+00
   1317 T=   221. E= -.93530049E+03 F= -.94087126E+03 E0= -.94087126E+03  EK= 0.55708E+01 SP= 0.00E+00 SK= 0.00E+00
   1318 T=   227. E= -.93526510E+03 F= -.94098559E+03 E0= -.94098559E+03  EK= 0.57205E+01 SP= 0.00E+00 SK= 0.00E+00
       N       E                     dE             d eps       ncg     rms          rms(c)
DAV:   1    -0.923650371533E+03    0.63288E+01   -0.26781E+03 16238   0.101E+02
DAV:   2    -0.930822337060E+03   -0.71720E+01   -0.71705E+01 19012   0.150E+01
DAV:   3    -0.930895912476E+03   -0.73575E-01   -0.73572E-01 19532   0.156E+00
DAV:   4    -0.930897562939E+03   -0.16505E-02   -0.16504E-02 19220   0.225E-01    0.958E+00
DAV:   5    -0.930060725046E+03    0.83684E+00   -0.14251E+00 19724   0.310E+00    0.532E+00
DAV:   6    -0.929953338353E+03    0.10739E+00   -0.14537E+00 19516   0.277E+00    0.136E+00
DAV:   7    -0.929965239497E+03   -0.11901E-01   -0.29865E-01 19116   0.143E+00    0.600E-01
DAV:   8    -0.929962297945E+03    0.29416E-02   -0.34847E-02 18660   0.442E-01    0.321E-01
DAV:   9    -0.929959781084E+03    0.25169E-02   -0.13298E-02 18716   0.273E-01    0.183E-01
DAV:  10    -0.929957947789E+03    0.18333E-02   -0.28178E-03 22476   0.218E-01    0.649E-02
DAV:  11    -0.929957586883E+03    0.36091E-03   -0.24357E-03 19476   0.133E-01    0.646E-02
DAV:  12    -0.929957210008E+03    0.37687E-03   -0.45016E-04 18412   0.762E-02    0.251E-02
DAV:  13    -0.929957024371E+03    0.18564E-03   -0.21400E-04 14188   0.780E-02    0.323E-02
DAV:  14    -0.929956980609E+03    0.43762E-04   -0.21840E-04 14268   0.561E-02
   1319 T=   228. E= -.93527580E+03 F= -.94102969E+03 E0= -.94102969E+03  EK= 0.57539E+01 SP= 0.00E+00 SK= 0.00E+00
   1320 T=   225. E= -.93529389E+03 F= -.94097767E+03 E0= -.94097767E+03  EK= 0.56838E+01 SP= 0.00E+00 SK= 0.00E+00
   1321 T=   224. E= -.93524240E+03 F= -.94089877E+03 E0= -.94089877E+03  EK= 0.56564E+01 SP= 0.00E+00 SK= 0.00E+00
   1322 T=   224. E= -.93519599E+03 F= -.94084563E+03 E0= -.94084563E+03  EK= 0.56496E+01 SP= 0.00E+00 SK= 0.00E+00
   1323 T=   224. E= -.93515865E+03 F= -.94080914E+03 E0= -.94080914E+03  EK= 0.56505E+01 SP= 0.00E+00 SK= 0.00E+00
   1324 T=   227. E= -.93512377E+03 F= -.94084655E+03 E0= -.94084655E+03  EK= 0.57228E+01 SP= 0.00E+00 SK= 0.00E+00
   1325 T=   229. E= -.93513487E+03 F= -.94091058E+03 E0= -.94091058E+03  EK= 0.57757E+01 SP= 0.00E+00 SK= 0.00E+00
   1326 T=   231. E= -.93516551E+03 F= -.94098703E+03 E0= -.94098703E+03  EK= 0.58215E+01 SP= 0.00E+00 SK= 0.00E+00
   1327 T=   230. E= -.93524225E+03 F= -.94105067E+03 E0= -.94105067E+03  EK= 0.58084E+01 SP= 0.00E+00 SK= 0.00E+00
   1328 T=   230. E= -.93528171E+03 F= -.94107091E+03 E0= -.94107091E+03  EK= 0.57892E+01 SP= 0.00E+00 SK= 0.00E+00
       N       E                     dE             d eps       ncg     rms          rms(c)
DAV:   1    -0.923472632968E+03    0.64844E+01   -0.26921E+03 16238   0.101E+02
DAV:   2    -0.930957106539E+03   -0.74845E+01   -0.74826E+01 19084   0.152E+01
DAV:   3    -0.931033147566E+03   -0.76041E-01   -0.76037E-01 19500   0.158E+00
DAV:   4    -0.931034822750E+03   -0.16752E-02   -0.16751E-02 19140   0.227E-01    0.968E+00
DAV:   5    -0.930110788161E+03    0.92403E+00   -0.17730E+00 20244   0.359E+00    0.531E+00
DAV:   6    -0.930020862996E+03    0.89925E-01   -0.15101E+00 19572   0.278E+00    0.156E+00
DAV:   7    -0.930036580897E+03   -0.15718E-01   -0.28783E-01 18924   0.137E+00    0.612E-01
DAV:   8    -0.930033730110E+03    0.28508E-02   -0.31847E-02 18620   0.432E-01    0.319E-01
DAV:   9    -0.930031396398E+03    0.23337E-02   -0.13849E-02 18588   0.277E-01    0.181E-01
DAV:  10    -0.930029836659E+03    0.15597E-02   -0.29408E-03 22116   0.192E-01    0.559E-02
DAV:  11    -0.930029525808E+03    0.31085E-03   -0.15997E-03 18972   0.100E-01    0.508E-02
DAV:  12    -0.930029236004E+03    0.28980E-03   -0.24429E-04 14300   0.619E-02    0.201E-02
DAV:  13    -0.930029116531E+03    0.11947E-03   -0.22368E-04 14748   0.586E-02    0.276E-02
DAV:  14    -0.930029089274E+03    0.27256E-04   -0.14088E-04 13716   0.382E-02
   1329 T=   227. E= -.93537832E+03 F= -.94109194E+03 E0= -.94109194E+03  EK= 0.57136E+01 SP= 0.00E+00 SK= 0.00E+00
   1330 T=   221. E= -.93540264E+03 F= -.94097152E+03 E0= -.94097152E+03  EK= 0.55689E+01 SP= 0.00E+00 SK= 0.00E+00
   1331 T=   220. E= -.93539702E+03 F= -.94093644E+03 E0= -.94093644E+03  EK= 0.55394E+01 SP= 0.00E+00 SK= 0.00E+00
   1332 T=   221. E= -.93538558E+03 F= -.94094930E+03 E0= -.94094930E+03  EK= 0.55637E+01 SP= 0.00E+00 SK= 0.00E+00
   1333 T=   224. E= -.93529642E+03 F= -.94095177E+03 E0= -.94095177E+03  EK= 0.56554E+01 SP= 0.00E+00 SK= 0.00E+00
   1334 T=   228. E= -.93517123E+03 F= -.94090892E+03 E0= -.94090892E+03  EK= 0.57377E+01 SP= 0.00E+00 SK= 0.00E+00
   1335 T=   226. E= -.93514705E+03 F= -.94083798E+03 E0= -.94083798E+03  EK= 0.56909E+01 SP= 0.00E+00 SK= 0.00E+00
   1336 T=   220. E= -.93518185E+03 F= -.94072192E+03 E0= -.94072192E+03  EK= 0.55401E+01 SP= 0.00E+00 SK= 0.00E+00
   1337 T=   216. E= -.93523455E+03 F= -.94066697E+03 E0= -.94066697E+03  EK= 0.54324E+01 SP= 0.00E+00 SK= 0.00E+00
   1338 T=   215. E= -.93526297E+03 F= -.94068164E+03 E0= -.94068164E+03  EK= 0.54187E+01 SP= 0.00E+00 SK= 0.00E+00
       N       E                     dE             d eps       ncg     rms          rms(c)
DAV:   1    -0.924044040026E+03    0.59851E+01   -0.24372E+03 16238   0.963E+01
DAV:   2    -0.930524785430E+03   -0.64807E+01   -0.64791E+01 19076   0.142E+01
DAV:   3    -0.930591937938E+03   -0.67153E-01   -0.67149E-01 19540   0.149E+00
DAV:   4    -0.930593479110E+03   -0.15412E-02   -0.15411E-02 19204   0.216E-01    0.941E+00
DAV:   5    -0.929751046786E+03    0.84243E+00   -0.15272E+00 20188   0.331E+00    0.524E+00
DAV:   6    -0.929654346497E+03    0.96700E-01   -0.14406E+00 19532   0.284E+00    0.144E+00
DAV:   7    -0.929669465923E+03   -0.15119E-01   -0.27835E-01 18764   0.126E+00    0.626E-01
DAV:   8    -0.929665274804E+03    0.41911E-02   -0.29509E-02 18724   0.385E-01    0.305E-01
DAV:   9    -0.929662303946E+03    0.29709E-02   -0.82131E-03 18668   0.253E-01    0.148E-01
DAV:  10    -0.929660500031E+03    0.18039E-02   -0.22143E-03 20444   0.186E-01    0.543E-02
DAV:  11    -0.929660116215E+03    0.38382E-03   -0.16714E-03 19548   0.113E-01    0.546E-02
DAV:  12    -0.929659856604E+03    0.25961E-03   -0.37283E-04 17684   0.604E-02    0.256E-02
DAV:  13    -0.929659653925E+03    0.20268E-03   -0.12867E-04 13204   0.742E-02    0.241E-02
DAV:  14    -0.929659638655E+03    0.15270E-04   -0.19993E-04 14092   0.397E-02
   1339 T=   217. E= -.93527470E+03 F= -.94073753E+03 E0= -.94073753E+03  EK= 0.54628E+01 SP= 0.00E+00 SK= 0.00E+00
   1340 T=   214. E= -.93535451E+03 F= -.94076074E+03 E0= -.94076074E+03  EK= 0.54062E+01 SP= 0.00E+00 SK= 0.00E+00
   1341 T=   211. E= -.93539721E+03 F= -.94072481E+03 E0= -.94072481E+03  EK= 0.53276E+01 SP= 0.00E+00 SK= 0.00E+00
   1342 T=   208. E= -.93539515E+03 F= -.94063511E+03 E0= -.94063511E+03  EK= 0.52400E+01 SP= 0.00E+00 SK= 0.00E+00
   1343 T=   200. E= -.93542599E+03 F= -.94047805E+03 E0= -.94047805E+03  EK= 0.50521E+01 SP= 0.00E+00 SK= 0.00E+00
   1344 T=   196. E= -.93543987E+03 F= -.94037273E+03 E0= -.94037273E+03  EK= 0.49329E+01 SP= 0.00E+00 SK= 0.00E+00
   1345 T=   195. E= -.93546167E+03 F= -.94036537E+03 E0= -.94036537E+03  EK= 0.49037E+01 SP= 0.00E+00 SK= 0.00E+00
   1346 T=   198. E= -.93550440E+03 F= -.94048415E+03 E0= -.94048415E+03  EK= 0.49798E+01 SP= 0.00E+00 SK= 0.00E+00
   1347 T=   204. E= -.93554166E+03 F= -.94068861E+03 E0= -.94068861E+03  EK= 0.51469E+01 SP= 0.00E+00 SK= 0.00E+00
   1348 T=   210. E= -.93557193E+03 F= -.94087622E+03 E0= -.94087622E+03  EK= 0.53043E+01 SP= 0.00E+00 SK= 0.00E+00
       N       E                     dE             d eps       ncg     rms          rms(c)
DAV:   1    -0.924941063594E+03    0.47186E+01   -0.22466E+03 16238   0.925E+01
DAV:   2    -0.930645165947E+03   -0.57041E+01   -0.57027E+01 19204   0.135E+01
DAV:   3    -0.930704382721E+03   -0.59217E-01   -0.59214E-01 19468   0.140E+00
DAV:   4    -0.930705752903E+03   -0.13702E-02   -0.13701E-02 19164   0.203E-01    0.897E+00
DAV:   5    -0.929952887119E+03    0.75287E+00   -0.14341E+00 20316   0.321E+00    0.491E+00
DAV:   6    -0.929897383954E+03    0.55503E-01   -0.13430E+00 19564   0.260E+00    0.137E+00
DAV:   7    -0.929911076687E+03   -0.13693E-01   -0.24965E-01 18580   0.126E+00    0.538E-01
DAV:   8    -0.929908319929E+03    0.27568E-02   -0.24656E-02 18852   0.402E-01    0.281E-01
DAV:   9    -0.929906549353E+03    0.17706E-02   -0.14049E-02 18244   0.275E-01    0.191E-01
DAV:  10    -0.929905160886E+03    0.13885E-02   -0.32621E-03 21716   0.183E-01    0.546E-02
DAV:  11    -0.929904892328E+03    0.26856E-03   -0.13294E-03 18460   0.868E-02    0.423E-02
DAV:  12    -0.929904662437E+03    0.22989E-03   -0.15114E-04 13188   0.557E-02    0.216E-02
DAV:  13    -0.929904578697E+03    0.83740E-04   -0.25670E-04 15020   0.511E-02
   1349 T=   216. E= -.93553481E+03 F= -.94098912E+03 E0= -.94098912E+03  EK= 0.54543E+01 SP= 0.00E+00 SK= 0.00E+00
   1350 T=   220. E= -.93542312E+03 F= -.94096079E+03 E0= -.94096079E+03  EK= 0.55377E+01 SP= 0.00E+00 SK= 0.00E+00
   1351 T=   213. E= -.93543560E+03 F= -.94079958E+03 E0= -.94079958E+03  EK= 0.53640E+01 SP= 0.00E+00 SK= 0.00E+00
   1352 T=   206. E= -.93543467E+03 F= -.94063473E+03 E0= -.94063473E+03  EK= 0.52001E+01 SP= 0.00E+00 SK= 0.00E+00
   1353 T=   206. E= -.93537615E+03 F= -.94057032E+03 E0= -.94057032E+03  EK= 0.51942E+01 SP= 0.00E+00 SK= 0.00E+00
   1354 T=   212. E= -.93532295E+03 F= -.94067746E+03 E0= -.94067746E+03  EK= 0.53545E+01 SP= 0.00E+00 SK= 0.00E+00
   1355 T=   219. E= -.93534845E+03 F= -.94087711E+03 E0= -.94087711E+03  EK= 0.55287E+01 SP= 0.00E+00 SK= 0.00E+00
   1356 T=   222. E= -.93541964E+03 F= -.94102582E+03 E0= -.94102582E+03  EK= 0.56062E+01 SP= 0.00E+00 SK= 0.00E+00
   1357 T=   222. E= -.93542384E+03 F= -.94102203E+03 E0= -.94102203E+03  EK= 0.55982E+01 SP= 0.00E+00 SK= 0.00E+00
   1358 T=   215. E= -.93544252E+03 F= -.94087193E+03 E0= -.94087193E+03  EK= 0.54294E+01 SP= 0.00E+00 SK= 0.00E+00
       N       E                     dE             d eps       ncg     rms          rms(c)
DAV:   1    -0.924396112810E+03    0.55085E+01   -0.23937E+03 16238   0.957E+01
DAV:   2    -0.930501283991E+03   -0.61052E+01   -0.61036E+01 19212   0.139E+01
DAV:   3    -0.930565385848E+03   -0.64102E-01   -0.64098E-01 19540   0.147E+00
DAV:   4    -0.930566884078E+03   -0.14982E-02   -0.14982E-02 19260   0.212E-01    0.923E+00
DAV:   5    -0.929672212090E+03    0.89467E+00   -0.16945E+00 20436   0.347E+00    0.502E+00
DAV:   6    -0.929572218783E+03    0.99993E-01   -0.14057E+00 19532   0.268E+00    0.152E+00
DAV:   7    -0.929578879925E+03   -0.66611E-02   -0.28517E-01 18732   0.144E+00    0.583E-01
DAV:   8    -0.929573980616E+03    0.48993E-02   -0.35474E-02 19020   0.468E-01    0.326E-01
DAV:   9    -0.929569722693E+03    0.42579E-02   -0.17856E-02 18260   0.312E-01    0.208E-01
DAV:  10    -0.929567258288E+03    0.24644E-02   -0.37715E-03 22748   0.240E-01    0.697E-02
DAV:  11    -0.929566720632E+03    0.53766E-03   -0.27101E-03 19188   0.141E-01    0.671E-02
DAV:  12    -0.929566185837E+03    0.53479E-03   -0.45948E-04 17668   0.936E-02    0.234E-02
DAV:  13    -0.929565980325E+03    0.20551E-03   -0.29626E-04 16308   0.885E-02    0.292E-02
DAV:  14    -0.929565957230E+03    0.23095E-04   -0.32657E-04 17636   0.571E-02
   1359 T=   207. E= -.93542491E+03 F= -.94065288E+03 E0= -.94065288E+03  EK= 0.52280E+01 SP= 0.00E+00 SK= 0.00E+00
   1360 T=   203. E= -.93539281E+03 F= -.94050313E+03 E0= -.94050313E+03  EK= 0.51103E+01 SP= 0.00E+00 SK= 0.00E+00
   1361 T=   198. E= -.93542341E+03 F= -.94040721E+03 E0= -.94040721E+03  EK= 0.49838E+01 SP= 0.00E+00 SK= 0.00E+00
   1362 T=   199. E= -.93541883E+03 F= -.94043026E+03 E0= -.94043026E+03  EK= 0.50114E+01 SP= 0.00E+00 SK= 0.00E+00
   1363 T=   206. E= -.93535948E+03 F= -.94055212E+03 E0= -.94055212E+03  EK= 0.51926E+01 SP= 0.00E+00 SK= 0.00E+00
   1364 T=   212. E= -.93535639E+03 F= -.94070614E+03 E0= -.94070614E+03  EK= 0.53498E+01 SP= 0.00E+00 SK= 0.00E+00
   1365 T=   216. E= -.93537360E+03 F= -.94080892E+03 E0= -.94080892E+03  EK= 0.54353E+01 SP= 0.00E+00 SK= 0.00E+00
   1366 T=   214. E= -.93540085E+03 F= -.94079438E+03 E0= -.94079438E+03  EK= 0.53935E+01 SP= 0.00E+00 SK= 0.00E+00
   1367 T=   212. E= -.93543121E+03 F= -.94076692E+03 E0= -.94076692E+03  EK= 0.53357E+01 SP= 0.00E+00 SK= 0.00E+00
   1368 T=   209. E= -.93551787E+03 F= -.94079584E+03 E0= -.94079584E+03  EK= 0.52780E+01 SP= 0.00E+00 SK= 0.00E+00
       N       E                     dE             d eps       ncg     rms          rms(c)
DAV:   1    -0.924257881444E+03    0.53081E+01   -0.23642E+03 16238   0.949E+01
DAV:   2    -0.930862997797E+03   -0.66051E+01   -0.66036E+01 19068   0.143E+01
DAV:   3    -0.930930922409E+03   -0.67925E-01   -0.67922E-01 19468   0.152E+00
DAV:   4    -0.930932411337E+03   -0.14889E-02   -0.14889E-02 19132   0.217E-01    0.965E+00
DAV:   5    -0.929978025964E+03    0.95439E+00   -0.19290E+00 20444   0.370E+00    0.520E+00
DAV:   6    -0.929889225945E+03    0.88800E-01   -0.13033E+00 19540   0.259E+00    0.167E+00
DAV:   7    -0.929901219254E+03   -0.11993E-01   -0.25985E-01 19340   0.135E+00    0.592E-01
DAV:   8    -0.929896227219E+03    0.49920E-02   -0.32357E-02 18796   0.458E-01    0.292E-01
DAV:   9    -0.929892290966E+03    0.39363E-02   -0.11291E-02 18540   0.261E-01    0.152E-01
DAV:  10    -0.929890434018E+03    0.18569E-02   -0.26385E-03 21820   0.201E-01    0.575E-02
DAV:  11    -0.929889831677E+03    0.60234E-03   -0.17177E-03 18828   0.120E-01    0.591E-02
DAV:  12    -0.929889331055E+03    0.50062E-03   -0.29998E-04 15844   0.893E-02    0.223E-02
DAV:  13    -0.929889142497E+03    0.18856E-03   -0.35766E-04 17028   0.876E-02    0.327E-02
DAV:  14    -0.929889129156E+03    0.13341E-04   -0.36896E-04 18620   0.515E-02
   1369 T=   216. E= -.93554456E+03 F= -.94097733E+03 E0= -.94097733E+03  EK= 0.54328E+01 SP= 0.00E+00 SK= 0.00E+00
   1370 T=   230. E= -.93551320E+03 F= -.94132092E+03 E0= -.94132092E+03  EK= 0.58077E+01 SP= 0.00E+00 SK= 0.00E+00
   1371 T=   247. E= -.93538518E+03 F= -.94161586E+03 E0= -.94161586E+03  EK= 0.62307E+01 SP= 0.00E+00 SK= 0.00E+00
   1372 T=   257. E= -.93530974E+03 F= -.94178347E+03 E0= -.94178347E+03  EK= 0.64737E+01 SP= 0.00E+00 SK= 0.00E+00
   1373 T=   258. E= -.93528421E+03 F= -.94178472E+03 E0= -.94178472E+03  EK= 0.65005E+01 SP= 0.00E+00 SK= 0.00E+00
   1374 T=   256. E= -.93522253E+03 F= -.94166541E+03 E0= -.94166541E+03  EK= 0.64429E+01 SP= 0.00E+00 SK= 0.00E+00
   1375 T=   253. E= -.93516090E+03 F= -.94154974E+03 E0= -.94154974E+03  EK= 0.63888E+01 SP= 0.00E+00 SK= 0.00E+00
   1376 T=   254. E= -.93510558E+03 F= -.94150155E+03 E0= -.94150155E+03  EK= 0.63960E+01 SP= 0.00E+00 SK= 0.00E+00
   1377 T=   255. E= -.93514424E+03 F= -.94156896E+03 E0= -.94156896E+03  EK= 0.64247E+01 SP= 0.00E+00 SK= 0.00E+00
   1378 T=   257. E= -.93520190E+03 F= -.94168408E+03 E0= -.94168408E+03  EK= 0.64822E+01 SP= 0.00E+00 SK= 0.00E+00
       N       E                     dE             d eps       ncg     rms          rms(c)
DAV:   1    -0.923599330169E+03    0.62898E+01   -0.29521E+03 16238   0.106E+02
DAV:   2    -0.931640410817E+03   -0.80411E+01   -0.80390E+01 19124   0.158E+01
DAV:   3    -0.931721732095E+03   -0.81321E-01   -0.81316E-01 19492   0.166E+00
DAV:   4    -0.931723553667E+03   -0.18216E-02   -0.18215E-02 19180   0.238E-01    0.100E+01
DAV:   5    -0.930794406421E+03    0.92915E+00   -0.15886E+00 20572   0.335E+00    0.559E+00
DAV:   6    -0.930687276265E+03    0.10713E+00   -0.16498E+00 19532   0.296E+00    0.143E+00
DAV:   7    -0.930702752313E+03   -0.15476E-01   -0.31694E-01 18772   0.139E+00    0.648E-01
DAV:   8    -0.930699158136E+03    0.35942E-02   -0.35353E-02 18820   0.411E-01    0.377E-01
DAV:   9    -0.930695445552E+03    0.37126E-02   -0.15069E-02 18500   0.322E-01    0.202E-01
DAV:  10    -0.930693005033E+03    0.24405E-02   -0.30826E-03 20220   0.215E-01    0.850E-02
DAV:  11    -0.930692479715E+03    0.52532E-03   -0.32021E-03 19612   0.147E-01    0.703E-02
DAV:  12    -0.930692012645E+03    0.46707E-03   -0.71017E-04 18524   0.893E-02    0.273E-02
DAV:  13    -0.930691824254E+03    0.18839E-03   -0.22093E-04 13476   0.626E-02    0.295E-02
DAV:  14    -0.930691753506E+03    0.70748E-04   -0.15966E-04 14332   0.541E-02
   1379 T=   259. E= -.93520279E+03 F= -.94173748E+03 E0= -.94173748E+03  EK= 0.65347E+01 SP= 0.00E+00 SK= 0.00E+00
   1380 T=   252. E= -.93523199E+03 F= -.94158899E+03 E0= -.94158899E+03  EK= 0.63570E+01 SP= 0.00E+00 SK= 0.00E+00
   1381 T=   238. E= -.93528087E+03 F= -.94128316E+03 E0= -.94128316E+03  EK= 0.60023E+01 SP= 0.00E+00 SK= 0.00E+00
   1382 T=   226. E= -.93526795E+03 F= -.94095334E+03 E0= -.94095334E+03  EK= 0.56854E+01 SP= 0.00E+00 SK= 0.00E+00
   1383 T=   220. E= -.93519303E+03 F= -.94073540E+03 E0= -.94073540E+03  EK= 0.55424E+01 SP= 0.00E+00 SK= 0.00E+00
   1384 T=   219. E= -.93515189E+03 F= -.94067253E+03 E0= -.94067253E+03  EK= 0.55206E+01 SP= 0.00E+00 SK= 0.00E+00
   1385 T=   219. E= -.93521636E+03 F= -.94074109E+03 E0= -.94074109E+03  EK= 0.55247E+01 SP= 0.00E+00 SK= 0.00E+00
   1386 T=   226. E= -.93521272E+03 F= -.94091508E+03 E0= -.94091508E+03  EK= 0.57024E+01 SP= 0.00E+00 SK= 0.00E+00
   1387 T=   234. E= -.93517007E+03 F= -.94106812E+03 E0= -.94106812E+03  EK= 0.58980E+01 SP= 0.00E+00 SK= 0.00E+00
   1388 T=   240. E= -.93509979E+03 F= -.94114014E+03 E0= -.94114014E+03  EK= 0.60404E+01 SP= 0.00E+00 SK= 0.00E+00
       N       E                     dE             d eps       ncg     rms          rms(c)
DAV:   1    -0.924030887864E+03    0.66609E+01   -0.25777E+03 16238   0.990E+01
DAV:   2    -0.930837812776E+03   -0.68069E+01   -0.68054E+01 18940   0.146E+01
DAV:   3    -0.930908928117E+03   -0.71115E-01   -0.71112E-01 19476   0.155E+00
DAV:   4    -0.930910544894E+03   -0.16168E-02   -0.16167E-02 19116   0.223E-01    0.952E+00
DAV:   5    -0.930104547691E+03    0.80600E+00   -0.16041E+00 19540   0.329E+00    0.521E+00
DAV:   6    -0.930054442280E+03    0.50105E-01   -0.13710E+00 19500   0.256E+00    0.150E+00
DAV:   7    -0.930071306810E+03   -0.16865E-01   -0.26215E-01 18908   0.133E+00    0.586E-01
DAV:   8    -0.930068765203E+03    0.25416E-02   -0.31464E-02 18364   0.468E-01    0.281E-01
DAV:   9    -0.930066711263E+03    0.20539E-02   -0.10748E-02 18468   0.227E-01    0.151E-01
DAV:  10    -0.930065531630E+03    0.11796E-02   -0.21861E-03 22156   0.160E-01    0.501E-02
DAV:  11    -0.930065236074E+03    0.29556E-03   -0.10739E-03 18660   0.805E-02    0.467E-02
DAV:  12    -0.930064911945E+03    0.32413E-03   -0.15861E-04 13412   0.589E-02    0.181E-02
DAV:  13    -0.930064808288E+03    0.10366E-03   -0.30081E-04 16084   0.582E-02    0.294E-02
DAV:  14    -0.930064783357E+03    0.24931E-04   -0.13930E-04 13700   0.364E-02
   1389 T=   242. E= -.93503704E+03 F= -.94112735E+03 E0= -.94112735E+03  EK= 0.60903E+01 SP= 0.00E+00 SK= 0.00E+00
   1390 T=   238. E= -.93495559E+03 F= -.94095337E+03 E0= -.94095337E+03  EK= 0.59978E+01 SP= 0.00E+00 SK= 0.00E+00
   1391 T=   228. E= -.93497609E+03 F= -.94073459E+03 E0= -.94073459E+03  EK= 0.57585E+01 SP= 0.00E+00 SK= 0.00E+00
   1392 T=   220. E= -.93505761E+03 F= -.94059429E+03 E0= -.94059429E+03  EK= 0.55367E+01 SP= 0.00E+00 SK= 0.00E+00
   1393 T=   216. E= -.93514990E+03 F= -.94058324E+03 E0= -.94058324E+03  EK= 0.54333E+01 SP= 0.00E+00 SK= 0.00E+00
   1394 T=   216. E= -.93525180E+03 F= -.94069518E+03 E0= -.94069518E+03  EK= 0.54434E+01 SP= 0.00E+00 SK= 0.00E+00
   1395 T=   218. E= -.93533519E+03 F= -.94083341E+03 E0= -.94083341E+03  EK= 0.54982E+01 SP= 0.00E+00 SK= 0.00E+00
   1396 T=   218. E= -.93536207E+03 F= -.94086157E+03 E0= -.94086157E+03  EK= 0.54995E+01 SP= 0.00E+00 SK= 0.00E+00
   1397 T=   214. E= -.93534007E+03 F= -.94073980E+03 E0= -.94073980E+03  EK= 0.53997E+01 SP= 0.00E+00 SK= 0.00E+00
   1398 T=   210. E= -.93529210E+03 F= -.94057688E+03 E0= -.94057688E+03  EK= 0.52848E+01 SP= 0.00E+00 SK= 0.00E+00
       N       E                     dE             d eps       ncg     rms          rms(c)
DAV:   1    -0.922993562481E+03    0.70712E+01   -0.27050E+03 16238   0.101E+02
DAV:   2    -0.930354864174E+03   -0.73613E+01   -0.73596E+01 19116   0.152E+01
DAV:   3    -0.930430095594E+03   -0.75231E-01   -0.75228E-01 19476   0.158E+00
DAV:   4    -0.930431793919E+03   -0.16983E-02   -0.16983E-02 19196   0.228E-01    0.971E+00
DAV:   5    -0.929470830083E+03    0.96096E+00   -0.18803E+00 20820   0.370E+00    0.525E+00
DAV:   6    -0.929373989443E+03    0.96841E-01   -0.14646E+00 19580   0.279E+00    0.159E+00
DAV:   7    -0.929388767429E+03   -0.14778E-01   -0.29533E-01 19044   0.139E+00    0.611E-01
DAV:   8    -0.929384349260E+03    0.44182E-02   -0.31535E-02 19156   0.450E-01    0.322E-01
DAV:   9    -0.929380463763E+03    0.38855E-02   -0.13797E-02 18620   0.301E-01    0.176E-01
DAV:  10    -0.929378381656E+03    0.20821E-02   -0.33107E-03 21740   0.221E-01    0.655E-02
DAV:  11    -0.929377683837E+03    0.69782E-03   -0.20513E-03 18956   0.137E-01    0.615E-02
DAV:  12    -0.929377096576E+03    0.58726E-03   -0.38649E-04 16484   0.103E-01    0.248E-02
DAV:  13    -0.929376874757E+03    0.22182E-03   -0.41365E-04 17604   0.957E-02    0.358E-02
DAV:  14    -0.929376856341E+03    0.18416E-04   -0.46503E-04 19044   0.575E-02
   1399 T=   208. E= -.93520598E+03 F= -.94044641E+03 E0= -.94044641E+03  EK= 0.52404E+01 SP= 0.00E+00 SK= 0.00E+00
   1400 T=   205. E= -.93524490E+03 F= -.94042106E+03 E0= -.94042106E+03  EK= 0.51762E+01 SP= 0.00E+00 SK= 0.00E+00
   1401 T=   207. E= -.93527492E+03 F= -.94048495E+03 E0= -.94048495E+03  EK= 0.52100E+01 SP= 0.00E+00 SK= 0.00E+00
   1402 T=   214. E= -.93525649E+03 F= -.94064063E+03 E0= -.94064063E+03  EK= 0.53841E+01 SP= 0.00E+00 SK= 0.00E+00
   1403 T=   221. E= -.93528669E+03 F= -.94084697E+03 E0= -.94084697E+03  EK= 0.55603E+01 SP= 0.00E+00 SK= 0.00E+00
   1404 T=   230. E= -.93526965E+03 F= -.94107102E+03 E0= -.94107102E+03  EK= 0.58014E+01 SP= 0.00E+00 SK= 0.00E+00
   1405 T=   237. E= -.93526926E+03 F= -.94123956E+03 E0= -.94123956E+03  EK= 0.59703E+01 SP= 0.00E+00 SK= 0.00E+00
   1406 T=   239. E= -.93527835E+03 F= -.94131340E+03 E0= -.94131340E+03  EK= 0.60351E+01 SP= 0.00E+00 SK= 0.00E+00
   1407 T=   238. E= -.93527929E+03 F= -.94128992E+03 E0= -.94128992E+03  EK= 0.60106E+01 SP= 0.00E+00 SK= 0.00E+00
   1408 T=   236. E= -.93526173E+03 F= -.94120849E+03 E0= -.94120849E+03  EK= 0.59468E+01 SP= 0.00E+00 SK= 0.00E+00
       N       E                     dE             d eps       ncg     rms          rms(c)
DAV:   1    -0.923927335783E+03    0.54495E+01   -0.26404E+03 16238   0.100E+02
DAV:   2    -0.931122712081E+03   -0.71954E+01   -0.71937E+01 18980   0.150E+01
DAV:   3    -0.931196017150E+03   -0.73305E-01   -0.73301E-01 19468   0.156E+00
DAV:   4    -0.931197686312E+03   -0.16692E-02   -0.16691E-02 19076   0.226E-01    0.987E+00
DAV:   5    -0.930183282153E+03    0.10144E+01   -0.19347E+00 20428   0.379E+00    0.536E+00
DAV:   6    -0.930070127880E+03    0.11315E+00   -0.15495E+00 19524   0.295E+00    0.161E+00
DAV:   7    -0.930079277979E+03   -0.91501E-02   -0.31912E-01 18836   0.144E+00    0.638E-01
DAV:   8    -0.930072322854E+03    0.69551E-02   -0.34648E-02 19180   0.466E-01    0.345E-01
DAV:   9    -0.930065855687E+03    0.64672E-02   -0.15298E-02 18588   0.353E-01    0.186E-01
DAV:  10    -0.930062687872E+03    0.31678E-02   -0.40491E-03 21284   0.256E-01    0.823E-02
DAV:  11    -0.930061452865E+03    0.12350E-02   -0.32241E-03 18988   0.183E-01    0.779E-02
DAV:  12    -0.930060533239E+03    0.91963E-03   -0.84237E-04 20340   0.145E-01    0.332E-02
DAV:  13    -0.930060208473E+03    0.32477E-03   -0.59268E-04 18868   0.115E-01    0.424E-02
DAV:  14    -0.930060172378E+03    0.36095E-04   -0.61666E-04 19628   0.697E-02
   1409 T=   230. E= -.93531498E+03 F= -.94111725E+03 E0= -.94111725E+03  EK= 0.58023E+01 SP= 0.00E+00 SK= 0.00E+00
   1410 T=   225. E= -.93548521E+03 F= -.94115891E+03 E0= -.94115891E+03  EK= 0.56737E+01 SP= 0.00E+00 SK= 0.00E+00
   1411 T=   225. E= -.93556076E+03 F= -.94122192E+03 E0= -.94122192E+03  EK= 0.56612E+01 SP= 0.00E+00 SK= 0.00E+00
   1412 T=   226. E= -.93556955E+03 F= -.94127345E+03 E0= -.94127345E+03  EK= 0.57039E+01 SP= 0.00E+00 SK= 0.00E+00
   1413 T=   229. E= -.93552973E+03 F= -.94129571E+03 E0= -.94129571E+03  EK= 0.57660E+01 SP= 0.00E+00 SK= 0.00E+00
   1414 T=   228. E= -.93552364E+03 F= -.94126827E+03 E0= -.94126827E+03  EK= 0.57446E+01 SP= 0.00E+00 SK= 0.00E+00
   1415 T=   223. E= -.93555677E+03 F= -.94118772E+03 E0= -.94118772E+03  EK= 0.56310E+01 SP= 0.00E+00 SK= 0.00E+00
   1416 T=   222. E= -.93547016E+03 F= -.94107747E+03 E0= -.94107747E+03  EK= 0.56073E+01 SP= 0.00E+00 SK= 0.00E+00
   1417 T=   221. E= -.93539471E+03 F= -.94096533E+03 E0= -.94096533E+03  EK= 0.55706E+01 SP= 0.00E+00 SK= 0.00E+00
   1418 T=   216. E= -.93545416E+03 F= -.94090127E+03 E0= -.94090127E+03  EK= 0.54471E+01 SP= 0.00E+00 SK= 0.00E+00
       N       E                     dE             d eps       ncg     rms          rms(c)
DAV:   1    -0.923923772956E+03    0.61364E+01   -0.24897E+03 16238   0.974E+01
DAV:   2    -0.930725883723E+03   -0.68021E+01   -0.68005E+01 19132   0.146E+01
DAV:   3    -0.930794790764E+03   -0.68907E-01   -0.68903E-01 19532   0.152E+00
DAV:   4    -0.930796330662E+03   -0.15399E-02   -0.15399E-02 19188   0.219E-01    0.977E+00
DAV:   5    -0.929903025136E+03    0.89331E+00   -0.18209E+00 20212   0.363E+00    0.530E+00
DAV:   6    -0.929842232693E+03    0.60792E-01   -0.13907E+00 19572   0.272E+00    0.160E+00
DAV:   7    -0.929862177352E+03   -0.19945E-01   -0.27400E-01 18668   0.129E+00    0.603E-01
DAV:   8    -0.929858144265E+03    0.40331E-02   -0.28419E-02 18740   0.435E-01    0.289E-01
DAV:   9    -0.929855318471E+03    0.28258E-02   -0.10665E-02 18396   0.250E-01    0.152E-01
DAV:  10    -0.929853707888E+03    0.16106E-02   -0.26059E-03 22012   0.185E-01    0.503E-02
DAV:  11    -0.929853227002E+03    0.48089E-03   -0.11781E-03 18812   0.971E-02    0.492E-02
DAV:  12    -0.929852750449E+03    0.47655E-03   -0.30655E-04 15556   0.863E-02    0.199E-02
DAV:  13    -0.929852643991E+03    0.10646E-03   -0.34088E-04 16964   0.683E-02    0.323E-02
DAV:  14    -0.929852625303E+03    0.18688E-04   -0.21799E-04 14012   0.394E-02
   1419 T=   217. E= -.93545513E+03 F= -.94091446E+03 E0= -.94091446E+03  EK= 0.54593E+01 SP= 0.00E+00 SK= 0.00E+00
   1420 T=   220. E= -.93547926E+03 F= -.94103313E+03 E0= -.94103313E+03  EK= 0.55539E+01 SP= 0.00E+00 SK= 0.00E+00
   1421 T=   226. E= -.93548515E+03 F= -.94117247E+03 E0= -.94117247E+03  EK= 0.56873E+01 SP= 0.00E+00 SK= 0.00E+00
   1422 T=   229. E= -.93547060E+03 F= -.94125446E+03 E0= -.94125446E+03  EK= 0.57839E+01 SP= 0.00E+00 SK= 0.00E+00
   1423 T=   230. E= -.93543425E+03 F= -.94124027E+03 E0= -.94124027E+03  EK= 0.58060E+01 SP= 0.00E+00 SK= 0.00E+00
   1424 T=   228. E= -.93539881E+03 F= -.94114387E+03 E0= -.94114387E+03  EK= 0.57451E+01 SP= 0.00E+00 SK= 0.00E+00
   1425 T=   222. E= -.93544205E+03 F= -.94103500E+03 E0= -.94103500E+03  EK= 0.55930E+01 SP= 0.00E+00 SK= 0.00E+00
   1426 T=   214. E= -.93553600E+03 F= -.94093390E+03 E0= -.94093390E+03  EK= 0.53979E+01 SP= 0.00E+00 SK= 0.00E+00
   1427 T=   212. E= -.93553643E+03 F= -.94088737E+03 E0= -.94088737E+03  EK= 0.53509E+01 SP= 0.00E+00 SK= 0.00E+00
   1428 T=   215. E= -.93549216E+03 F= -.94090404E+03 E0= -.94090404E+03  EK= 0.54119E+01 SP= 0.00E+00 SK= 0.00E+00
       N       E                     dE             d eps       ncg     rms          rms(c)
DAV:   1    -0.924192934349E+03    0.56597E+01   -0.24781E+03 16238   0.972E+01
DAV:   2    -0.930739285674E+03   -0.65464E+01   -0.65447E+01 19108   0.144E+01
DAV:   3    -0.930806884735E+03   -0.67599E-01   -0.67595E-01 19556   0.151E+00
DAV:   4    -0.930808406567E+03   -0.15218E-02   -0.15218E-02 19132   0.216E-01    0.943E+00
DAV:   5    -0.929941811924E+03    0.86659E+00   -0.17562E+00 20316   0.357E+00    0.511E+00
DAV:   6    -0.929861678080E+03    0.80134E-01   -0.13592E+00 19620   0.276E+00    0.158E+00
DAV:   7    -0.929873610151E+03   -0.11932E-01   -0.30580E-01 19052   0.149E+00    0.618E-01
DAV:   8    -0.929868575026E+03    0.50351E-02   -0.39309E-02 19060   0.517E-01    0.310E-01
DAV:   9    -0.929864641307E+03    0.39337E-02   -0.14333E-02 18636   0.293E-01    0.178E-01
DAV:  10    -0.929862452551E+03    0.21888E-02   -0.33209E-03 22540   0.234E-01    0.648E-02
DAV:  11    -0.929861775668E+03    0.67688E-03   -0.23692E-03 19052   0.150E-01    0.696E-02
DAV:  12    -0.929861220764E+03    0.55490E-03   -0.52758E-04 19060   0.102E-01    0.266E-02
DAV:  13    -0.929860982137E+03    0.23863E-03   -0.33130E-04 16244   0.101E-01    0.370E-02
DAV:  14    -0.929860959465E+03    0.22672E-04   -0.46674E-04 19516   0.610E-02
   1429 T=   213. E= -.93555249E+03 F= -.94092819E+03 E0= -.94092819E+03  EK= 0.53757E+01 SP= 0.00E+00 SK= 0.00E+00
   1430 T=   213. E= -.93558824E+03 F= -.94096956E+03 E0= -.94096956E+03  EK= 0.53813E+01 SP= 0.00E+00 SK= 0.00E+00
   1431 T=   217. E= -.93547057E+03 F= -.94093465E+03 E0= -.94093465E+03  EK= 0.54641E+01 SP= 0.00E+00 SK= 0.00E+00
   1432 T=   218. E= -.93535266E+03 F= -.94083751E+03 E0= -.94083751E+03  EK= 0.54848E+01 SP= 0.00E+00 SK= 0.00E+00
   1433 T=   214. E= -.93530721E+03 F= -.94070303E+03 E0= -.94070303E+03  EK= 0.53958E+01 SP= 0.00E+00 SK= 0.00E+00
   1434 T=   209. E= -.93531687E+03 F= -.94057859E+03 E0= -.94057859E+03  EK= 0.52617E+01 SP= 0.00E+00 SK= 0.00E+00
   1435 T=   208. E= -.93530039E+03 F= -.94053823E+03 E0= -.94053823E+03  EK= 0.52378E+01 SP= 0.00E+00 SK= 0.00E+00
   1436 T=   212. E= -.93528264E+03 F= -.94063041E+03 E0= -.94063041E+03  EK= 0.53478E+01 SP= 0.00E+00 SK= 0.00E+00
   1437 T=   220. E= -.93524044E+03 F= -.94077893E+03 E0= -.94077893E+03  EK= 0.55385E+01 SP= 0.00E+00 SK= 0.00E+00
   1438 T=   224. E= -.93518485E+03 F= -.94083082E+03 E0= -.94083082E+03  EK= 0.56460E+01 SP= 0.00E+00 SK= 0.00E+00
       N       E                     dE             d eps       ncg     rms          rms(c)
DAV:   1    -0.924514617175E+03    0.53464E+01   -0.22841E+03 16238   0.934E+01
DAV:   2    -0.930525432767E+03   -0.60108E+01   -0.60096E+01 19044   0.137E+01
DAV:   3    -0.930587731143E+03   -0.62298E-01   -0.62296E-01 19484   0.143E+00
DAV:   4    -0.930589126704E+03   -0.13956E-02   -0.13955E-02 19124   0.206E-01    0.906E+00
DAV:   5    -0.929791043159E+03    0.79808E+00   -0.16318E+00 20676   0.354E+00    0.493E+00
DAV:   6    -0.929736030399E+03    0.55013E-01   -0.12741E+00 19532   0.261E+00    0.156E+00
DAV:   7    -0.929748973527E+03   -0.12943E-01   -0.24652E-01 18660   0.127E+00    0.555E-01
DAV:   8    -0.929745471356E+03    0.35022E-02   -0.25776E-02 18828   0.424E-01    0.278E-01
DAV:   9    -0.929743190700E+03    0.22807E-02   -0.13226E-02 18308   0.273E-01    0.178E-01
DAV:  10    -0.929741778058E+03    0.14126E-02   -0.31985E-03 22636   0.193E-01    0.510E-02
DAV:  11    -0.929741421838E+03    0.35622E-03   -0.12944E-03 18524   0.966E-02    0.473E-02
DAV:  12    -0.929741146799E+03    0.27504E-03   -0.19926E-04 14412   0.671E-02    0.231E-02
DAV:  13    -0.929741006362E+03    0.14044E-03   -0.21431E-04 14116   0.703E-02    0.209E-02
DAV:  14    -0.929740998174E+03    0.81884E-05   -0.18552E-04 13868   0.374E-02
   1439 T=   226. E= -.93511505E+03 F= -.94080405E+03 E0= -.94080405E+03  EK= 0.56890E+01 SP= 0.00E+00 SK= 0.00E+00
   1440 T=   224. E= -.93505710E+03 F= -.94070599E+03 E0= -.94070599E+03  EK= 0.56489E+01 SP= 0.00E+00 SK= 0.00E+00
   1441 T=   221. E= -.93507378E+03 F= -.94064507E+03 E0= -.94064507E+03  EK= 0.55713E+01 SP= 0.00E+00 SK= 0.00E+00
   1442 T=   224. E= -.93502775E+03 F= -.94067799E+03 E0= -.94067799E+03  EK= 0.56502E+01 SP= 0.00E+00 SK= 0.00E+00
   1443 T=   227. E= -.93501614E+03 F= -.94072935E+03 E0= -.94072935E+03  EK= 0.57132E+01 SP= 0.00E+00 SK= 0.00E+00
   1444 T=   227. E= -.93504596E+03 F= -.94077929E+03 E0= -.94077929E+03  EK= 0.57333E+01 SP= 0.00E+00 SK= 0.00E+00
   1445 T=   225. E= -.93511516E+03 F= -.94078545E+03 E0= -.94078545E+03  EK= 0.56703E+01 SP= 0.00E+00 SK= 0.00E+00
   1446 T=   220. E= -.93523135E+03 F= -.94077620E+03 E0= -.94077620E+03  EK= 0.55449E+01 SP= 0.00E+00 SK= 0.00E+00
   1447 T=   218. E= -.93529984E+03 F= -.94079356E+03 E0= -.94079356E+03  EK= 0.54937E+01 SP= 0.00E+00 SK= 0.00E+00
   1448 T=   220. E= -.93528125E+03 F= -.94082584E+03 E0= -.94082584E+03  EK= 0.55446E+01 SP= 0.00E+00 SK= 0.00E+00
       N       E                     dE             d eps       ncg     rms          rms(c)
DAV:   1    -0.923605846615E+03    0.61352E+01   -0.25365E+03 16238   0.982E+01
DAV:   2    -0.930707232555E+03   -0.71014E+01   -0.70996E+01 19188   0.148E+01
DAV:   3    -0.930778570215E+03   -0.71338E-01   -0.71334E-01 19548   0.155E+00
DAV:   4    -0.930780152017E+03   -0.15818E-02   -0.15818E-02 19188   0.223E-01    0.941E+00
DAV:   5    -0.929855172832E+03    0.92498E+00   -0.17979E+00 20428   0.356E+00    0.512E+00
DAV:   6    -0.929755825612E+03    0.99347E-01   -0.14235E+00 19540   0.269E+00    0.156E+00
DAV:   7    -0.929767418667E+03   -0.11593E-01   -0.29420E-01 18636   0.139E+00    0.608E-01
DAV:   8    -0.929762028909E+03    0.53898E-02   -0.33136E-02 18756   0.462E-01    0.309E-01
DAV:   9    -0.929758071193E+03    0.39577E-02   -0.14154E-02 18268   0.260E-01    0.176E-01
DAV:  10    -0.929756174183E+03    0.18970E-02   -0.30945E-03 22364   0.199E-01    0.568E-02
DAV:  11    -0.929755633221E+03    0.54096E-03   -0.15570E-03 18612   0.103E-01    0.553E-02
DAV:  12    -0.929755163459E+03    0.46976E-03   -0.30254E-04 15412   0.746E-02    0.208E-02
DAV:  13    -0.929755033273E+03    0.13019E-03   -0.29118E-04 15772   0.595E-02    0.293E-02
DAV:  14    -0.929755010800E+03    0.22473E-04   -0.16605E-04 13764   0.370E-02
   1449 T=   224. E= -.93517726E+03 F= -.94082374E+03 E0= -.94082374E+03  EK= 0.56465E+01 SP= 0.00E+00 SK= 0.00E+00
   1450 T=   224. E= -.93516582E+03 F= -.94080451E+03 E0= -.94080451E+03  EK= 0.56387E+01 SP= 0.00E+00 SK= 0.00E+00
   1451 T=   222. E= -.93522908E+03 F= -.94082518E+03 E0= -.94082518E+03  EK= 0.55961E+01 SP= 0.00E+00 SK= 0.00E+00
   1452 T=   224. E= -.93525402E+03 F= -.94091118E+03 E0= -.94091118E+03  EK= 0.56572E+01 SP= 0.00E+00 SK= 0.00E+00
   1453 T=   230. E= -.93522423E+03 F= -.94103249E+03 E0= -.94103249E+03  EK= 0.58083E+01 SP= 0.00E+00 SK= 0.00E+00
   1454 T=   233. E= -.93522471E+03 F= -.94110428E+03 E0= -.94110428E+03  EK= 0.58796E+01 SP= 0.00E+00 SK= 0.00E+00
   1455 T=   234. E= -.93525669E+03 F= -.94114388E+03 E0= -.94114388E+03  EK= 0.58872E+01 SP= 0.00E+00 SK= 0.00E+00
   1456 T=   234. E= -.93524856E+03 F= -.94113994E+03 E0= -.94113994E+03  EK= 0.58914E+01 SP= 0.00E+00 SK= 0.00E+00
   1457 T=   230. E= -.93526675E+03 F= -.94107203E+03 E0= -.94107203E+03  EK= 0.58053E+01 SP= 0.00E+00 SK= 0.00E+00
   1458 T=   226. E= -.93529238E+03 F= -.94099398E+03 E0= -.94099398E+03  EK= 0.57016E+01 SP= 0.00E+00 SK= 0.00E+00
   1459 T=   226. E= -.93524467E+03 F= -.94094823E+03 E0= -.94094823E+03  EK= 0.57036E+01 SP= 0.00E+00 SK= 0.00E+00
   1460 T=   227. E= -.93521090E+03 F= -.94093235E+03 E0= -.94093235E+03  EK= 0.57215E+01 SP= 0.00E+00 SK= 0.00E+00
   1461 T=   229. E= -.93515141E+03 F= -.94091311E+03 E0= -.94091311E+03  EK= 0.57617E+01 SP= 0.00E+00 SK= 0.00E+00
   1462 T=   229. E= -.93506437E+03 F= -.94084495E+03 E0= -.94084495E+03  EK= 0.57806E+01 SP= 0.00E+00 SK= 0.00E+00
   1463 T=   229. E= -.93499906E+03 F= -.94076200E+03 E0= -.94076200E+03  EK= 0.57629E+01 SP= 0.00E+00 SK= 0.00E+00
   1464 T=   225. E= -.93501687E+03 F= -.94067910E+03 E0= -.94067910E+03  EK= 0.56622E+01 SP= 0.00E+00 SK= 0.00E+00
   1465 T=   223. E= -.93504053E+03 F= -.94067338E+03 E0= -.94067338E+03  EK= 0.56329E+01 SP= 0.00E+00 SK= 0.00E+00
   1466 T=   227. E= -.93498954E+03 F= -.94071424E+03 E0= -.94071424E+03  EK= 0.57247E+01 SP= 0.00E+00 SK= 0.00E+00
   1467 T=   234. E= -.93492353E+03 F= -.94082971E+03 E0= -.94082971E+03  EK= 0.59062E+01 SP= 0.00E+00 SK= 0.00E+00
   1468 T=   240. E= -.93491322E+03 F= -.94097228E+03 E0= -.94097228E+03  EK= 0.60591E+01 SP= 0.00E+00 SK= 0.00E+00
   1469 T=   244. E= -.93496311E+03 F= -.94110489E+03 E0= -.94110489E+03  EK= 0.61418E+01 SP= 0.00E+00 SK= 0.00E+00
   1470 T=   244. E= -.93501879E+03 F= -.94118043E+03 E0= -.94118043E+03  EK= 0.61616E+01 SP= 0.00E+00 SK= 0.00E+00
   1471 T=   247. E= -.93497751E+03 F= -.94119979E+03 E0= -.94119979E+03  EK= 0.62223E+01 SP= 0.00E+00 SK= 0.00E+00
   1472 T=   247. E= -.93491275E+03 F= -.94114987E+03 E0= -.94114987E+03  EK= 0.62371E+01 SP= 0.00E+00 SK= 0.00E+00
   1473 T=   245. E= -.93492430E+03 F= -.94109314E+03 E0= -.94109314E+03  EK= 0.61688E+01 SP= 0.00E+00 SK= 0.00E+00
   1474 T=   244. E= -.93488403E+03 F= -.94103105E+03 E0= -.94103105E+03  EK= 0.61470E+01 SP= 0.00E+00 SK= 0.00E+00
   1475 T=   242. E= -.93486783E+03 F= -.94095769E+03 E0= -.94095769E+03  EK= 0.60899E+01 SP= 0.00E+00 SK= 0.00E+00
   1476 T=   239. E= -.93484069E+03 F= -.94086517E+03 E0= -.94086517E+03  EK= 0.60245E+01 SP= 0.00E+00 SK= 0.00E+00
   1477 T=   235. E= -.93481541E+03 F= -.94072706E+03 E0= -.94072706E+03  EK= 0.59117E+01 SP= 0.00E+00 SK= 0.00E+00
   1478 T=   228. E= -.93486182E+03 F= -.94060657E+03 E0= -.94060657E+03  EK= 0.57447E+01 SP= 0.00E+00 SK= 0.00E+00
   1479 T=   222. E= -.93492423E+03 F= -.94052766E+03 E0= -.94052766E+03  EK= 0.56034E+01 SP= 0.00E+00 SK= 0.00E+00
   1480 T=   222. E= -.93491926E+03 F= -.94050738E+03 E0= -.94050738E+03  EK= 0.55881E+01 SP= 0.00E+00 SK= 0.00E+00
   1481 T=   225. E= -.93486891E+03 F= -.94054566E+03 E0= -.94054566E+03  EK= 0.56768E+01 SP= 0.00E+00 SK= 0.00E+00
   1482 T=   228. E= -.93485860E+03 F= -.94060784E+03 E0= -.94060784E+03  EK= 0.57492E+01 SP= 0.00E+00 SK= 0.00E+00
   1483 T=   229. E= -.93488109E+03 F= -.94065429E+03 E0= -.94065429E+03  EK= 0.57732E+01 SP= 0.00E+00 SK= 0.00E+00
   1484 T=   229. E= -.93493020E+03 F= -.94069216E+03 E0= -.94069216E+03  EK= 0.57620E+01 SP= 0.00E+00 SK= 0.00E+00
   1485 T=   229. E= -.93494749E+03 F= -.94071219E+03 E0= -.94071219E+03  EK= 0.57647E+01 SP= 0.00E+00 SK= 0.00E+00
   1486 T=   231. E= -.93494883E+03 F= -.94076919E+03 E0= -.94076919E+03  EK= 0.58204E+01 SP= 0.00E+00 SK= 0.00E+00
   1487 T=   232. E= -.93500895E+03 F= -.94084761E+03 E0= -.94084761E+03  EK= 0.58387E+01 SP= 0.00E+00 SK= 0.00E+00
   1488 T=   232. E= -.93506208E+03 F= -.94091691E+03 E0= -.94091691E+03  EK= 0.58548E+01 SP= 0.00E+00 SK= 0.00E+00
   1489 T=   233. E= -.93511121E+03 F= -.94098495E+03 E0= -.94098495E+03  EK= 0.58737E+01 SP= 0.00E+00 SK= 0.00E+00
   1490 T=   231. E= -.93522800E+03 F= -.94104650E+03 E0= -.94104650E+03  EK= 0.58185E+01 SP= 0.00E+00 SK= 0.00E+00
   1491 T=   232. E= -.93526362E+03 F= -.94110007E+03 E0= -.94110007E+03  EK= 0.58365E+01 SP= 0.00E+00 SK= 0.00E+00
   1492 T=   236. E= -.93517286E+03 F= -.94112998E+03 E0= -.94112998E+03  EK= 0.59571E+01 SP= 0.00E+00 SK= 0.00E+00
   1493 T=   240. E= -.93509900E+03 F= -.94115930E+03 E0= -.94115930E+03  EK= 0.60603E+01 SP= 0.00E+00 SK= 0.00E+00
   1494 T=   237. E= -.93518901E+03 F= -.94115439E+03 E0= -.94115439E+03  EK= 0.59654E+01 SP= 0.00E+00 SK= 0.00E+00
   1495 T=   234. E= -.93520465E+03 F= -.94111398E+03 E0= -.94111398E+03  EK= 0.59093E+01 SP= 0.00E+00 SK= 0.00E+00
   1496 T=   236. E= -.93511611E+03 F= -.94107220E+03 E0= -.94107220E+03  EK= 0.59561E+01 SP= 0.00E+00 SK= 0.00E+00
   1497 T=   235. E= -.93511826E+03 F= -.94103898E+03 E0= -.94103898E+03  EK= 0.59207E+01 SP= 0.00E+00 SK= 0.00E+00
   1498 T=   233. E= -.93518855E+03 F= -.94106757E+03 E0= -.94106757E+03  EK= 0.58790E+01 SP= 0.00E+00 SK= 0.00E+00
   1499 T=   237. E= -.93521105E+03 F= -.94117234E+03 E0= -.94117234E+03  EK= 0.59613E+01 SP= 0.00E+00 SK= 0.00E+00
   1500 T=   239. E= -.93529614E+03 F= -.94131020E+03 E0= -.94131020E+03  EK= 0.60141E+01 SP= 0.00E+00 SK= 0.00E+00
   1501 T=   241. E= -.93534495E+03 F= -.94142375E+03 E0= -.94142375E+03  EK= 0.60788E+01 SP= 0.00E+00 SK= 0.00E+00
   1502 T=   242. E= -.93538646E+03 F= -.94147830E+03 E0= -.94147830E+03  EK= 0.60918E+01 SP= 0.00E+00 SK= 0.00E+00
   1503 T=   242. E= -.93543059E+03 F= -.94152456E+03 E0= -.94152456E+03  EK= 0.60940E+01 SP= 0.00E+00 SK= 0.00E+00
   1504 T=   246. E= -.93537359E+03 F= -.94157244E+03 E0= -.94157244E+03  EK= 0.61988E+01 SP= 0.00E+00 SK= 0.00E+00
   1505 T=   246. E= -.93536506E+03 F= -.94157391E+03 E0= -.94157391E+03  EK= 0.62089E+01 SP= 0.00E+00 SK= 0.00E+00
   1506 T=   245. E= -.93538131E+03 F= -.94154505E+03 E0= -.94154505E+03  EK= 0.61637E+01 SP= 0.00E+00 SK= 0.00E+00
   1507 T=   240. E= -.93544307E+03 F= -.94149579E+03 E0= -.94149579E+03  EK= 0.60527E+01 SP= 0.00E+00 SK= 0.00E+00
   1508 T=   235. E= -.93547462E+03 F= -.94140391E+03 E0= -.94140391E+03  EK= 0.59293E+01 SP= 0.00E+00 SK= 0.00E+00
   1509 T=   231. E= -.93547588E+03 F= -.94129912E+03 E0= -.94129912E+03  EK= 0.58232E+01 SP= 0.00E+00 SK= 0.00E+00
   1510 T=   224. E= -.93551102E+03 F= -.94115917E+03 E0= -.94115917E+03  EK= 0.56481E+01 SP= 0.00E+00 SK= 0.00E+00
   1511 T=   219. E= -.93550277E+03 F= -.94102095E+03 E0= -.94102095E+03  EK= 0.55182E+01 SP= 0.00E+00 SK= 0.00E+00
   1512 T=   212. E= -.93553760E+03 F= -.94088926E+03 E0= -.94088926E+03  EK= 0.53517E+01 SP= 0.00E+00 SK= 0.00E+00
   1513 T=   209. E= -.93553395E+03 F= -.94081156E+03 E0= -.94081156E+03  EK= 0.52776E+01 SP= 0.00E+00 SK= 0.00E+00
   1514 T=   213. E= -.93547886E+03 F= -.94084608E+03 E0= -.94084608E+03  EK= 0.53672E+01 SP= 0.00E+00 SK= 0.00E+00
   1515 T=   216. E= -.93547595E+03 F= -.94092974E+03 E0= -.94092974E+03  EK= 0.54538E+01 SP= 0.00E+00 SK= 0.00E+00
   1516 T=   218. E= -.93552657E+03 F= -.94102270E+03 E0= -.94102270E+03  EK= 0.54961E+01 SP= 0.00E+00 SK= 0.00E+00
   1517 T=   218. E= -.93555850E+03 F= -.94105991E+03 E0= -.94105991E+03  EK= 0.55014E+01 SP= 0.00E+00 SK= 0.00E+00
   1518 T=   217. E= -.93554430E+03 F= -.94101736E+03 E0= -.94101736E+03  EK= 0.54731E+01 SP= 0.00E+00 SK= 0.00E+00
   1519 T=   212. E= -.93557101E+03 F= -.94091433E+03 E0= -.94091433E+03  EK= 0.53433E+01 SP= 0.00E+00 SK= 0.00E+00
   1520 T=   208. E= -.93559970E+03 F= -.94084395E+03 E0= -.94084395E+03  EK= 0.52443E+01 SP= 0.00E+00 SK= 0.00E+00
   1521 T=   207. E= -.93562525E+03 F= -.94084860E+03 E0= -.94084860E+03  EK= 0.52233E+01 SP= 0.00E+00 SK= 0.00E+00
   1522 T=   209. E= -.93563505E+03 F= -.94091208E+03 E0= -.94091208E+03  EK= 0.52770E+01 SP= 0.00E+00 SK= 0.00E+00
   1523 T=   213. E= -.93563281E+03 F= -.94101365E+03 E0= -.94101365E+03  EK= 0.53808E+01 SP= 0.00E+00 SK= 0.00E+00
   1524 T=   216. E= -.93560758E+03 F= -.94105123E+03 E0= -.94105123E+03  EK= 0.54436E+01 SP= 0.00E+00 SK= 0.00E+00
   1525 T=   210. E= -.93567415E+03 F= -.94096528E+03 E0= -.94096528E+03  EK= 0.52911E+01 SP= 0.00E+00 SK= 0.00E+00
   1526 T=   200. E= -.93575134E+03 F= -.94079045E+03 E0= -.94079045E+03  EK= 0.50391E+01 SP= 0.00E+00 SK= 0.00E+00
   1527 T=   193. E= -.93571918E+03 F= -.94059092E+03 E0= -.94059092E+03  EK= 0.48717E+01 SP= 0.00E+00 SK= 0.00E+00
   1528 T=   186. E= -.93577605E+03 F= -.94045605E+03 E0= -.94045605E+03  EK= 0.46800E+01 SP= 0.00E+00 SK= 0.00E+00
   1529 T=   181. E= -.93587625E+03 F= -.94042901E+03 E0= -.94042901E+03  EK= 0.45528E+01 SP= 0.00E+00 SK= 0.00E+00
   1530 T=   186. E= -.93588206E+03 F= -.94056280E+03 E0= -.94056280E+03  EK= 0.46807E+01 SP= 0.00E+00 SK= 0.00E+00
   1531 T=   195. E= -.93582036E+03 F= -.94073946E+03 E0= -.94073946E+03  EK= 0.49191E+01 SP= 0.00E+00 SK= 0.00E+00
   1532 T=   201. E= -.93582414E+03 F= -.94088527E+03 E0= -.94088527E+03  EK= 0.50611E+01 SP= 0.00E+00 SK= 0.00E+00
   1533 T=   200. E= -.93582424E+03 F= -.94085780E+03 E0= -.94085780E+03  EK= 0.50336E+01 SP= 0.00E+00 SK= 0.00E+00
   1534 T=   195. E= -.93578028E+03 F= -.94069864E+03 E0= -.94069864E+03  EK= 0.49184E+01 SP= 0.00E+00 SK= 0.00E+00
   1535 T=   189. E= -.93577443E+03 F= -.94053231E+03 E0= -.94053231E+03  EK= 0.47579E+01 SP= 0.00E+00 SK= 0.00E+00
   1536 T=   187. E= -.93580047E+03 F= -.94050889E+03 E0= -.94050889E+03  EK= 0.47084E+01 SP= 0.00E+00 SK= 0.00E+00
   1537 T=   194. E= -.93575129E+03 F= -.94065372E+03 E0= -.94065372E+03  EK= 0.49024E+01 SP= 0.00E+00 SK= 0.00E+00
   1538 T=   207. E= -.93570877E+03 F= -.94091871E+03 E0= -.94091871E+03  EK= 0.52099E+01 SP= 0.00E+00 SK= 0.00E+00
   1539 T=   217. E= -.93570715E+03 F= -.94116473E+03 E0= -.94116473E+03  EK= 0.54576E+01 SP= 0.00E+00 SK= 0.00E+00
   1540 T=   222. E= -.93572798E+03 F= -.94132091E+03 E0= -.94132091E+03  EK= 0.55929E+01 SP= 0.00E+00 SK= 0.00E+00
   1541 T=   226. E= -.93564645E+03 F= -.94133700E+03 E0= -.94133700E+03  EK= 0.56905E+01 SP= 0.00E+00 SK= 0.00E+00
   1542 T=   228. E= -.93548784E+03 F= -.94123752E+03 E0= -.94123752E+03  EK= 0.57497E+01 SP= 0.00E+00 SK= 0.00E+00
   1543 T=   228. E= -.93536794E+03 F= -.94111128E+03 E0= -.94111128E+03  EK= 0.57433E+01 SP= 0.00E+00 SK= 0.00E+00
   1544 T=   223. E= -.93538111E+03 F= -.94099411E+03 E0= -.94099411E+03  EK= 0.56130E+01 SP= 0.00E+00 SK= 0.00E+00
   1545 T=   220. E= -.93543726E+03 F= -.94097827E+03 E0= -.94097827E+03  EK= 0.55410E+01 SP= 0.00E+00 SK= 0.00E+00
   1546 T=   226. E= -.93537541E+03 F= -.94107591E+03 E0= -.94107591E+03  EK= 0.57005E+01 SP= 0.00E+00 SK= 0.00E+00
   1547 T=   233. E= -.93536462E+03 F= -.94123781E+03 E0= -.94123781E+03  EK= 0.58732E+01 SP= 0.00E+00 SK= 0.00E+00
   1548 T=   234. E= -.93546560E+03 F= -.94135930E+03 E0= -.94135930E+03  EK= 0.58937E+01 SP= 0.00E+00 SK= 0.00E+00
   1549 T=   232. E= -.93549110E+03 F= -.94134746E+03 E0= -.94134746E+03  EK= 0.58564E+01 SP= 0.00E+00 SK= 0.00E+00
   1550 T=   229. E= -.93542441E+03 F= -.94120652E+03 E0= -.94120652E+03  EK= 0.57821E+01 SP= 0.00E+00 SK= 0.00E+00
   1551 T=   227. E= -.93531301E+03 F= -.94102293E+03 E0= -.94102293E+03  EK= 0.57099E+01 SP= 0.00E+00 SK= 0.00E+00
   1552 T=   223. E= -.93526297E+03 F= -.94089363E+03 E0= -.94089363E+03  EK= 0.56307E+01 SP= 0.00E+00 SK= 0.00E+00
   1553 T=   224. E= -.93522095E+03 F= -.94087432E+03 E0= -.94087432E+03  EK= 0.56534E+01 SP= 0.00E+00 SK= 0.00E+00
   1554 T=   225. E= -.93525674E+03 F= -.94092865E+03 E0= -.94092865E+03  EK= 0.56719E+01 SP= 0.00E+00 SK= 0.00E+00
   1555 T=   225. E= -.93528817E+03 F= -.94096671E+03 E0= -.94096671E+03  EK= 0.56785E+01 SP= 0.00E+00 SK= 0.00E+00
   1556 T=   226. E= -.93523745E+03 F= -.94094276E+03 E0= -.94094276E+03  EK= 0.57053E+01 SP= 0.00E+00 SK= 0.00E+00
   1557 T=   226. E= -.93518443E+03 F= -.94087167E+03 E0= -.94087167E+03  EK= 0.56872E+01 SP= 0.00E+00 SK= 0.00E+00
   1558 T=   222. E= -.93518662E+03 F= -.94077978E+03 E0= -.94077978E+03  EK= 0.55932E+01 SP= 0.00E+00 SK= 0.00E+00
   1559 T=   219. E= -.93516213E+03 F= -.94069182E+03 E0= -.94069182E+03  EK= 0.55297E+01 SP= 0.00E+00 SK= 0.00E+00
   1560 T=   219. E= -.93506648E+03 F= -.94059073E+03 E0= -.94059073E+03  EK= 0.55243E+01 SP= 0.00E+00 SK= 0.00E+00
   1561 T=   217. E= -.93506563E+03 F= -.94053586E+03 E0= -.94053586E+03  EK= 0.54702E+01 SP= 0.00E+00 SK= 0.00E+00
   1562 T=   216. E= -.93514816E+03 F= -.94059589E+03 E0= -.94059589E+03  EK= 0.54477E+01 SP= 0.00E+00 SK= 0.00E+00
   1563 T=   219. E= -.93521405E+03 F= -.94074058E+03 E0= -.94074058E+03  EK= 0.55265E+01 SP= 0.00E+00 SK= 0.00E+00
   1564 T=   226. E= -.93519363E+03 F= -.94090219E+03 E0= -.94090219E+03  EK= 0.57086E+01 SP= 0.00E+00 SK= 0.00E+00
   1565 T=   232. E= -.93511041E+03 F= -.94097050E+03 E0= -.94097050E+03  EK= 0.58601E+01 SP= 0.00E+00 SK= 0.00E+00
   1566 T=   232. E= -.93506964E+03 F= -.94091422E+03 E0= -.94091422E+03  EK= 0.58446E+01 SP= 0.00E+00 SK= 0.00E+00
   1567 T=   228. E= -.93502549E+03 F= -.94076946E+03 E0= -.94076946E+03  EK= 0.57440E+01 SP= 0.00E+00 SK= 0.00E+00
   1568 T=   227. E= -.93492274E+03 F= -.94065270E+03 E0= -.94065270E+03  EK= 0.57300E+01 SP= 0.00E+00 SK= 0.00E+00
   1569 T=   230. E= -.93482786E+03 F= -.94063618E+03 E0= -.94063618E+03  EK= 0.58083E+01 SP= 0.00E+00 SK= 0.00E+00
   1570 T=   235. E= -.93477717E+03 F= -.94070861E+03 E0= -.94070861E+03  EK= 0.59314E+01 SP= 0.00E+00 SK= 0.00E+00
   1571 T=   240. E= -.93476552E+03 F= -.94082136E+03 E0= -.94082136E+03  EK= 0.60558E+01 SP= 0.00E+00 SK= 0.00E+00
   1572 T=   241. E= -.93485504E+03 F= -.94091887E+03 E0= -.94091887E+03  EK= 0.60638E+01 SP= 0.00E+00 SK= 0.00E+00
   1573 T=   239. E= -.93495964E+03 F= -.94097625E+03 E0= -.94097625E+03  EK= 0.60166E+01 SP= 0.00E+00 SK= 0.00E+00
   1574 T=   235. E= -.93503696E+03 F= -.94096654E+03 E0= -.94096654E+03  EK= 0.59296E+01 SP= 0.00E+00 SK= 0.00E+00
       N       E                     dE             d eps       ncg     rms          rms(c)
DAV:   1    -0.526168370571E+03    0.40359E+03   -0.38289E+04 16238   0.360E+02
DAV:   2    -0.930372622379E+03   -0.40420E+03   -0.39985E+03 18742   0.102E+02
DAV:   3    -0.939715760506E+03   -0.93431E+01   -0.93362E+01 18916   0.177E+01
DAV:   4    -0.939864514053E+03   -0.14875E+00   -0.14873E+00 19252   0.213E+00    0.314E+01
DAV:   5    -0.929460191244E+03    0.10404E+02   -0.23441E+01 18340   0.104E+01    0.174E+01
DAV:   6    -0.929311588752E+03    0.14860E+00   -0.14106E+01 18652   0.761E+00    0.597E+00
DAV:   7    -0.929823955202E+03   -0.51237E+00   -0.24855E+00 18580   0.378E+00    0.207E+00
DAV:   8    -0.929853399271E+03   -0.29444E-01   -0.28531E-01 18604   0.124E+00    0.970E-01
DAV:   9    -0.929853315437E+03    0.83834E-04   -0.90791E-02 18364   0.662E-01    0.384E-01
DAV:  10    -0.929850353338E+03    0.29621E-02   -0.12578E-02 20844   0.339E-01    0.164E-01
DAV:  11    -0.929849789111E+03    0.56423E-03   -0.89164E-03 18716   0.222E-01    0.113E-01
DAV:  12    -0.929849170959E+03    0.61815E-03   -0.11006E-03 18892   0.988E-02    0.501E-02
DAV:  13    -0.929848770452E+03    0.40051E-03   -0.64475E-04 17444   0.907E-02    0.390E-02
DAV:  14    -0.929848648990E+03    0.12146E-03   -0.24046E-04 14756   0.657E-02    0.279E-02
DAV:  15    -0.929848633892E+03    0.15098E-04   -0.22299E-04 14676   0.377E-02
   1575 T=   233. E= -.93500150E+03 F= -.94087509E+03 E0= -.94087509E+03  EK= 0.58736E+01 SP= 0.00E+00 SK= 0.00E+00
   1576 T=   230. E= -.93501098E+03 F= -.94081341E+03 E0= -.94081341E+03  EK= 0.58024E+01 SP= 0.00E+00 SK= 0.00E+00
   1577 T=   226. E= -.93503436E+03 F= -.94074251E+03 E0= -.94074251E+03  EK= 0.57082E+01 SP= 0.00E+00 SK= 0.00E+00
   1578 T=   227. E= -.93497773E+03 F= -.94068878E+03 E0= -.94068878E+03  EK= 0.57110E+01 SP= 0.00E+00 SK= 0.00E+00
   1579 T=   231. E= -.93489573E+03 F= -.94072072E+03 E0= -.94072072E+03  EK= 0.58250E+01 SP= 0.00E+00 SK= 0.00E+00
   1580 T=   233. E= -.93487302E+03 F= -.94074984E+03 E0= -.94074984E+03  EK= 0.58768E+01 SP= 0.00E+00 SK= 0.00E+00
   1581 T=   232. E= -.93488942E+03 F= -.94074721E+03 E0= -.94074721E+03  EK= 0.58578E+01 SP= 0.00E+00 SK= 0.00E+00
   1582 T=   230. E= -.93489493E+03 F= -.94068424E+03 E0= -.94068424E+03  EK= 0.57893E+01 SP= 0.00E+00 SK= 0.00E+00
   1583 T=   227. E= -.93489303E+03 F= -.94060598E+03 E0= -.94060598E+03  EK= 0.57130E+01 SP= 0.00E+00 SK= 0.00E+00
   1584 T=   225. E= -.93486322E+03 F= -.94054339E+03 E0= -.94054339E+03  EK= 0.56802E+01 SP= 0.00E+00 SK= 0.00E+00
       N       E                     dE             d eps       ncg     rms          rms(c)
DAV:   1    -0.924482683913E+03    0.53660E+01   -0.22215E+03 16238   0.922E+01
DAV:   2    -0.930218886649E+03   -0.57362E+01   -0.57347E+01 19236   0.135E+01
DAV:   3    -0.930279978906E+03   -0.61092E-01   -0.61089E-01 19500   0.142E+00
DAV:   4    -0.930281380558E+03   -0.14017E-02   -0.14016E-02 19188   0.205E-01    0.954E+00
DAV:   5    -0.929469530312E+03    0.81185E+00   -0.18315E+00 20500   0.366E+00    0.513E+00
DAV:   6    -0.929425569881E+03    0.43960E-01   -0.12038E+00 19388   0.255E+00    0.167E+00
DAV:   7    -0.929441658994E+03   -0.16089E-01   -0.25783E-01 19116   0.130E+00    0.596E-01
DAV:   8    -0.929436647863E+03    0.50111E-02   -0.29036E-02 18796   0.447E-01    0.293E-01
DAV:   9    -0.929432755911E+03    0.38920E-02   -0.11350E-02 18252   0.267E-01    0.148E-01
DAV:  10    -0.929430985011E+03    0.17709E-02   -0.25525E-03 21604   0.191E-01    0.595E-02
DAV:  11    -0.929430273481E+03    0.71153E-03   -0.15281E-03 18828   0.124E-01    0.576E-02
DAV:  12    -0.929429777959E+03    0.49552E-03   -0.38853E-04 16820   0.991E-02    0.245E-02
DAV:  13    -0.929429580892E+03    0.19707E-03   -0.29523E-04 15796   0.841E-02    0.296E-02
DAV:  14    -0.929429561542E+03    0.19350E-04   -0.32473E-04 18068   0.492E-02
   1585 T=   228. E= -.93471952E+03 F= -.94047101E+03 E0= -.94047101E+03  EK= 0.57515E+01 SP= 0.00E+00 SK= 0.00E+00
   1586 T=   229. E= -.93481651E+03 F= -.94058009E+03 E0= -.94058009E+03  EK= 0.57636E+01 SP= 0.00E+00 SK= 0.00E+00
   1587 T=   225. E= -.93490166E+03 F= -.94057708E+03 E0= -.94057708E+03  EK= 0.56754E+01 SP= 0.00E+00 SK= 0.00E+00
   1588 T=   222. E= -.93494736E+03 F= -.94055053E+03 E0= -.94055053E+03  EK= 0.56032E+01 SP= 0.00E+00 SK= 0.00E+00
   1589 T=   223. E= -.93493189E+03 F= -.94054753E+03 E0= -.94054753E+03  EK= 0.56156E+01 SP= 0.00E+00 SK= 0.00E+00
   1590 T=   224. E= -.93492713E+03 F= -.94057770E+03 E0= -.94057770E+03  EK= 0.56506E+01 SP= 0.00E+00 SK= 0.00E+00
   1591 T=   226. E= -.93494583E+03 F= -.94064166E+03 E0= -.94064166E+03  EK= 0.56958E+01 SP= 0.00E+00 SK= 0.00E+00
   1592 T=   227. E= -.93490442E+03 F= -.94062755E+03 E0= -.94062755E+03  EK= 0.57231E+01 SP= 0.00E+00 SK= 0.00E+00
   1593 T=   224. E= -.93486485E+03 F= -.94049963E+03 E0= -.94049963E+03  EK= 0.56348E+01 SP= 0.00E+00 SK= 0.00E+00
   1594 T=   219. E= -.93478569E+03 F= -.94031193E+03 E0= -.94031193E+03  EK= 0.55262E+01 SP= 0.00E+00 SK= 0.00E+00
       N       E                     dE             d eps       ncg     rms          rms(c)
DAV:   1    -0.924244253799E+03    0.51853E+01   -0.22259E+03 16238   0.929E+01
DAV:   2    -0.929992228108E+03   -0.57480E+01   -0.57464E+01 19292   0.134E+01
DAV:   3    -0.930053261770E+03   -0.61034E-01   -0.61029E-01 19500   0.142E+00
DAV:   4    -0.930054681870E+03   -0.14201E-02   -0.14200E-02 19252   0.206E-01    0.958E+00
DAV:   5    -0.929145430083E+03    0.90925E+00   -0.20325E+00 20468   0.376E+00    0.510E+00
DAV:   6    -0.929072077484E+03    0.73353E-01   -0.11917E+00 19372   0.251E+00    0.174E+00
DAV:   7    -0.929088405998E+03   -0.16329E-01   -0.26505E-01 20004   0.133E+00    0.612E-01
DAV:   8    -0.929083994929E+03    0.44111E-02   -0.33461E-02 19652   0.470E-01    0.305E-01
DAV:   9    -0.929080382223E+03    0.36127E-02   -0.10755E-02 18396   0.255E-01    0.141E-01
DAV:  10    -0.929078818758E+03    0.15635E-02   -0.21743E-03 22260   0.187E-01    0.593E-02
DAV:  11    -0.929078205306E+03    0.61345E-03   -0.15602E-03 18756   0.131E-01    0.564E-02
DAV:  12    -0.929077802200E+03    0.40311E-03   -0.40084E-04 18196   0.933E-02    0.241E-02
DAV:  13    -0.929077617456E+03    0.18474E-03   -0.19570E-04 13876   0.824E-02    0.253E-02
DAV:  14    -0.929077595496E+03    0.21960E-04   -0.29610E-04 17212   0.536E-02
   1595 T=   220. E= -.93459660E+03 F= -.94013071E+03 E0= -.94013071E+03  EK= 0.55341E+01 SP= 0.00E+00 SK= 0.00E+00
   1596 T=   220. E= -.93459483E+03 F= -.94013440E+03 E0= -.94013440E+03  EK= 0.55396E+01 SP= 0.00E+00 SK= 0.00E+00
   1597 T=   219. E= -.93470528E+03 F= -.94021771E+03 E0= -.94021771E+03  EK= 0.55124E+01 SP= 0.00E+00 SK= 0.00E+00
   1598 T=   223. E= -.93474419E+03 F= -.94036450E+03 E0= -.94036450E+03  EK= 0.56203E+01 SP= 0.00E+00 SK= 0.00E+00
   1599 T=   228. E= -.93473300E+03 F= -.94047208E+03 E0= -.94047208E+03  EK= 0.57391E+01 SP= 0.00E+00 SK= 0.00E+00
   1600 T=   227. E= -.93473829E+03 F= -.94045302E+03 E0= -.94045302E+03  EK= 0.57147E+01 SP= 0.00E+00 SK= 0.00E+00
   1601 T=   226. E= -.93465256E+03 F= -.94035578E+03 E0= -.94035578E+03  EK= 0.57032E+01 SP= 0.00E+00 SK= 0.00E+00
   1602 T=   225. E= -.93455859E+03 F= -.94023082E+03 E0= -.94023082E+03  EK= 0.56722E+01 SP= 0.00E+00 SK= 0.00E+00
   1603 T=   228. E= -.93444975E+03 F= -.94019187E+03 E0= -.94019187E+03  EK= 0.57421E+01 SP= 0.00E+00 SK= 0.00E+00
   1604 T=   233. E= -.93434526E+03 F= -.94022652E+03 E0= -.94022652E+03  EK= 0.58813E+01 SP= 0.00E+00 SK= 0.00E+00
   1605 T=   237. E= -.93432410E+03 F= -.94029011E+03 E0= -.94029011E+03  EK= 0.59660E+01 SP= 0.00E+00 SK= 0.00E+00
   1606 T=   242. E= -.93431213E+03 F= -.94040207E+03 E0= -.94040207E+03  EK= 0.60899E+01 SP= 0.00E+00 SK= 0.00E+00
   1607 T=   246. E= -.93433478E+03 F= -.94053335E+03 E0= -.94053335E+03  EK= 0.61986E+01 SP= 0.00E+00 SK= 0.00E+00
   1608 T=   248. E= -.93435093E+03 F= -.94061020E+03 E0= -.94061020E+03  EK= 0.62593E+01 SP= 0.00E+00 SK= 0.00E+00
   1609 T=   245. E= -.93436518E+03 F= -.94054192E+03 E0= -.94054192E+03  EK= 0.61767E+01 SP= 0.00E+00 SK= 0.00E+00
   1610 T=   235. E= -.93442995E+03 F= -.94034769E+03 E0= -.94034769E+03  EK= 0.59177E+01 SP= 0.00E+00 SK= 0.00E+00
   1611 T=   229. E= -.93437966E+03 F= -.94015980E+03 E0= -.94015980E+03  EK= 0.57801E+01 SP= 0.00E+00 SK= 0.00E+00
   1612 T=   231. E= -.93428911E+03 F= -.94010378E+03 E0= -.94010378E+03  EK= 0.58147E+01 SP= 0.00E+00 SK= 0.00E+00
   1613 T=   235. E= -.93425041E+03 F= -.94018428E+03 E0= -.94018428E+03  EK= 0.59339E+01 SP= 0.00E+00 SK= 0.00E+00
   1614 T=   241. E= -.93420733E+03 F= -.94028564E+03 E0= -.94028564E+03  EK= 0.60783E+01 SP= 0.00E+00 SK= 0.00E+00
   1615 T=   244. E= -.93421532E+03 F= -.94037082E+03 E0= -.94037082E+03  EK= 0.61555E+01 SP= 0.00E+00 SK= 0.00E+00
   1616 T=   245. E= -.93422028E+03 F= -.94040163E+03 E0= -.94040163E+03  EK= 0.61813E+01 SP= 0.00E+00 SK= 0.00E+00
   1617 T=   247. E= -.93419325E+03 F= -.94040664E+03 E0= -.94040664E+03  EK= 0.62134E+01 SP= 0.00E+00 SK= 0.00E+00
   1618 T=   246. E= -.93419743E+03 F= -.94040588E+03 E0= -.94040588E+03  EK= 0.62085E+01 SP= 0.00E+00 SK= 0.00E+00
   1619 T=   245. E= -.93425549E+03 F= -.94042125E+03 E0= -.94042125E+03  EK= 0.61658E+01 SP= 0.00E+00 SK= 0.00E+00
   1620 T=   245. E= -.93431192E+03 F= -.94049210E+03 E0= -.94049210E+03  EK= 0.61802E+01 SP= 0.00E+00 SK= 0.00E+00
   1621 T=   248. E= -.93434006E+03 F= -.94059146E+03 E0= -.94059146E+03  EK= 0.62514E+01 SP= 0.00E+00 SK= 0.00E+00
   1622 T=   251. E= -.93433595E+03 F= -.94065194E+03 E0= -.94065194E+03  EK= 0.63160E+01 SP= 0.00E+00 SK= 0.00E+00
   1623 T=   250. E= -.93434864E+03 F= -.94065850E+03 E0= -.94065850E+03  EK= 0.63099E+01 SP= 0.00E+00 SK= 0.00E+00
   1624 T=   243. E= -.93442681E+03 F= -.94055837E+03 E0= -.94055837E+03  EK= 0.61316E+01 SP= 0.00E+00 SK= 0.00E+00
   1625 T=   236. E= -.93447535E+03 F= -.94042760E+03 E0= -.94042760E+03  EK= 0.59523E+01 SP= 0.00E+00 SK= 0.00E+00
   1626 T=   230. E= -.93455259E+03 F= -.94035596E+03 E0= -.94035596E+03  EK= 0.58034E+01 SP= 0.00E+00 SK= 0.00E+00
   1627 T=   229. E= -.93461077E+03 F= -.94038991E+03 E0= -.94038991E+03  EK= 0.57791E+01 SP= 0.00E+00 SK= 0.00E+00
   1628 T=   233. E= -.93463891E+03 F= -.94051282E+03 E0= -.94051282E+03  EK= 0.58739E+01 SP= 0.00E+00 SK= 0.00E+00
   1629 T=   236. E= -.93466349E+03 F= -.94061684E+03 E0= -.94061684E+03  EK= 0.59533E+01 SP= 0.00E+00 SK= 0.00E+00
   1630 T=   241. E= -.93461331E+03 F= -.94068947E+03 E0= -.94068947E+03  EK= 0.60762E+01 SP= 0.00E+00 SK= 0.00E+00
   1631 T=   247. E= -.93450329E+03 F= -.94072968E+03 E0= -.94072968E+03  EK= 0.62264E+01 SP= 0.00E+00 SK= 0.00E+00
   1632 T=   247. E= -.93448806E+03 F= -.94071622E+03 E0= -.94071622E+03  EK= 0.62282E+01 SP= 0.00E+00 SK= 0.00E+00
   1633 T=   243. E= -.93453305E+03 F= -.94066347E+03 E0= -.94066347E+03  EK= 0.61304E+01 SP= 0.00E+00 SK= 0.00E+00
   1634 T=   241. E= -.93454324E+03 F= -.94062500E+03 E0= -.94062500E+03  EK= 0.60818E+01 SP= 0.00E+00 SK= 0.00E+00
   1635 T=   238. E= -.93459537E+03 F= -.94058873E+03 E0= -.94058873E+03  EK= 0.59934E+01 SP= 0.00E+00 SK= 0.00E+00
   1636 T=   236. E= -.93466345E+03 F= -.94060319E+03 E0= -.94060319E+03  EK= 0.59397E+01 SP= 0.00E+00 SK= 0.00E+00
   1637 T=   236. E= -.93468672E+03 F= -.94062879E+03 E0= -.94062879E+03  EK= 0.59421E+01 SP= 0.00E+00 SK= 0.00E+00
   1638 T=   237. E= -.93468349E+03 F= -.94064506E+03 E0= -.94064506E+03  EK= 0.59616E+01 SP= 0.00E+00 SK= 0.00E+00
   1639 T=   234. E= -.93472531E+03 F= -.94062916E+03 E0= -.94062916E+03  EK= 0.59038E+01 SP= 0.00E+00 SK= 0.00E+00
   1640 T=   230. E= -.93477717E+03 F= -.94056924E+03 E0= -.94056924E+03  EK= 0.57921E+01 SP= 0.00E+00 SK= 0.00E+00
   1641 T=   225. E= -.93483254E+03 F= -.94050701E+03 E0= -.94050701E+03  EK= 0.56745E+01 SP= 0.00E+00 SK= 0.00E+00
   1642 T=   220. E= -.93493223E+03 F= -.94046560E+03 E0= -.94046560E+03  EK= 0.55334E+01 SP= 0.00E+00 SK= 0.00E+00
   1643 T=   216. E= -.93500652E+03 F= -.94045922E+03 E0= -.94045922E+03  EK= 0.54527E+01 SP= 0.00E+00 SK= 0.00E+00
   1644 T=   216. E= -.93504391E+03 F= -.94048116E+03 E0= -.94048116E+03  EK= 0.54372E+01 SP= 0.00E+00 SK= 0.00E+00
   1645 T=   216. E= -.93506343E+03 F= -.94050666E+03 E0= -.94050666E+03  EK= 0.54432E+01 SP= 0.00E+00 SK= 0.00E+00
   1646 T=   216. E= -.93502618E+03 F= -.94048029E+03 E0= -.94048029E+03  EK= 0.54541E+01 SP= 0.00E+00 SK= 0.00E+00
   1647 T=   215. E= -.93502433E+03 F= -.94044938E+03 E0= -.94044938E+03  EK= 0.54251E+01 SP= 0.00E+00 SK= 0.00E+00
   1648 T=   217. E= -.93501663E+03 F= -.94048377E+03 E0= -.94048377E+03  EK= 0.54671E+01 SP= 0.00E+00 SK= 0.00E+00
   1649 T=   223. E= -.93497733E+03 F= -.94059678E+03 E0= -.94059678E+03  EK= 0.56194E+01 SP= 0.00E+00 SK= 0.00E+00
   1650 T=   229. E= -.93501207E+03 F= -.94078233E+03 E0= -.94078233E+03  EK= 0.57703E+01 SP= 0.00E+00 SK= 0.00E+00
   1651 T=   231. E= -.93513416E+03 F= -.94096698E+03 E0= -.94096698E+03  EK= 0.58328E+01 SP= 0.00E+00 SK= 0.00E+00
   1652 T=   230. E= -.93526133E+03 F= -.94106006E+03 E0= -.94106006E+03  EK= 0.57987E+01 SP= 0.00E+00 SK= 0.00E+00
   1653 T=   224. E= -.93540879E+03 F= -.94104810E+03 E0= -.94104810E+03  EK= 0.56393E+01 SP= 0.00E+00 SK= 0.00E+00
   1654 T=   218. E= -.93547555E+03 F= -.94097137E+03 E0= -.94097137E+03  EK= 0.54958E+01 SP= 0.00E+00 SK= 0.00E+00
   1655 T=   218. E= -.93538579E+03 F= -.94088352E+03 E0= -.94088352E+03  EK= 0.54977E+01 SP= 0.00E+00 SK= 0.00E+00
   1656 T=   220. E= -.93535442E+03 F= -.94089065E+03 E0= -.94089065E+03  EK= 0.55362E+01 SP= 0.00E+00 SK= 0.00E+00
   1657 T=   224. E= -.93537595E+03 F= -.94101474E+03 E0= -.94101474E+03  EK= 0.56388E+01 SP= 0.00E+00 SK= 0.00E+00
   1658 T=   229. E= -.93538633E+03 F= -.94116003E+03 E0= -.94116003E+03  EK= 0.57737E+01 SP= 0.00E+00 SK= 0.00E+00
   1659 T=   234. E= -.93535836E+03 F= -.94125556E+03 E0= -.94125556E+03  EK= 0.58972E+01 SP= 0.00E+00 SK= 0.00E+00
   1660 T=   235. E= -.93533874E+03 F= -.94125764E+03 E0= -.94125764E+03  EK= 0.59189E+01 SP= 0.00E+00 SK= 0.00E+00
   1661 T=   232. E= -.93533053E+03 F= -.94117913E+03 E0= -.94117913E+03  EK= 0.58486E+01 SP= 0.00E+00 SK= 0.00E+00
   1662 T=   231. E= -.93521619E+03 F= -.94104251E+03 E0= -.94104251E+03  EK= 0.58263E+01 SP= 0.00E+00 SK= 0.00E+00
   1663 T=   231. E= -.93509813E+03 F= -.94091401E+03 E0= -.94091401E+03  EK= 0.58159E+01 SP= 0.00E+00 SK= 0.00E+00
   1664 T=   229. E= -.93510415E+03 F= -.94086646E+03 E0= -.94086646E+03  EK= 0.57623E+01 SP= 0.00E+00 SK= 0.00E+00
   1665 T=   233. E= -.93509567E+03 F= -.94096310E+03 E0= -.94096310E+03  EK= 0.58674E+01 SP= 0.00E+00 SK= 0.00E+00
   1666 T=   241. E= -.93504836E+03 F= -.94112806E+03 E0= -.94112806E+03  EK= 0.60797E+01 SP= 0.00E+00 SK= 0.00E+00
   1667 T=   246. E= -.93505847E+03 F= -.94124922E+03 E0= -.94124922E+03  EK= 0.61908E+01 SP= 0.00E+00 SK= 0.00E+00
   1668 T=   243. E= -.93514595E+03 F= -.94126303E+03 E0= -.94126303E+03  EK= 0.61171E+01 SP= 0.00E+00 SK= 0.00E+00
       N       E                     dE             d eps       ncg     rms          rms(c)
DAV:   1    -0.702135573498E+03    0.22694E+03   -0.27609E+04 16238   0.311E+02
DAV:   2    -0.931329240171E+03   -0.22919E+03   -0.22789E+03 19043   0.775E+01
DAV:   3    -0.935651136205E+03   -0.43219E+01   -0.43202E+01 19004   0.117E+01
DAV:   4    -0.935729068359E+03   -0.77932E-01   -0.77924E-01 19412   0.151E+00    0.262E+01
DAV:   5    -0.930196950997E+03    0.55321E+01   -0.10193E+01 18364   0.753E+00    0.149E+01
DAV:   6    -0.929845225320E+03    0.35173E+00   -0.10528E+01 19324   0.706E+00    0.372E+00
DAV:   7    -0.930039810103E+03   -0.19458E+00   -0.17181E+00 18564   0.297E+00    0.163E+00
DAV:   8    -0.930040965153E+03   -0.11550E-02   -0.17532E-01 18988   0.874E-01    0.741E-01
DAV:   9    -0.930033863535E+03    0.71016E-02   -0.35860E-02 19140   0.525E-01    0.313E-01
DAV:  10    -0.930030726213E+03    0.31373E-02   -0.83693E-03 19876   0.305E-01    0.116E-01
DAV:  11    -0.930029772447E+03    0.95377E-03   -0.49486E-03 19628   0.185E-01    0.908E-02
DAV:  12    -0.930028904403E+03    0.86804E-03   -0.72977E-04 18940   0.980E-02    0.391E-02
DAV:  13    -0.930028051785E+03    0.85262E-03   -0.60142E-04 17316   0.154E-01    0.414E-02
DAV:  14    -0.930027985461E+03    0.66324E-04   -0.83972E-04 18596   0.838E-02
   1669 T=   234. E= -.93513864E+03 F= -.94104900E+03 E0= -.94104900E+03  EK= 0.59104E+01 SP= 0.00E+00 SK= 0.00E+00
   1670 T=   227. E= -.93510559E+03 F= -.94082940E+03 E0= -.94082940E+03  EK= 0.57238E+01 SP= 0.00E+00 SK= 0.00E+00
   1671 T=   220. E= -.93502592E+03 F= -.94056138E+03 E0= -.94056138E+03  EK= 0.55355E+01 SP= 0.00E+00 SK= 0.00E+00
   1672 T=   214. E= -.93502185E+03 F= -.94042159E+03 E0= -.94042159E+03  EK= 0.53997E+01 SP= 0.00E+00 SK= 0.00E+00
   1673 T=   215. E= -.93499196E+03 F= -.94040351E+03 E0= -.94040351E+03  EK= 0.54115E+01 SP= 0.00E+00 SK= 0.00E+00
   1674 T=   218. E= -.93496413E+03 F= -.94046521E+03 E0= -.94046521E+03  EK= 0.55011E+01 SP= 0.00E+00 SK= 0.00E+00
   1675 T=   221. E= -.93495722E+03 F= -.94052627E+03 E0= -.94052627E+03  EK= 0.55691E+01 SP= 0.00E+00 SK= 0.00E+00
   1676 T=   221. E= -.93493351E+03 F= -.94049299E+03 E0= -.94049299E+03  EK= 0.55595E+01 SP= 0.00E+00 SK= 0.00E+00
   1677 T=   218. E= -.93491346E+03 F= -.94040223E+03 E0= -.94040223E+03  EK= 0.54888E+01 SP= 0.00E+00 SK= 0.00E+00
   1678 T=   220. E= -.93480857E+03 F= -.94035518E+03 E0= -.94035518E+03  EK= 0.55466E+01 SP= 0.00E+00 SK= 0.00E+00
   1679 T=   222. E= -.93474754E+03 F= -.94034079E+03 E0= -.94034079E+03  EK= 0.55932E+01 SP= 0.00E+00 SK= 0.00E+00
   1680 T=   219. E= -.93484411E+03 F= -.94036356E+03 E0= -.94036356E+03  EK= 0.55194E+01 SP= 0.00E+00 SK= 0.00E+00
   1681 T=   222. E= -.93484658E+03 F= -.94044377E+03 E0= -.94044377E+03  EK= 0.55972E+01 SP= 0.00E+00 SK= 0.00E+00
   1682 T=   232. E= -.93469685E+03 F= -.94054208E+03 E0= -.94054208E+03  EK= 0.58452E+01 SP= 0.00E+00 SK= 0.00E+00
   1683 T=   237. E= -.93469332E+03 F= -.94067896E+03 E0= -.94067896E+03  EK= 0.59856E+01 SP= 0.00E+00 SK= 0.00E+00
   1684 T=   235. E= -.93485833E+03 F= -.94078685E+03 E0= -.94078685E+03  EK= 0.59285E+01 SP= 0.00E+00 SK= 0.00E+00
   1685 T=   237. E= -.93493667E+03 F= -.94089819E+03 E0= -.94089819E+03  EK= 0.59615E+01 SP= 0.00E+00 SK= 0.00E+00
   1686 T=   237. E= -.93497944E+03 F= -.94095987E+03 E0= -.94095987E+03  EK= 0.59804E+01 SP= 0.00E+00 SK= 0.00E+00
   1687 T=   235. E= -.93502986E+03 F= -.94095855E+03 E0= -.94095855E+03  EK= 0.59287E+01 SP= 0.00E+00 SK= 0.00E+00
   1688 T=   235. E= -.93504136E+03 F= -.94097551E+03 E0= -.94097551E+03  EK= 0.59341E+01 SP= 0.00E+00 SK= 0.00E+00
   1689 T=   237. E= -.93507760E+03 F= -.94106069E+03 E0= -.94106069E+03  EK= 0.59831E+01 SP= 0.00E+00 SK= 0.00E+00
   1690 T=   239. E= -.93513701E+03 F= -.94116831E+03 E0= -.94116831E+03  EK= 0.60313E+01 SP= 0.00E+00 SK= 0.00E+00
   1691 T=   241. E= -.93514887E+03 F= -.94122781E+03 E0= -.94122781E+03  EK= 0.60789E+01 SP= 0.00E+00 SK= 0.00E+00
   1692 T=   241. E= -.93510546E+03 F= -.94117881E+03 E0= -.94117881E+03  EK= 0.60734E+01 SP= 0.00E+00 SK= 0.00E+00
   1693 T=   237. E= -.93504281E+03 F= -.94102856E+03 E0= -.94102856E+03  EK= 0.59858E+01 SP= 0.00E+00 SK= 0.00E+00
   1694 T=   234. E= -.93497924E+03 F= -.94086954E+03 E0= -.94086954E+03  EK= 0.58903E+01 SP= 0.00E+00 SK= 0.00E+00
   1695 T=   232. E= -.93497912E+03 F= -.94081865E+03 E0= -.94081865E+03  EK= 0.58395E+01 SP= 0.00E+00 SK= 0.00E+00
   1696 T=   232. E= -.93500349E+03 F= -.94085231E+03 E0= -.94085231E+03  EK= 0.58488E+01 SP= 0.00E+00 SK= 0.00E+00
   1697 T=   241. E= -.93489839E+03 F= -.94096371E+03 E0= -.94096371E+03  EK= 0.60653E+01 SP= 0.00E+00 SK= 0.00E+00
   1698 T=   249. E= -.93476220E+03 F= -.94104771E+03 E0= -.94104771E+03  EK= 0.62855E+01 SP= 0.00E+00 SK= 0.00E+00
   1699 T=   249. E= -.93472360E+03 F= -.94099118E+03 E0= -.94099118E+03  EK= 0.62676E+01 SP= 0.00E+00 SK= 0.00E+00
   1700 T=   242. E= -.93470207E+03 F= -.94080384E+03 E0= -.94080384E+03  EK= 0.61018E+01 SP= 0.00E+00 SK= 0.00E+00
   1701 T=   234. E= -.93468478E+03 F= -.94059246E+03 E0= -.94059246E+03  EK= 0.59077E+01 SP= 0.00E+00 SK= 0.00E+00
   1702 T=   225. E= -.93474568E+03 F= -.94041427E+03 E0= -.94041427E+03  EK= 0.56686E+01 SP= 0.00E+00 SK= 0.00E+00
   1703 T=   220. E= -.93480240E+03 F= -.94034587E+03 E0= -.94034587E+03  EK= 0.55435E+01 SP= 0.00E+00 SK= 0.00E+00
   1704 T=   222. E= -.93480153E+03 F= -.94038886E+03 E0= -.94038886E+03  EK= 0.55873E+01 SP= 0.00E+00 SK= 0.00E+00
   1705 T=   226. E= -.93480162E+03 F= -.94050478E+03 E0= -.94050478E+03  EK= 0.57032E+01 SP= 0.00E+00 SK= 0.00E+00
   1706 T=   230. E= -.93477018E+03 F= -.94055554E+03 E0= -.94055554E+03  EK= 0.57854E+01 SP= 0.00E+00 SK= 0.00E+00
   1707 T=   228. E= -.93471461E+03 F= -.94045379E+03 E0= -.94045379E+03  EK= 0.57392E+01 SP= 0.00E+00 SK= 0.00E+00
   1708 T=   221. E= -.93468619E+03 F= -.94026443E+03 E0= -.94026443E+03  EK= 0.55782E+01 SP= 0.00E+00 SK= 0.00E+00
   1709 T=   214. E= -.93468350E+03 F= -.94008463E+03 E0= -.94008463E+03  EK= 0.54011E+01 SP= 0.00E+00 SK= 0.00E+00
   1710 T=   210. E= -.93475040E+03 F= -.94005302E+03 E0= -.94005302E+03  EK= 0.53026E+01 SP= 0.00E+00 SK= 0.00E+00
   1711 T=   214. E= -.93477832E+03 F= -.94016663E+03 E0= -.94016663E+03  EK= 0.53883E+01 SP= 0.00E+00 SK= 0.00E+00
   1712 T=   226. E= -.93467952E+03 F= -.94037574E+03 E0= -.94037574E+03  EK= 0.56962E+01 SP= 0.00E+00 SK= 0.00E+00
   1713 T=   238. E= -.93456153E+03 F= -.94056870E+03 E0= -.94056870E+03  EK= 0.60072E+01 SP= 0.00E+00 SK= 0.00E+00
   1714 T=   246. E= -.93445476E+03 F= -.94065133E+03 E0= -.94065133E+03  EK= 0.61966E+01 SP= 0.00E+00 SK= 0.00E+00
   1715 T=   246. E= -.93439167E+03 F= -.94058554E+03 E0= -.94058554E+03  EK= 0.61939E+01 SP= 0.00E+00 SK= 0.00E+00
   1716 T=   241. E= -.93437314E+03 F= -.94045482E+03 E0= -.94045482E+03  EK= 0.60817E+01 SP= 0.00E+00 SK= 0.00E+00
   1717 T=   235. E= -.93439399E+03 F= -.94031737E+03 E0= -.94031737E+03  EK= 0.59234E+01 SP= 0.00E+00 SK= 0.00E+00
   1718 T=   231. E= -.93447165E+03 F= -.94029603E+03 E0= -.94029603E+03  EK= 0.58244E+01 SP= 0.00E+00 SK= 0.00E+00
   1719 T=   237. E= -.93442085E+03 F= -.94039032E+03 E0= -.94039032E+03  EK= 0.59695E+01 SP= 0.00E+00 SK= 0.00E+00
       N       E                     dE             d eps       ncg     rms          rms(c)
DAV:   1    -0.795412563669E+03    0.13462E+03   -0.20495E+04 16238   0.269E+02
DAV:   2    -0.931462490823E+03   -0.13605E+03   -0.13543E+03 18630   0.592E+01
DAV:   3    -0.933756093703E+03   -0.22936E+01   -0.22929E+01 19444   0.849E+00
DAV:   4    -0.933797115720E+03   -0.41022E-01   -0.41020E-01 18980   0.112E+00    0.239E+01
DAV:   5    -0.929673686498E+03    0.41234E+01   -0.75318E+00 18204   0.643E+00    0.136E+01
DAV:   6    -0.929376372841E+03    0.29731E+00   -0.87312E+00 19468   0.650E+00    0.305E+00
DAV:   7    -0.929511694710E+03   -0.13532E+00   -0.15324E+00 18956   0.280E+00    0.146E+00
DAV:   8    -0.929503278521E+03    0.84162E-02   -0.15000E-01 18716   0.822E-01    0.700E-01
DAV:   9    -0.929493991961E+03    0.92866E-02   -0.33598E-02 18932   0.483E-01    0.300E-01
DAV:  10    -0.929488724912E+03    0.52670E-02   -0.75947E-03 19580   0.313E-01    0.130E-01
DAV:  11    -0.929487006504E+03    0.17184E-02   -0.63912E-03 19556   0.214E-01    0.108E-01
DAV:  12    -0.929485608770E+03    0.13977E-02   -0.12803E-03 18732   0.120E-01    0.443E-02
DAV:  13    -0.929484642348E+03    0.96642E-03   -0.92593E-04 17740   0.145E-01    0.602E-02
DAV:  14    -0.929484539920E+03    0.10243E-03   -0.97093E-04 19540   0.866E-02    0.294E-02
DAV:  15    -0.929484541124E+03   -0.12044E-05   -0.24355E-04 15292   0.319E-02
   1720 T=   245. E= -.93436254E+03 F= -.94054272E+03 E0= -.94054272E+03  EK= 0.61802E+01 SP= 0.00E+00 SK= 0.00E+00
   1721 T=   246. E= -.93446902E+03 F= -.94067604E+03 E0= -.94067604E+03  EK= 0.62070E+01 SP= 0.00E+00 SK= 0.00E+00
   1722 T=   247. E= -.93447499E+03 F= -.94070066E+03 E0= -.94070066E+03  EK= 0.62257E+01 SP= 0.00E+00 SK= 0.00E+00
   1723 T=   245. E= -.93444136E+03 F= -.94061203E+03 E0= -.94061203E+03  EK= 0.61707E+01 SP= 0.00E+00 SK= 0.00E+00
   1724 T=   238. E= -.93445269E+03 F= -.94045960E+03 E0= -.94045960E+03  EK= 0.60069E+01 SP= 0.00E+00 SK= 0.00E+00
   1725 T=   231. E= -.93450811E+03 F= -.94033778E+03 E0= -.94033778E+03  EK= 0.58297E+01 SP= 0.00E+00 SK= 0.00E+00
   1726 T=   229. E= -.93452187E+03 F= -.94028289E+03 E0= -.94028289E+03  EK= 0.57610E+01 SP= 0.00E+00 SK= 0.00E+00
   1727 T=   232. E= -.93442442E+03 F= -.94026118E+03 E0= -.94026118E+03  EK= 0.58368E+01 SP= 0.00E+00 SK= 0.00E+00
   1728 T=   233. E= -.93436384E+03 F= -.94024615E+03 E0= -.94024615E+03  EK= 0.58823E+01 SP= 0.00E+00 SK= 0.00E+00
   1729 T=   235. E= -.93429302E+03 F= -.94021366E+03 E0= -.94021366E+03  EK= 0.59206E+01 SP= 0.00E+00 SK= 0.00E+00
       N       E                     dE             d eps       ncg     rms          rms(c)
DAV:   1    -0.922685083861E+03    0.67995E+01   -0.28250E+03 16238   0.104E+02
DAV:   2    -0.930172693812E+03   -0.74876E+01   -0.74857E+01 19100   0.154E+01
DAV:   3    -0.930252190545E+03   -0.79497E-01   -0.79493E-01 19484   0.162E+00
DAV:   4    -0.930254015599E+03   -0.18251E-02   -0.18250E-02 19164   0.234E-01    0.991E+00
DAV:   5    -0.929200061217E+03    0.10540E+01   -0.20094E+00 20428   0.389E+00    0.535E+00
DAV:   6    -0.929089123001E+03    0.11094E+00   -0.16366E+00 19564   0.291E+00    0.166E+00
DAV:   7    -0.929098295616E+03   -0.91726E-02   -0.33311E-01 18988   0.156E+00    0.634E-01
DAV:   8    -0.929092667283E+03    0.56283E-02   -0.41174E-02 19108   0.535E-01    0.330E-01
DAV:   9    -0.929088056293E+03    0.46110E-02   -0.20412E-02 18580   0.328E-01    0.229E-01
DAV:  10    -0.929085193612E+03    0.28627E-02   -0.51575E-03 22548   0.262E-01    0.722E-02
DAV:  11    -0.929084383468E+03    0.81014E-03   -0.28198E-03 18940   0.145E-01    0.725E-02
DAV:  12    -0.929083619959E+03    0.76351E-03   -0.38179E-04 16652   0.102E-01    0.353E-02
DAV:  13    -0.929083260611E+03    0.35935E-03   -0.61755E-04 17468   0.112E-01    0.338E-02
DAV:  14    -0.929083250509E+03    0.10102E-04   -0.50922E-04 19236   0.569E-02
   1730 T=   237. E= -.93415449E+03 F= -.94013553E+03 E0= -.94013553E+03  EK= 0.59810E+01 SP= 0.00E+00 SK= 0.00E+00
   1731 T=   238. E= -.93415391E+03 F= -.94015288E+03 E0= -.94015288E+03  EK= 0.59990E+01 SP= 0.00E+00 SK= 0.00E+00
   1732 T=   237. E= -.93418118E+03 F= -.94016176E+03 E0= -.94016176E+03  EK= 0.59806E+01 SP= 0.00E+00 SK= 0.00E+00
   1733 T=   237. E= -.93420642E+03 F= -.94018261E+03 E0= -.94018261E+03  EK= 0.59762E+01 SP= 0.00E+00 SK= 0.00E+00
   1734 T=   239. E= -.93418055E+03 F= -.94020805E+03 E0= -.94020805E+03  EK= 0.60275E+01 SP= 0.00E+00 SK= 0.00E+00
   1735 T=   240. E= -.93420497E+03 F= -.94024344E+03 E0= -.94024344E+03  EK= 0.60385E+01 SP= 0.00E+00 SK= 0.00E+00
   1736 T=   244. E= -.93415500E+03 F= -.94031437E+03 E0= -.94031437E+03  EK= 0.61594E+01 SP= 0.00E+00 SK= 0.00E+00
   1737 T=   248. E= -.93413887E+03 F= -.94037907E+03 E0= -.94037907E+03  EK= 0.62402E+01 SP= 0.00E+00 SK= 0.00E+00
   1738 T=   245. E= -.93423924E+03 F= -.94042293E+03 E0= -.94042293E+03  EK= 0.61837E+01 SP= 0.00E+00 SK= 0.00E+00
   1739 T=   244. E= -.93425069E+03 F= -.94040215E+03 E0= -.94040215E+03  EK= 0.61515E+01 SP= 0.00E+00 SK= 0.00E+00
   1740 T=   246. E= -.93421277E+03 F= -.94040391E+03 E0= -.94040391E+03  EK= 0.61911E+01 SP= 0.00E+00 SK= 0.00E+00
   1741 T=   245. E= -.93420663E+03 F= -.94037705E+03 E0= -.94037705E+03  EK= 0.61704E+01 SP= 0.00E+00 SK= 0.00E+00
   1742 T=   243. E= -.93422870E+03 F= -.94035960E+03 E0= -.94035960E+03  EK= 0.61309E+01 SP= 0.00E+00 SK= 0.00E+00
   1743 T=   240. E= -.93429689E+03 F= -.94033812E+03 E0= -.94033812E+03  EK= 0.60412E+01 SP= 0.00E+00 SK= 0.00E+00
   1744 T=   236. E= -.93433726E+03 F= -.94029139E+03 E0= -.94029139E+03  EK= 0.59541E+01 SP= 0.00E+00 SK= 0.00E+00
   1745 T=   239. E= -.93427193E+03 F= -.94028572E+03 E0= -.94028572E+03  EK= 0.60138E+01 SP= 0.00E+00 SK= 0.00E+00
   1746 T=   242. E= -.93421521E+03 F= -.94030547E+03 E0= -.94030547E+03  EK= 0.60903E+01 SP= 0.00E+00 SK= 0.00E+00
   1747 T=   241. E= -.93432083E+03 F= -.94040110E+03 E0= -.94040110E+03  EK= 0.60803E+01 SP= 0.00E+00 SK= 0.00E+00
   1748 T=   246. E= -.93436043E+03 F= -.94055766E+03 E0= -.94055766E+03  EK= 0.61972E+01 SP= 0.00E+00 SK= 0.00E+00
   1749 T=   255. E= -.93424882E+03 F= -.94067955E+03 E0= -.94067955E+03  EK= 0.64307E+01 SP= 0.00E+00 SK= 0.00E+00
   1750 T=   258. E= -.93415891E+03 F= -.94065748E+03 E0= -.94065748E+03  EK= 0.64986E+01 SP= 0.00E+00 SK= 0.00E+00
   1751 T=   250. E= -.93418376E+03 F= -.94048254E+03 E0= -.94048254E+03  EK= 0.62988E+01 SP= 0.00E+00 SK= 0.00E+00
       N       E                     dE             d eps       ncg     rms          rms(c)
DAV:   1    -0.897022069001E+03    0.32061E+02   -0.90803E+03 16238   0.184E+02
DAV:   2    -0.931726640961E+03   -0.34705E+02   -0.34688E+02 19052   0.320E+01
DAV:   3    -0.932099153042E+03   -0.37251E+00   -0.37247E+00 19460   0.360E+00
DAV:   4    -0.932106809300E+03   -0.76563E-02   -0.76558E-02 19148   0.495E-01    0.168E+01
DAV:   5    -0.929482997907E+03    0.26238E+01   -0.42803E+00 19532   0.533E+00    0.946E+00
DAV:   6    -0.929196311826E+03    0.28669E+00   -0.47485E+00 19564   0.496E+00    0.227E+00
DAV:   7    -0.929247346664E+03   -0.51035E-01   -0.82239E-01 18700   0.215E+00    0.988E-01
DAV:   8    -0.929238893331E+03    0.84533E-02   -0.82207E-02 18908   0.605E-01    0.549E-01
DAV:   9    -0.929230087976E+03    0.88054E-02   -0.29172E-02 18692   0.494E-01    0.284E-01
DAV:  10    -0.929224854906E+03    0.52331E-02   -0.72206E-03 19796   0.309E-01    0.117E-01
DAV:  11    -0.929223386089E+03    0.14688E-02   -0.55401E-03 19628   0.204E-01    0.896E-02
DAV:  12    -0.929222105760E+03    0.12803E-02   -0.90734E-04 19092   0.132E-01    0.371E-02
DAV:  13    -0.929221470834E+03    0.63493E-03   -0.73107E-04 18028   0.142E-01    0.441E-02
DAV:  14    -0.929221410646E+03    0.60189E-04   -0.88279E-04 19556   0.861E-02
   1752 T=   239. E= -.93421944E+03 F= -.94025174E+03 E0= -.94025174E+03  EK= 0.60323E+01 SP= 0.00E+00 SK= 0.00E+00
   1753 T=   233. E= -.93426447E+03 F= -.94013109E+03 E0= -.94013109E+03  EK= 0.58666E+01 SP= 0.00E+00 SK= 0.00E+00
   1754 T=   232. E= -.93426516E+03 F= -.94011875E+03 E0= -.94011875E+03  EK= 0.58536E+01 SP= 0.00E+00 SK= 0.00E+00
   1755 T=   237. E= -.93421239E+03 F= -.94018850E+03 E0= -.94018850E+03  EK= 0.59761E+01 SP= 0.00E+00 SK= 0.00E+00
   1756 T=   239. E= -.93420020E+03 F= -.94021752E+03 E0= -.94021752E+03  EK= 0.60173E+01 SP= 0.00E+00 SK= 0.00E+00
   1757 T=   237. E= -.93422946E+03 F= -.94019518E+03 E0= -.94019518E+03  EK= 0.59657E+01 SP= 0.00E+00 SK= 0.00E+00
   1758 T=   235. E= -.93418562E+03 F= -.94011316E+03 E0= -.94011316E+03  EK= 0.59275E+01 SP= 0.00E+00 SK= 0.00E+00
   1759 T=   237. E= -.93406926E+03 F= -.94003409E+03 E0= -.94003409E+03  EK= 0.59648E+01 SP= 0.00E+00 SK= 0.00E+00
   1760 T=   240. E= -.93400806E+03 F= -.94005107E+03 E0= -.94005107E+03  EK= 0.60430E+01 SP= 0.00E+00 SK= 0.00E+00
   1761 T=   240. E= -.93404309E+03 F= -.94010318E+03 E0= -.94010318E+03  EK= 0.60601E+01 SP= 0.00E+00 SK= 0.00E+00
   1762 T=   238. E= -.93413590E+03 F= -.94014566E+03 E0= -.94014566E+03  EK= 0.60098E+01 SP= 0.00E+00 SK= 0.00E+00
   1763 T=   235. E= -.93424666E+03 F= -.94017794E+03 E0= -.94017794E+03  EK= 0.59313E+01 SP= 0.00E+00 SK= 0.00E+00
   1764 T=   235. E= -.93427903E+03 F= -.94020274E+03 E0= -.94020274E+03  EK= 0.59237E+01 SP= 0.00E+00 SK= 0.00E+00
   1765 T=   240. E= -.93419729E+03 F= -.94023714E+03 E0= -.94023714E+03  EK= 0.60398E+01 SP= 0.00E+00 SK= 0.00E+00
   1766 T=   244. E= -.93411694E+03 F= -.94025557E+03 E0= -.94025557E+03  EK= 0.61386E+01 SP= 0.00E+00 SK= 0.00E+00
   1767 T=   248. E= -.93405914E+03 F= -.94030501E+03 E0= -.94030501E+03  EK= 0.62459E+01 SP= 0.00E+00 SK= 0.00E+00
   1768 T=   252. E= -.93401217E+03 F= -.94035898E+03 E0= -.94035898E+03  EK= 0.63468E+01 SP= 0.00E+00 SK= 0.00E+00
   1769 T=   254. E= -.93402324E+03 F= -.94042379E+03 E0= -.94042379E+03  EK= 0.64006E+01 SP= 0.00E+00 SK= 0.00E+00
   1770 T=   252. E= -.93410521E+03 F= -.94046588E+03 E0= -.94046588E+03  EK= 0.63607E+01 SP= 0.00E+00 SK= 0.00E+00
   1771 T=   251. E= -.93411925E+03 F= -.94045492E+03 E0= -.94045492E+03  EK= 0.63357E+01 SP= 0.00E+00 SK= 0.00E+00
   1772 T=   250. E= -.93404170E+03 F= -.94033958E+03 E0= -.94033958E+03  EK= 0.62979E+01 SP= 0.00E+00 SK= 0.00E+00
   1773 T=   245. E= -.93398136E+03 F= -.94014542E+03 E0= -.94014542E+03  EK= 0.61641E+01 SP= 0.00E+00 SK= 0.00E+00
   1774 T=   239. E= -.93400453E+03 F= -.94002230E+03 E0= -.94002230E+03  EK= 0.60178E+01 SP= 0.00E+00 SK= 0.00E+00
   1775 T=   238. E= -.93403432E+03 F= -.94003464E+03 E0= -.94003464E+03  EK= 0.60003E+01 SP= 0.00E+00 SK= 0.00E+00
   1776 T=   250. E= -.93395164E+03 F= -.94025112E+03 E0= -.94025112E+03  EK= 0.62995E+01 SP= 0.00E+00 SK= 0.00E+00
   1777 T=   263. E= -.93391314E+03 F= -.94053096E+03 E0= -.94053096E+03  EK= 0.66178E+01 SP= 0.00E+00 SK= 0.00E+00
   1778 T=   267. E= -.93391760E+03 F= -.94064786E+03 E0= -.94064786E+03  EK= 0.67303E+01 SP= 0.00E+00 SK= 0.00E+00
   1779 T=   260. E= -.93396615E+03 F= -.94052453E+03 E0= -.94052453E+03  EK= 0.65584E+01 SP= 0.00E+00 SK= 0.00E+00
   1780 T=   248. E= -.93397823E+03 F= -.94023585E+03 E0= -.94023585E+03  EK= 0.62576E+01 SP= 0.00E+00 SK= 0.00E+00
   1781 T=   241. E= -.93396001E+03 F= -.94003120E+03 E0= -.94003120E+03  EK= 0.60712E+01 SP= 0.00E+00 SK= 0.00E+00
   1782 T=   240. E= -.93394312E+03 F= -.93999446E+03 E0= -.93999446E+03  EK= 0.60513E+01 SP= 0.00E+00 SK= 0.00E+00
   1783 T=   245. E= -.93397594E+03 F= -.94015383E+03 E0= -.94015383E+03  EK= 0.61779E+01 SP= 0.00E+00 SK= 0.00E+00
   1784 T=   252. E= -.93401187E+03 F= -.94036581E+03 E0= -.94036581E+03  EK= 0.63539E+01 SP= 0.00E+00 SK= 0.00E+00
   1785 T=   255. E= -.93401928E+03 F= -.94044657E+03 E0= -.94044657E+03  EK= 0.64273E+01 SP= 0.00E+00 SK= 0.00E+00
   1786 T=   254. E= -.93396921E+03 F= -.94038223E+03 E0= -.94038223E+03  EK= 0.64130E+01 SP= 0.00E+00 SK= 0.00E+00
   1787 T=   248. E= -.93392851E+03 F= -.94018274E+03 E0= -.94018274E+03  EK= 0.62542E+01 SP= 0.00E+00 SK= 0.00E+00
   1788 T=   238. E= -.93400011E+03 F= -.94000574E+03 E0= -.94000574E+03  EK= 0.60056E+01 SP= 0.00E+00 SK= 0.00E+00
   1789 T=   235. E= -.93405376E+03 F= -.93996566E+03 E0= -.93996566E+03  EK= 0.59119E+01 SP= 0.00E+00 SK= 0.00E+00
   1790 T=   243. E= -.93398590E+03 F= -.94009974E+03 E0= -.94009974E+03  EK= 0.61138E+01 SP= 0.00E+00 SK= 0.00E+00
   1791 T=   254. E= -.93394124E+03 F= -.94034327E+03 E0= -.94034327E+03  EK= 0.64020E+01 SP= 0.00E+00 SK= 0.00E+00
   1792 T=   261. E= -.93399292E+03 F= -.94055926E+03 E0= -.94055926E+03  EK= 0.65663E+01 SP= 0.00E+00 SK= 0.00E+00
   1793 T=   262. E= -.93402917E+03 F= -.94063071E+03 E0= -.94063071E+03  EK= 0.66015E+01 SP= 0.00E+00 SK= 0.00E+00
   1794 T=   253. E= -.93413792E+03 F= -.94050556E+03 E0= -.94050556E+03  EK= 0.63676E+01 SP= 0.00E+00 SK= 0.00E+00
   1795 T=   243. E= -.93419708E+03 F= -.94032126E+03 E0= -.94032126E+03  EK= 0.61242E+01 SP= 0.00E+00 SK= 0.00E+00
   1796 T=   243. E= -.93404127E+03 F= -.94017427E+03 E0= -.94017427E+03  EK= 0.61330E+01 SP= 0.00E+00 SK= 0.00E+00
   1797 T=   246. E= -.93398600E+03 F= -.94017519E+03 E0= -.94017519E+03  EK= 0.61892E+01 SP= 0.00E+00 SK= 0.00E+00
   1798 T=   246. E= -.93412685E+03 F= -.94031707E+03 E0= -.94031707E+03  EK= 0.61902E+01 SP= 0.00E+00 SK= 0.00E+00
   1799 T=   251. E= -.93419621E+03 F= -.94053200E+03 E0= -.94053200E+03  EK= 0.63358E+01 SP= 0.00E+00 SK= 0.00E+00
   1800 T=   256. E= -.93425709E+03 F= -.94070673E+03 E0= -.94070673E+03  EK= 0.64496E+01 SP= 0.00E+00 SK= 0.00E+00
   1801 T=   254. E= -.93433035E+03 F= -.94074217E+03 E0= -.94074217E+03  EK= 0.64118E+01 SP= 0.00E+00 SK= 0.00E+00
   1802 T=   246. E= -.93440698E+03 F= -.94060394E+03 E0= -.94060394E+03  EK= 0.61970E+01 SP= 0.00E+00 SK= 0.00E+00
   1803 T=   238. E= -.93439071E+03 F= -.94037946E+03 E0= -.94037946E+03  EK= 0.59888E+01 SP= 0.00E+00 SK= 0.00E+00
   1804 T=   232. E= -.93437130E+03 F= -.94020671E+03 E0= -.94020671E+03  EK= 0.58354E+01 SP= 0.00E+00 SK= 0.00E+00
   1805 T=   228. E= -.93442594E+03 F= -.94018392E+03 E0= -.94018392E+03  EK= 0.57580E+01 SP= 0.00E+00 SK= 0.00E+00
   1806 T=   233. E= -.93443952E+03 F= -.94032182E+03 E0= -.94032182E+03  EK= 0.58823E+01 SP= 0.00E+00 SK= 0.00E+00
   1807 T=   241. E= -.93446064E+03 F= -.94052601E+03 E0= -.94052601E+03  EK= 0.60654E+01 SP= 0.00E+00 SK= 0.00E+00
   1808 T=   245. E= -.93449068E+03 F= -.94065776E+03 E0= -.94065776E+03  EK= 0.61671E+01 SP= 0.00E+00 SK= 0.00E+00
   1809 T=   241. E= -.93456822E+03 F= -.94064983E+03 E0= -.94064983E+03  EK= 0.60816E+01 SP= 0.00E+00 SK= 0.00E+00
   1810 T=   238. E= -.93454554E+03 F= -.94055004E+03 E0= -.94055004E+03  EK= 0.60045E+01 SP= 0.00E+00 SK= 0.00E+00
   1811 T=   237. E= -.93448480E+03 F= -.94045358E+03 E0= -.94045358E+03  EK= 0.59688E+01 SP= 0.00E+00 SK= 0.00E+00
   1812 T=   236. E= -.93448793E+03 F= -.94043229E+03 E0= -.94043229E+03  EK= 0.59444E+01 SP= 0.00E+00 SK= 0.00E+00
   1813 T=   237. E= -.93452583E+03 F= -.94050559E+03 E0= -.94050559E+03  EK= 0.59798E+01 SP= 0.00E+00 SK= 0.00E+00
   1814 T=   242. E= -.93452188E+03 F= -.94062709E+03 E0= -.94062709E+03  EK= 0.61052E+01 SP= 0.00E+00 SK= 0.00E+00
   1815 T=   247. E= -.93446170E+03 F= -.94068274E+03 E0= -.94068274E+03  EK= 0.62210E+01 SP= 0.00E+00 SK= 0.00E+00
   1816 T=   245. E= -.93444827E+03 F= -.94062427E+03 E0= -.94062427E+03  EK= 0.61760E+01 SP= 0.00E+00 SK= 0.00E+00
   1817 T=   238. E= -.93446334E+03 F= -.94045559E+03 E0= -.94045559E+03  EK= 0.59923E+01 SP= 0.00E+00 SK= 0.00E+00
   1818 T=   231. E= -.93447924E+03 F= -.94029630E+03 E0= -.94029630E+03  EK= 0.58171E+01 SP= 0.00E+00 SK= 0.00E+00
   1819 T=   226. E= -.93452945E+03 F= -.94022498E+03 E0= -.94022498E+03  EK= 0.56955E+01 SP= 0.00E+00 SK= 0.00E+00
   1820 T=   226. E= -.93460804E+03 F= -.94030351E+03 E0= -.94030351E+03  EK= 0.56955E+01 SP= 0.00E+00 SK= 0.00E+00
   1821 T=   234. E= -.93458994E+03 F= -.94049563E+03 E0= -.94049563E+03  EK= 0.59057E+01 SP= 0.00E+00 SK= 0.00E+00
   1822 T=   244. E= -.93449229E+03 F= -.94065229E+03 E0= -.94065229E+03  EK= 0.61600E+01 SP= 0.00E+00 SK= 0.00E+00
   1823 T=   250. E= -.93440668E+03 F= -.94069985E+03 E0= -.94069985E+03  EK= 0.62932E+01 SP= 0.00E+00 SK= 0.00E+00
   1824 T=   247. E= -.93439939E+03 F= -.94062931E+03 E0= -.94062931E+03  EK= 0.62299E+01 SP= 0.00E+00 SK= 0.00E+00
   1825 T=   244. E= -.93430323E+03 F= -.94046464E+03 E0= -.94046464E+03  EK= 0.61614E+01 SP= 0.00E+00 SK= 0.00E+00
   1826 T=   243. E= -.93415034E+03 F= -.94028318E+03 E0= -.94028318E+03  EK= 0.61328E+01 SP= 0.00E+00 SK= 0.00E+00
   1827 T=   241. E= -.93408180E+03 F= -.94015503E+03 E0= -.94015503E+03  EK= 0.60732E+01 SP= 0.00E+00 SK= 0.00E+00
   1828 T=   240. E= -.93409902E+03 F= -.94015010E+03 E0= -.94015010E+03  EK= 0.60511E+01 SP= 0.00E+00 SK= 0.00E+00
   1829 T=   241. E= -.93419488E+03 F= -.94027816E+03 E0= -.94027816E+03  EK= 0.60833E+01 SP= 0.00E+00 SK= 0.00E+00
   1830 T=   245. E= -.93429522E+03 F= -.94046865E+03 E0= -.94046865E+03  EK= 0.61734E+01 SP= 0.00E+00 SK= 0.00E+00
   1831 T=   247. E= -.93437674E+03 F= -.94059312E+03 E0= -.94059312E+03  EK= 0.62164E+01 SP= 0.00E+00 SK= 0.00E+00
   1832 T=   244. E= -.93439380E+03 F= -.94054401E+03 E0= -.94054401E+03  EK= 0.61502E+01 SP= 0.00E+00 SK= 0.00E+00
   1833 T=   238. E= -.93436179E+03 F= -.94036061E+03 E0= -.94036061E+03  EK= 0.59988E+01 SP= 0.00E+00 SK= 0.00E+00
   1834 T=   230. E= -.93432077E+03 F= -.94012935E+03 E0= -.94012935E+03  EK= 0.58086E+01 SP= 0.00E+00 SK= 0.00E+00
   1835 T=   226. E= -.93428776E+03 F= -.93999023E+03 E0= -.93999023E+03  EK= 0.57025E+01 SP= 0.00E+00 SK= 0.00E+00
   1836 T=   228. E= -.93430881E+03 F= -.94004575E+03 E0= -.94004575E+03  EK= 0.57369E+01 SP= 0.00E+00 SK= 0.00E+00
   1837 T=   233. E= -.93439165E+03 F= -.94025555E+03 E0= -.94025555E+03  EK= 0.58639E+01 SP= 0.00E+00 SK= 0.00E+00
   1838 T=   240. E= -.93443497E+03 F= -.94048447E+03 E0= -.94048447E+03  EK= 0.60495E+01 SP= 0.00E+00 SK= 0.00E+00
   1839 T=   246. E= -.93443231E+03 F= -.94062410E+03 E0= -.94062410E+03  EK= 0.61918E+01 SP= 0.00E+00 SK= 0.00E+00
   1840 T=   242. E= -.93455056E+03 F= -.94065004E+03 E0= -.94065004E+03  EK= 0.60995E+01 SP= 0.00E+00 SK= 0.00E+00
   1841 T=   238. E= -.93462814E+03 F= -.94061609E+03 E0= -.94061609E+03  EK= 0.59879E+01 SP= 0.00E+00 SK= 0.00E+00
   1842 T=   236. E= -.93465121E+03 F= -.94060469E+03 E0= -.94060469E+03  EK= 0.59535E+01 SP= 0.00E+00 SK= 0.00E+00
   1843 T=   235. E= -.93471929E+03 F= -.94064629E+03 E0= -.94064629E+03  EK= 0.59270E+01 SP= 0.00E+00 SK= 0.00E+00
   1844 T=   233. E= -.93485967E+03 F= -.94072875E+03 E0= -.94072875E+03  EK= 0.58691E+01 SP= 0.00E+00 SK= 0.00E+00
   1845 T=   234. E= -.93492850E+03 F= -.94081801E+03 E0= -.94081801E+03  EK= 0.58895E+01 SP= 0.00E+00 SK= 0.00E+00
   1846 T=   235. E= -.93495852E+03 F= -.94088510E+03 E0= -.94088510E+03  EK= 0.59266E+01 SP= 0.00E+00 SK= 0.00E+00
   1847 T=   232. E= -.93506835E+03 F= -.94090705E+03 E0= -.94090705E+03  EK= 0.58387E+01 SP= 0.00E+00 SK= 0.00E+00
   1848 T=   226. E= -.93518746E+03 F= -.94089040E+03 E0= -.94089040E+03  EK= 0.57029E+01 SP= 0.00E+00 SK= 0.00E+00
   1849 T=   224. E= -.93524957E+03 F= -.94090586E+03 E0= -.94090586E+03  EK= 0.56563E+01 SP= 0.00E+00 SK= 0.00E+00
   1850 T=   229. E= -.93521024E+03 F= -.94097796E+03 E0= -.94097796E+03  EK= 0.57677E+01 SP= 0.00E+00 SK= 0.00E+00
   1851 T=   233. E= -.93516471E+03 F= -.94103807E+03 E0= -.94103807E+03  EK= 0.58734E+01 SP= 0.00E+00 SK= 0.00E+00
   1852 T=   234. E= -.93513731E+03 F= -.94103971E+03 E0= -.94103971E+03  EK= 0.59024E+01 SP= 0.00E+00 SK= 0.00E+00
   1853 T=   234. E= -.93510032E+03 F= -.94099494E+03 E0= -.94099494E+03  EK= 0.58946E+01 SP= 0.00E+00 SK= 0.00E+00
   1854 T=   231. E= -.93507653E+03 F= -.94090700E+03 E0= -.94090700E+03  EK= 0.58305E+01 SP= 0.00E+00 SK= 0.00E+00
   1855 T=   227. E= -.93511704E+03 F= -.94082859E+03 E0= -.94082859E+03  EK= 0.57115E+01 SP= 0.00E+00 SK= 0.00E+00
   1856 T=   222. E= -.93522574E+03 F= -.94082774E+03 E0= -.94082774E+03  EK= 0.56020E+01 SP= 0.00E+00 SK= 0.00E+00
   1857 T=   222. E= -.93530368E+03 F= -.94088750E+03 E0= -.94088750E+03  EK= 0.55838E+01 SP= 0.00E+00 SK= 0.00E+00
   1858 T=   223. E= -.93533148E+03 F= -.94096145E+03 E0= -.94096145E+03  EK= 0.56300E+01 SP= 0.00E+00 SK= 0.00E+00
   1859 T=   228. E= -.93531682E+03 F= -.94105911E+03 E0= -.94105911E+03  EK= 0.57423E+01 SP= 0.00E+00 SK= 0.00E+00
   1860 T=   233. E= -.93526209E+03 F= -.94113494E+03 E0= -.94113494E+03  EK= 0.58729E+01 SP= 0.00E+00 SK= 0.00E+00
   1861 T=   232. E= -.93529160E+03 F= -.94112877E+03 E0= -.94112877E+03  EK= 0.58372E+01 SP= 0.00E+00 SK= 0.00E+00
   1862 T=   225. E= -.93534355E+03 F= -.94100742E+03 E0= -.94100742E+03  EK= 0.56639E+01 SP= 0.00E+00 SK= 0.00E+00
   1863 T=   220. E= -.93529508E+03 F= -.94084407E+03 E0= -.94084407E+03  EK= 0.55490E+01 SP= 0.00E+00 SK= 0.00E+00
   1864 T=   219. E= -.93523450E+03 F= -.94074246E+03 E0= -.94074246E+03  EK= 0.55080E+01 SP= 0.00E+00 SK= 0.00E+00
   1865 T=   222. E= -.93513029E+03 F= -.94073244E+03 E0= -.94073244E+03  EK= 0.56021E+01 SP= 0.00E+00 SK= 0.00E+00
   1866 T=   230. E= -.93505610E+03 F= -.94085882E+03 E0= -.94085882E+03  EK= 0.58027E+01 SP= 0.00E+00 SK= 0.00E+00
   1867 T=   237. E= -.93507307E+03 F= -.94104184E+03 E0= -.94104184E+03  EK= 0.59688E+01 SP= 0.00E+00 SK= 0.00E+00
   1868 T=   242. E= -.93505327E+03 F= -.94115742E+03 E0= -.94115742E+03  EK= 0.61041E+01 SP= 0.00E+00 SK= 0.00E+00
   1869 T=   245. E= -.93502279E+03 F= -.94119950E+03 E0= -.94119950E+03  EK= 0.61767E+01 SP= 0.00E+00 SK= 0.00E+00
   1870 T=   244. E= -.93498839E+03 F= -.94112804E+03 E0= -.94112804E+03  EK= 0.61397E+01 SP= 0.00E+00 SK= 0.00E+00
   1871 T=   244. E= -.93489357E+03 F= -.94103440E+03 E0= -.94103440E+03  EK= 0.61408E+01 SP= 0.00E+00 SK= 0.00E+00
   1872 T=   248. E= -.93474377E+03 F= -.94098381E+03 E0= -.94098381E+03  EK= 0.62400E+01 SP= 0.00E+00 SK= 0.00E+00
   1873 T=   250. E= -.93466630E+03 F= -.94096989E+03 E0= -.94096989E+03  EK= 0.63036E+01 SP= 0.00E+00 SK= 0.00E+00
   1874 T=   249. E= -.93470197E+03 F= -.94098331E+03 E0= -.94098331E+03  EK= 0.62813E+01 SP= 0.00E+00 SK= 0.00E+00
   1875 T=   248. E= -.93472524E+03 F= -.94096714E+03 E0= -.94096714E+03  EK= 0.62419E+01 SP= 0.00E+00 SK= 0.00E+00
   1876 T=   247. E= -.93471301E+03 F= -.94094971E+03 E0= -.94094971E+03  EK= 0.62367E+01 SP= 0.00E+00 SK= 0.00E+00
   1877 T=   245. E= -.93473122E+03 F= -.94090343E+03 E0= -.94090343E+03  EK= 0.61722E+01 SP= 0.00E+00 SK= 0.00E+00
   1878 T=   239. E= -.93479388E+03 F= -.94080676E+03 E0= -.94080676E+03  EK= 0.60129E+01 SP= 0.00E+00 SK= 0.00E+00
   1879 T=   233. E= -.93484404E+03 F= -.94071098E+03 E0= -.94071098E+03  EK= 0.58669E+01 SP= 0.00E+00 SK= 0.00E+00
   1880 T=   228. E= -.93485415E+03 F= -.94060171E+03 E0= -.94060171E+03  EK= 0.57476E+01 SP= 0.00E+00 SK= 0.00E+00
   1881 T=   222. E= -.93487577E+03 F= -.94048287E+03 E0= -.94048287E+03  EK= 0.56071E+01 SP= 0.00E+00 SK= 0.00E+00
   1882 T=   217. E= -.93493442E+03 F= -.94041392E+03 E0= -.94041392E+03  EK= 0.54795E+01 SP= 0.00E+00 SK= 0.00E+00
   1883 T=   216. E= -.93498352E+03 F= -.94042565E+03 E0= -.94042565E+03  EK= 0.54421E+01 SP= 0.00E+00 SK= 0.00E+00
   1884 T=   220. E= -.93497207E+03 F= -.94050630E+03 E0= -.94050630E+03  EK= 0.55342E+01 SP= 0.00E+00 SK= 0.00E+00
   1885 T=   222. E= -.93497274E+03 F= -.94056856E+03 E0= -.94056856E+03  EK= 0.55958E+01 SP= 0.00E+00 SK= 0.00E+00
   1886 T=   223. E= -.93501552E+03 F= -.94062797E+03 E0= -.94062797E+03  EK= 0.56125E+01 SP= 0.00E+00 SK= 0.00E+00
   1887 T=   223. E= -.93501248E+03 F= -.94063219E+03 E0= -.94063219E+03  EK= 0.56197E+01 SP= 0.00E+00 SK= 0.00E+00
   1888 T=   222. E= -.93503409E+03 F= -.94061985E+03 E0= -.94061985E+03  EK= 0.55858E+01 SP= 0.00E+00 SK= 0.00E+00
   1889 T=   222. E= -.93500136E+03 F= -.94060377E+03 E0= -.94060377E+03  EK= 0.56024E+01 SP= 0.00E+00 SK= 0.00E+00
   1890 T=   223. E= -.93498787E+03 F= -.94061108E+03 E0= -.94061108E+03  EK= 0.56232E+01 SP= 0.00E+00 SK= 0.00E+00
   1891 T=   224. E= -.93501065E+03 F= -.94066552E+03 E0= -.94066552E+03  EK= 0.56549E+01 SP= 0.00E+00 SK= 0.00E+00
   1892 T=   229. E= -.93498402E+03 F= -.94075940E+03 E0= -.94075940E+03  EK= 0.57754E+01 SP= 0.00E+00 SK= 0.00E+00
   1893 T=   232. E= -.93501069E+03 F= -.94085557E+03 E0= -.94085557E+03  EK= 0.58449E+01 SP= 0.00E+00 SK= 0.00E+00
   1894 T=   233. E= -.93505328E+03 F= -.94092835E+03 E0= -.94092835E+03  EK= 0.58751E+01 SP= 0.00E+00 SK= 0.00E+00
   1895 T=   233. E= -.93506742E+03 F= -.94094620E+03 E0= -.94094620E+03  EK= 0.58788E+01 SP= 0.00E+00 SK= 0.00E+00
   1896 T=   227. E= -.93510280E+03 F= -.94081883E+03 E0= -.94081883E+03  EK= 0.57160E+01 SP= 0.00E+00 SK= 0.00E+00
   1897 T=   216. E= -.93516573E+03 F= -.94061267E+03 E0= -.94061267E+03  EK= 0.54469E+01 SP= 0.00E+00 SK= 0.00E+00
   1898 T=   208. E= -.93517862E+03 F= -.94042869E+03 E0= -.94042869E+03  EK= 0.52501E+01 SP= 0.00E+00 SK= 0.00E+00
   1899 T=   209. E= -.93511333E+03 F= -.94037594E+03 E0= -.94037594E+03  EK= 0.52626E+01 SP= 0.00E+00 SK= 0.00E+00
   1900 T=   217. E= -.93505154E+03 F= -.94051355E+03 E0= -.94051355E+03  EK= 0.54620E+01 SP= 0.00E+00 SK= 0.00E+00
   1901 T=   225. E= -.93507760E+03 F= -.94076139E+03 E0= -.94076139E+03  EK= 0.56838E+01 SP= 0.00E+00 SK= 0.00E+00
   1902 T=   231. E= -.93513577E+03 F= -.94095086E+03 E0= -.94095086E+03  EK= 0.58151E+01 SP= 0.00E+00 SK= 0.00E+00
   1903 T=   230. E= -.93519809E+03 F= -.94100060E+03 E0= -.94100060E+03  EK= 0.58025E+01 SP= 0.00E+00 SK= 0.00E+00
   1904 T=   224. E= -.93524392E+03 F= -.94088729E+03 E0= -.94088729E+03  EK= 0.56434E+01 SP= 0.00E+00 SK= 0.00E+00
   1905 T=   215. E= -.93527245E+03 F= -.94070096E+03 E0= -.94070096E+03  EK= 0.54285E+01 SP= 0.00E+00 SK= 0.00E+00
   1906 T=   209. E= -.93529488E+03 F= -.94057381E+03 E0= -.94057381E+03  EK= 0.52789E+01 SP= 0.00E+00 SK= 0.00E+00
   1907 T=   210. E= -.93527542E+03 F= -.94057465E+03 E0= -.94057465E+03  EK= 0.52992E+01 SP= 0.00E+00 SK= 0.00E+00
   1908 T=   216. E= -.93523606E+03 F= -.94068262E+03 E0= -.94068262E+03  EK= 0.54466E+01 SP= 0.00E+00 SK= 0.00E+00
   1909 T=   222. E= -.93523366E+03 F= -.94083777E+03 E0= -.94083777E+03  EK= 0.56041E+01 SP= 0.00E+00 SK= 0.00E+00
   1910 T=   227. E= -.93520189E+03 F= -.94092394E+03 E0= -.94092394E+03  EK= 0.57220E+01 SP= 0.00E+00 SK= 0.00E+00
   1911 T=   228. E= -.93513972E+03 F= -.94089386E+03 E0= -.94089386E+03  EK= 0.57541E+01 SP= 0.00E+00 SK= 0.00E+00
   1912 T=   225. E= -.93507200E+03 F= -.94074492E+03 E0= -.94074492E+03  EK= 0.56729E+01 SP= 0.00E+00 SK= 0.00E+00
   1913 T=   218. E= -.93505484E+03 F= -.94054884E+03 E0= -.94054884E+03  EK= 0.54940E+01 SP= 0.00E+00 SK= 0.00E+00
   1914 T=   212. E= -.93506770E+03 F= -.94041877E+03 E0= -.94041877E+03  EK= 0.53511E+01 SP= 0.00E+00 SK= 0.00E+00
   1915 T=   215. E= -.93504155E+03 F= -.94045115E+03 E0= -.94045115E+03  EK= 0.54096E+01 SP= 0.00E+00 SK= 0.00E+00
   1916 T=   223. E= -.93507640E+03 F= -.94070295E+03 E0= -.94070295E+03  EK= 0.56266E+01 SP= 0.00E+00 SK= 0.00E+00
   1917 T=   234. E= -.93511699E+03 F= -.94102332E+03 E0= -.94102332E+03  EK= 0.59063E+01 SP= 0.00E+00 SK= 0.00E+00
   1918 T=   243. E= -.93507860E+03 F= -.94121423E+03 E0= -.94121423E+03  EK= 0.61356E+01 SP= 0.00E+00 SK= 0.00E+00
   1919 T=   243. E= -.93508592E+03 F= -.94122259E+03 E0= -.94122259E+03  EK= 0.61367E+01 SP= 0.00E+00 SK= 0.00E+00
   1920 T=   237. E= -.93512210E+03 F= -.94108999E+03 E0= -.94108999E+03  EK= 0.59679E+01 SP= 0.00E+00 SK= 0.00E+00
   1921 T=   232. E= -.93513831E+03 F= -.94097700E+03 E0= -.94097700E+03  EK= 0.58387E+01 SP= 0.00E+00 SK= 0.00E+00
   1922 T=   229. E= -.93522298E+03 F= -.94098641E+03 E0= -.94098641E+03  EK= 0.57634E+01 SP= 0.00E+00 SK= 0.00E+00
   1923 T=   226. E= -.93537777E+03 F= -.94106971E+03 E0= -.94106971E+03  EK= 0.56919E+01 SP= 0.00E+00 SK= 0.00E+00
   1924 T=   230. E= -.93541400E+03 F= -.94121168E+03 E0= -.94121168E+03  EK= 0.57977E+01 SP= 0.00E+00 SK= 0.00E+00
   1925 T=   231. E= -.93545679E+03 F= -.94128361E+03 E0= -.94128361E+03  EK= 0.58268E+01 SP= 0.00E+00 SK= 0.00E+00
   1926 T=   232. E= -.93549053E+03 F= -.94132617E+03 E0= -.94132617E+03  EK= 0.58356E+01 SP= 0.00E+00 SK= 0.00E+00
   1927 T=   230. E= -.93553328E+03 F= -.94133399E+03 E0= -.94133399E+03  EK= 0.58007E+01 SP= 0.00E+00 SK= 0.00E+00
   1928 T=   224. E= -.93566793E+03 F= -.94130190E+03 E0= -.94130190E+03  EK= 0.56340E+01 SP= 0.00E+00 SK= 0.00E+00
   1929 T=   218. E= -.93575543E+03 F= -.94126039E+03 E0= -.94126039E+03  EK= 0.55050E+01 SP= 0.00E+00 SK= 0.00E+00
   1930 T=   218. E= -.93571226E+03 F= -.94121509E+03 E0= -.94121509E+03  EK= 0.55028E+01 SP= 0.00E+00 SK= 0.00E+00
   1931 T=   219. E= -.93564211E+03 F= -.94116589E+03 E0= -.94116589E+03  EK= 0.55238E+01 SP= 0.00E+00 SK= 0.00E+00
   1932 T=   216. E= -.93570696E+03 F= -.94115041E+03 E0= -.94115041E+03  EK= 0.54434E+01 SP= 0.00E+00 SK= 0.00E+00
   1933 T=   212. E= -.93579005E+03 F= -.94113937E+03 E0= -.94113937E+03  EK= 0.53493E+01 SP= 0.00E+00 SK= 0.00E+00
   1934 T=   213. E= -.93573556E+03 F= -.94110570E+03 E0= -.94110570E+03  EK= 0.53701E+01 SP= 0.00E+00 SK= 0.00E+00
   1935 T=   214. E= -.93566878E+03 F= -.94106460E+03 E0= -.94106460E+03  EK= 0.53958E+01 SP= 0.00E+00 SK= 0.00E+00
   1936 T=   212. E= -.93570987E+03 F= -.94106479E+03 E0= -.94106479E+03  EK= 0.53549E+01 SP= 0.00E+00 SK= 0.00E+00
   1937 T=   214. E= -.93574172E+03 F= -.94114417E+03 E0= -.94114417E+03  EK= 0.54025E+01 SP= 0.00E+00 SK= 0.00E+00
   1938 T=   219. E= -.93573235E+03 F= -.94125959E+03 E0= -.94125959E+03  EK= 0.55272E+01 SP= 0.00E+00 SK= 0.00E+00
   1939 T=   219. E= -.93576159E+03 F= -.94127930E+03 E0= -.94127930E+03  EK= 0.55177E+01 SP= 0.00E+00 SK= 0.00E+00
   1940 T=   217. E= -.93570723E+03 F= -.94118894E+03 E0= -.94118894E+03  EK= 0.54817E+01 SP= 0.00E+00 SK= 0.00E+00
   1941 T=   217. E= -.93556640E+03 F= -.94103321E+03 E0= -.94103321E+03  EK= 0.54668E+01 SP= 0.00E+00 SK= 0.00E+00
   1942 T=   215. E= -.93551450E+03 F= -.94093275E+03 E0= -.94093275E+03  EK= 0.54182E+01 SP= 0.00E+00 SK= 0.00E+00
   1943 T=   216. E= -.93553366E+03 F= -.94098304E+03 E0= -.94098304E+03  EK= 0.54494E+01 SP= 0.00E+00 SK= 0.00E+00
   1944 T=   223. E= -.93555026E+03 F= -.94116559E+03 E0= -.94116559E+03  EK= 0.56153E+01 SP= 0.00E+00 SK= 0.00E+00
   1945 T=   229. E= -.93559192E+03 F= -.94136470E+03 E0= -.94136470E+03  EK= 0.57728E+01 SP= 0.00E+00 SK= 0.00E+00
   1946 T=   233. E= -.93562708E+03 F= -.94149084E+03 E0= -.94149084E+03  EK= 0.58638E+01 SP= 0.00E+00 SK= 0.00E+00
   1947 T=   232. E= -.93566407E+03 F= -.94151457E+03 E0= -.94151457E+03  EK= 0.58505E+01 SP= 0.00E+00 SK= 0.00E+00
   1948 T=   228. E= -.93569063E+03 F= -.94143970E+03 E0= -.94143970E+03  EK= 0.57491E+01 SP= 0.00E+00 SK= 0.00E+00
   1949 T=   225. E= -.93564647E+03 F= -.94131421E+03 E0= -.94131421E+03  EK= 0.56677E+01 SP= 0.00E+00 SK= 0.00E+00
   1950 T=   222. E= -.93559987E+03 F= -.94119998E+03 E0= -.94119998E+03  EK= 0.56001E+01 SP= 0.00E+00 SK= 0.00E+00
   1951 T=   228. E= -.93548199E+03 F= -.94122302E+03 E0= -.94122302E+03  EK= 0.57410E+01 SP= 0.00E+00 SK= 0.00E+00
   1952 T=   236. E= -.93541258E+03 F= -.94137088E+03 E0= -.94137088E+03  EK= 0.59583E+01 SP= 0.00E+00 SK= 0.00E+00
   1953 T=   240. E= -.93552178E+03 F= -.94156530E+03 E0= -.94156530E+03  EK= 0.60435E+01 SP= 0.00E+00 SK= 0.00E+00
   1954 T=   246. E= -.93551476E+03 F= -.94170992E+03 E0= -.94170992E+03  EK= 0.61952E+01 SP= 0.00E+00 SK= 0.00E+00
   1955 T=   249. E= -.93548292E+03 F= -.94176051E+03 E0= -.94176051E+03  EK= 0.62776E+01 SP= 0.00E+00 SK= 0.00E+00
   1956 T=   246. E= -.93548217E+03 F= -.94168885E+03 E0= -.94168885E+03  EK= 0.62067E+01 SP= 0.00E+00 SK= 0.00E+00
   1957 T=   245. E= -.93539140E+03 F= -.94156203E+03 E0= -.94156203E+03  EK= 0.61706E+01 SP= 0.00E+00 SK= 0.00E+00
   1958 T=   247. E= -.93521293E+03 F= -.94142966E+03 E0= -.94142966E+03  EK= 0.62167E+01 SP= 0.00E+00 SK= 0.00E+00
   1959 T=   247. E= -.93510304E+03 F= -.94134065E+03 E0= -.94134065E+03  EK= 0.62376E+01 SP= 0.00E+00 SK= 0.00E+00
   1960 T=   244. E= -.93513372E+03 F= -.94128140E+03 E0= -.94128140E+03  EK= 0.61477E+01 SP= 0.00E+00 SK= 0.00E+00
   1961 T=   242. E= -.93517195E+03 F= -.94126328E+03 E0= -.94126328E+03  EK= 0.60913E+01 SP= 0.00E+00 SK= 0.00E+00
   1962 T=   241. E= -.93519200E+03 F= -.94126428E+03 E0= -.94126428E+03  EK= 0.60723E+01 SP= 0.00E+00 SK= 0.00E+00
   1963 T=   244. E= -.93511216E+03 F= -.94127078E+03 E0= -.94127078E+03  EK= 0.61586E+01 SP= 0.00E+00 SK= 0.00E+00
   1964 T=   245. E= -.93507200E+03 F= -.94125947E+03 E0= -.94125947E+03  EK= 0.61875E+01 SP= 0.00E+00 SK= 0.00E+00
   1965 T=   243. E= -.93510770E+03 F= -.94122893E+03 E0= -.94122893E+03  EK= 0.61212E+01 SP= 0.00E+00 SK= 0.00E+00
   1966 T=   240. E= -.93510616E+03 F= -.94116398E+03 E0= -.94116398E+03  EK= 0.60578E+01 SP= 0.00E+00 SK= 0.00E+00
   1967 T=   235. E= -.93513694E+03 F= -.94106889E+03 E0= -.94106889E+03  EK= 0.59319E+01 SP= 0.00E+00 SK= 0.00E+00
   1968 T=   231. E= -.93520751E+03 F= -.94103520E+03 E0= -.94103520E+03  EK= 0.58277E+01 SP= 0.00E+00 SK= 0.00E+00
   1969 T=   230. E= -.93528586E+03 F= -.94107649E+03 E0= -.94107649E+03  EK= 0.57906E+01 SP= 0.00E+00 SK= 0.00E+00
   1970 T=   229. E= -.93535395E+03 F= -.94112863E+03 E0= -.94112863E+03  EK= 0.57747E+01 SP= 0.00E+00 SK= 0.00E+00
   1971 T=   228. E= -.93539731E+03 F= -.94113860E+03 E0= -.94113860E+03  EK= 0.57413E+01 SP= 0.00E+00 SK= 0.00E+00
   1972 T=   226. E= -.93537161E+03 F= -.94107143E+03 E0= -.94107143E+03  EK= 0.56998E+01 SP= 0.00E+00 SK= 0.00E+00
   1973 T=   218. E= -.93540644E+03 F= -.94089879E+03 E0= -.94089879E+03  EK= 0.54924E+01 SP= 0.00E+00 SK= 0.00E+00
   1974 T=   211. E= -.93543588E+03 F= -.94076220E+03 E0= -.94076220E+03  EK= 0.53263E+01 SP= 0.00E+00 SK= 0.00E+00
   1975 T=   213. E= -.93539909E+03 F= -.94077526E+03 E0= -.94077526E+03  EK= 0.53762E+01 SP= 0.00E+00 SK= 0.00E+00
   1976 T=   221. E= -.93533754E+03 F= -.94092041E+03 E0= -.94092041E+03  EK= 0.55829E+01 SP= 0.00E+00 SK= 0.00E+00
   1977 T=   229. E= -.93528310E+03 F= -.94105608E+03 E0= -.94105608E+03  EK= 0.57730E+01 SP= 0.00E+00 SK= 0.00E+00
   1978 T=   231. E= -.93526822E+03 F= -.94109696E+03 E0= -.94109696E+03  EK= 0.58287E+01 SP= 0.00E+00 SK= 0.00E+00
   1979 T=   231. E= -.93521858E+03 F= -.94104137E+03 E0= -.94104137E+03  EK= 0.58228E+01 SP= 0.00E+00 SK= 0.00E+00
   1980 T=   224. E= -.93528721E+03 F= -.94093558E+03 E0= -.94093558E+03  EK= 0.56484E+01 SP= 0.00E+00 SK= 0.00E+00
   1981 T=   216. E= -.93540056E+03 F= -.94085665E+03 E0= -.94085665E+03  EK= 0.54561E+01 SP= 0.00E+00 SK= 0.00E+00
   1982 T=   215. E= -.93546317E+03 F= -.94087878E+03 E0= -.94087878E+03  EK= 0.54156E+01 SP= 0.00E+00 SK= 0.00E+00
   1983 T=   220. E= -.93550657E+03 F= -.94104176E+03 E0= -.94104176E+03  EK= 0.55352E+01 SP= 0.00E+00 SK= 0.00E+00
   1984 T=   226. E= -.93548630E+03 F= -.94118858E+03 E0= -.94118858E+03  EK= 0.57023E+01 SP= 0.00E+00 SK= 0.00E+00
   1985 T=   230. E= -.93546796E+03 F= -.94126256E+03 E0= -.94126256E+03  EK= 0.57946E+01 SP= 0.00E+00 SK= 0.00E+00
   1986 T=   227. E= -.93551952E+03 F= -.94125267E+03 E0= -.94125267E+03  EK= 0.57332E+01 SP= 0.00E+00 SK= 0.00E+00
   1987 T=   224. E= -.93549949E+03 F= -.94114771E+03 E0= -.94114771E+03  EK= 0.56482E+01 SP= 0.00E+00 SK= 0.00E+00
   1988 T=   220. E= -.93546156E+03 F= -.94100245E+03 E0= -.94100245E+03  EK= 0.55409E+01 SP= 0.00E+00 SK= 0.00E+00
   1989 T=   216. E= -.93545258E+03 F= -.94089978E+03 E0= -.94089978E+03  EK= 0.54472E+01 SP= 0.00E+00 SK= 0.00E+00
   1990 T=   220. E= -.93537307E+03 F= -.94092226E+03 E0= -.94092226E+03  EK= 0.55492E+01 SP= 0.00E+00 SK= 0.00E+00
   1991 T=   229. E= -.93530757E+03 F= -.94106914E+03 E0= -.94106914E+03  EK= 0.57616E+01 SP= 0.00E+00 SK= 0.00E+00
   1992 T=   241. E= -.93519501E+03 F= -.94126572E+03 E0= -.94126572E+03  EK= 0.60707E+01 SP= 0.00E+00 SK= 0.00E+00
   1993 T=   249. E= -.93511582E+03 F= -.94140130E+03 E0= -.94140130E+03  EK= 0.62855E+01 SP= 0.00E+00 SK= 0.00E+00
   1994 T=   252. E= -.93509276E+03 F= -.94143406E+03 E0= -.94143406E+03  EK= 0.63413E+01 SP= 0.00E+00 SK= 0.00E+00
   1995 T=   249. E= -.93509513E+03 F= -.94138006E+03 E0= -.94138006E+03  EK= 0.62849E+01 SP= 0.00E+00 SK= 0.00E+00
   1996 T=   245. E= -.93516415E+03 F= -.94133152E+03 E0= -.94133152E+03  EK= 0.61674E+01 SP= 0.00E+00 SK= 0.00E+00
   1997 T=   243. E= -.93517381E+03 F= -.94129801E+03 E0= -.94129801E+03  EK= 0.61242E+01 SP= 0.00E+00 SK= 0.00E+00
   1998 T=   240. E= -.93515600E+03 F= -.94120799E+03 E0= -.94120799E+03  EK= 0.60520E+01 SP= 0.00E+00 SK= 0.00E+00
   1999 T=   232. E= -.93519102E+03 F= -.94104517E+03 E0= -.94104517E+03  EK= 0.58541E+01 SP= 0.00E+00 SK= 0.00E+00
   2000 T=   226. E= -.93517636E+03 F= -.94086269E+03 E0= -.94086269E+03  EK= 0.56863E+01 SP= 0.00E+00 SK= 0.00E+00
   2001 T=   223. E= -.93515818E+03 F= -.94078193E+03 E0= -.94078193E+03  EK= 0.56237E+01 SP= 0.00E+00 SK= 0.00E+00
   2002 T=   224. E= -.93520906E+03 F= -.94084737E+03 E0= -.94084737E+03  EK= 0.56383E+01 SP= 0.00E+00 SK= 0.00E+00
   2003 T=   227. E= -.93526702E+03 F= -.94098350E+03 E0= -.94098350E+03  EK= 0.57165E+01 SP= 0.00E+00 SK= 0.00E+00
   2004 T=   232. E= -.93527479E+03 F= -.94112093E+03 E0= -.94112093E+03  EK= 0.58461E+01 SP= 0.00E+00 SK= 0.00E+00
   2005 T=   233. E= -.93527633E+03 F= -.94114341E+03 E0= -.94114341E+03  EK= 0.58671E+01 SP= 0.00E+00 SK= 0.00E+00
   2006 T=   229. E= -.93528072E+03 F= -.94104592E+03 E0= -.94104592E+03  EK= 0.57652E+01 SP= 0.00E+00 SK= 0.00E+00
   2007 T=   222. E= -.93528098E+03 F= -.94088163E+03 E0= -.94088163E+03  EK= 0.56006E+01 SP= 0.00E+00 SK= 0.00E+00
   2008 T=   217. E= -.93528622E+03 F= -.94075919E+03 E0= -.94075919E+03  EK= 0.54730E+01 SP= 0.00E+00 SK= 0.00E+00
   2009 T=   218. E= -.93528177E+03 F= -.94076960E+03 E0= -.94076960E+03  EK= 0.54878E+01 SP= 0.00E+00 SK= 0.00E+00
   2010 T=   223. E= -.93532736E+03 F= -.94093883E+03 E0= -.94093883E+03  EK= 0.56115E+01 SP= 0.00E+00 SK= 0.00E+00
   2011 T=   235. E= -.93531449E+03 F= -.94123350E+03 E0= -.94123350E+03  EK= 0.59190E+01 SP= 0.00E+00 SK= 0.00E+00
   2012 T=   249. E= -.93521613E+03 F= -.94149672E+03 E0= -.94149672E+03  EK= 0.62806E+01 SP= 0.00E+00 SK= 0.00E+00
   2013 T=   252. E= -.93522766E+03 F= -.94157229E+03 E0= -.94157229E+03  EK= 0.63446E+01 SP= 0.00E+00 SK= 0.00E+00
   2014 T=   241. E= -.93534653E+03 F= -.94141254E+03 E0= -.94141254E+03  EK= 0.60660E+01 SP= 0.00E+00 SK= 0.00E+00
   2015 T=   231. E= -.93530329E+03 F= -.94113172E+03 E0= -.94113172E+03  EK= 0.58284E+01 SP= 0.00E+00 SK= 0.00E+00
   2016 T=   225. E= -.93521462E+03 F= -.94087883E+03 E0= -.94087883E+03  EK= 0.56642E+01 SP= 0.00E+00 SK= 0.00E+00
   2017 T=   218. E= -.93527944E+03 F= -.94078269E+03 E0= -.94078269E+03  EK= 0.55033E+01 SP= 0.00E+00 SK= 0.00E+00
   2018 T=   221. E= -.93530495E+03 F= -.94086869E+03 E0= -.94086869E+03  EK= 0.55637E+01 SP= 0.00E+00 SK= 0.00E+00
   2019 T=   230. E= -.93525568E+03 F= -.94105046E+03 E0= -.94105046E+03  EK= 0.57948E+01 SP= 0.00E+00 SK= 0.00E+00
   2020 T=   236. E= -.93519949E+03 F= -.94114157E+03 E0= -.94114157E+03  EK= 0.59421E+01 SP= 0.00E+00 SK= 0.00E+00
   2021 T=   236. E= -.93512564E+03 F= -.94108630E+03 E0= -.94108630E+03  EK= 0.59607E+01 SP= 0.00E+00 SK= 0.00E+00
   2022 T=   232. E= -.93507218E+03 F= -.94092611E+03 E0= -.94092611E+03  EK= 0.58539E+01 SP= 0.00E+00 SK= 0.00E+00
   2023 T=   228. E= -.93503506E+03 F= -.94077186E+03 E0= -.94077186E+03  EK= 0.57368E+01 SP= 0.00E+00 SK= 0.00E+00
   2024 T=   225. E= -.93502250E+03 F= -.94069474E+03 E0= -.94069474E+03  EK= 0.56722E+01 SP= 0.00E+00 SK= 0.00E+00
   2025 T=   226. E= -.93502576E+03 F= -.94072054E+03 E0= -.94072054E+03  EK= 0.56948E+01 SP= 0.00E+00 SK= 0.00E+00
   2026 T=   232. E= -.93495762E+03 F= -.94080452E+03 E0= -.94080452E+03  EK= 0.58469E+01 SP= 0.00E+00 SK= 0.00E+00
   2027 T=   240. E= -.93488673E+03 F= -.94093338E+03 E0= -.94093338E+03  EK= 0.60467E+01 SP= 0.00E+00 SK= 0.00E+00
   2028 T=   245. E= -.93487056E+03 F= -.94103922E+03 E0= -.94103922E+03  EK= 0.61687E+01 SP= 0.00E+00 SK= 0.00E+00
   2029 T=   245. E= -.93490147E+03 F= -.94106725E+03 E0= -.94106725E+03  EK= 0.61658E+01 SP= 0.00E+00 SK= 0.00E+00
   2030 T=   241. E= -.93493538E+03 F= -.94100592E+03 E0= -.94100592E+03  EK= 0.60705E+01 SP= 0.00E+00 SK= 0.00E+00
   2031 T=   235. E= -.93500408E+03 F= -.94091814E+03 E0= -.94091814E+03  EK= 0.59141E+01 SP= 0.00E+00 SK= 0.00E+00
   2032 T=   229. E= -.93505900E+03 F= -.94083492E+03 E0= -.94083492E+03  EK= 0.57759E+01 SP= 0.00E+00 SK= 0.00E+00
   2033 T=   226. E= -.93507897E+03 F= -.94077538E+03 E0= -.94077538E+03  EK= 0.56964E+01 SP= 0.00E+00 SK= 0.00E+00
   2034 T=   227. E= -.93506660E+03 F= -.94078068E+03 E0= -.94078068E+03  EK= 0.57141E+01 SP= 0.00E+00 SK= 0.00E+00
   2035 T=   231. E= -.93498711E+03 F= -.94081261E+03 E0= -.94081261E+03  EK= 0.58255E+01 SP= 0.00E+00 SK= 0.00E+00
   2036 T=   233. E= -.93495372E+03 F= -.94081600E+03 E0= -.94081600E+03  EK= 0.58623E+01 SP= 0.00E+00 SK= 0.00E+00
   2037 T=   233. E= -.93488755E+03 F= -.94076319E+03 E0= -.94076319E+03  EK= 0.58756E+01 SP= 0.00E+00 SK= 0.00E+00
   2038 T=   237. E= -.93472885E+03 F= -.94069997E+03 E0= -.94069997E+03  EK= 0.59711E+01 SP= 0.00E+00 SK= 0.00E+00
   2039 T=   239. E= -.93463430E+03 F= -.94064909E+03 E0= -.94064909E+03  EK= 0.60148E+01 SP= 0.00E+00 SK= 0.00E+00
   2040 T=   237. E= -.93465361E+03 F= -.94062992E+03 E0= -.94062992E+03  EK= 0.59763E+01 SP= 0.00E+00 SK= 0.00E+00
   2041 T=   236. E= -.93468012E+03 F= -.94063770E+03 E0= -.94063770E+03  EK= 0.59576E+01 SP= 0.00E+00 SK= 0.00E+00
   2042 T=   236. E= -.93471026E+03 F= -.94065448E+03 E0= -.94065448E+03  EK= 0.59442E+01 SP= 0.00E+00 SK= 0.00E+00
   2043 T=   237. E= -.93471767E+03 F= -.94069887E+03 E0= -.94069887E+03  EK= 0.59812E+01 SP= 0.00E+00 SK= 0.00E+00
   2044 T=   242. E= -.93469284E+03 F= -.94079052E+03 E0= -.94079052E+03  EK= 0.60977E+01 SP= 0.00E+00 SK= 0.00E+00
   2045 T=   244. E= -.93473200E+03 F= -.94089136E+03 E0= -.94089136E+03  EK= 0.61594E+01 SP= 0.00E+00 SK= 0.00E+00
   2046 T=   247. E= -.93474498E+03 F= -.94096022E+03 E0= -.94096022E+03  EK= 0.62152E+01 SP= 0.00E+00 SK= 0.00E+00
   2047 T=   246. E= -.93474612E+03 F= -.94094309E+03 E0= -.94094309E+03  EK= 0.61970E+01 SP= 0.00E+00 SK= 0.00E+00
   2048 T=   242. E= -.93477557E+03 F= -.94086750E+03 E0= -.94086750E+03  EK= 0.60919E+01 SP= 0.00E+00 SK= 0.00E+00
   2049 T=   236. E= -.93484258E+03 F= -.94078975E+03 E0= -.94078975E+03  EK= 0.59472E+01 SP= 0.00E+00 SK= 0.00E+00
   2050 T=   234. E= -.93484603E+03 F= -.94073319E+03 E0= -.94073319E+03  EK= 0.58872E+01 SP= 0.00E+00 SK= 0.00E+00
   2051 T=   236. E= -.93474768E+03 F= -.94070037E+03 E0= -.94070037E+03  EK= 0.59527E+01 SP= 0.00E+00 SK= 0.00E+00
   2052 T=   238. E= -.93466929E+03 F= -.94067552E+03 E0= -.94067552E+03  EK= 0.60062E+01 SP= 0.00E+00 SK= 0.00E+00
   2053 T=   244. E= -.93453262E+03 F= -.94067330E+03 E0= -.94067330E+03  EK= 0.61407E+01 SP= 0.00E+00 SK= 0.00E+00
   2054 T=   247. E= -.93448070E+03 F= -.94071062E+03 E0= -.94071062E+03  EK= 0.62299E+01 SP= 0.00E+00 SK= 0.00E+00
   2055 T=   246. E= -.93456255E+03 F= -.94076966E+03 E0= -.94076966E+03  EK= 0.62071E+01 SP= 0.00E+00 SK= 0.00E+00
   2056 T=   242. E= -.93468445E+03 F= -.94078021E+03 E0= -.94078021E+03  EK= 0.60958E+01 SP= 0.00E+00 SK= 0.00E+00
   2057 T=   239. E= -.93469080E+03 F= -.94071740E+03 E0= -.94071740E+03  EK= 0.60266E+01 SP= 0.00E+00 SK= 0.00E+00
   2058 T=   237. E= -.93464523E+03 F= -.94062653E+03 E0= -.94062653E+03  EK= 0.59813E+01 SP= 0.00E+00 SK= 0.00E+00
   2059 T=   236. E= -.93464115E+03 F= -.94057990E+03 E0= -.94057990E+03  EK= 0.59388E+01 SP= 0.00E+00 SK= 0.00E+00
   2060 T=   237. E= -.93464812E+03 F= -.94062563E+03 E0= -.94062563E+03  EK= 0.59775E+01 SP= 0.00E+00 SK= 0.00E+00
   2061 T=   242. E= -.93466508E+03 F= -.94075711E+03 E0= -.94075711E+03  EK= 0.60920E+01 SP= 0.00E+00 SK= 0.00E+00
   2062 T=   243. E= -.93474000E+03 F= -.94086624E+03 E0= -.94086624E+03  EK= 0.61262E+01 SP= 0.00E+00 SK= 0.00E+00
   2063 T=   241. E= -.93484813E+03 F= -.94091803E+03 E0= -.94091803E+03  EK= 0.60699E+01 SP= 0.00E+00 SK= 0.00E+00
   2064 T=   240. E= -.93485571E+03 F= -.94091374E+03 E0= -.94091374E+03  EK= 0.60580E+01 SP= 0.00E+00 SK= 0.00E+00
   2065 T=   239. E= -.93485957E+03 F= -.94089634E+03 E0= -.94089634E+03  EK= 0.60368E+01 SP= 0.00E+00 SK= 0.00E+00
   2066 T=   241. E= -.93482339E+03 F= -.94089655E+03 E0= -.94089655E+03  EK= 0.60732E+01 SP= 0.00E+00 SK= 0.00E+00
   2067 T=   244. E= -.93474901E+03 F= -.94088707E+03 E0= -.94088707E+03  EK= 0.61381E+01 SP= 0.00E+00 SK= 0.00E+00
   2068 T=   246. E= -.93471973E+03 F= -.94092632E+03 E0= -.94092632E+03  EK= 0.62066E+01 SP= 0.00E+00 SK= 0.00E+00
   2069 T=   244. E= -.93480403E+03 F= -.94095330E+03 E0= -.94095330E+03  EK= 0.61493E+01 SP= 0.00E+00 SK= 0.00E+00
   2070 T=   242. E= -.93480342E+03 F= -.94090924E+03 E0= -.94090924E+03  EK= 0.61058E+01 SP= 0.00E+00 SK= 0.00E+00
   2071 T=   242. E= -.93470835E+03 F= -.94081061E+03 E0= -.94081061E+03  EK= 0.61023E+01 SP= 0.00E+00 SK= 0.00E+00
   2072 T=   240. E= -.93468842E+03 F= -.94073604E+03 E0= -.94073604E+03  EK= 0.60476E+01 SP= 0.00E+00 SK= 0.00E+00
   2073 T=   240. E= -.93472777E+03 F= -.94076973E+03 E0= -.94076973E+03  EK= 0.60420E+01 SP= 0.00E+00 SK= 0.00E+00
   2074 T=   242. E= -.93476949E+03 F= -.94087907E+03 E0= -.94087907E+03  EK= 0.61096E+01 SP= 0.00E+00 SK= 0.00E+00
   2075 T=   244. E= -.93482769E+03 F= -.94098346E+03 E0= -.94098346E+03  EK= 0.61558E+01 SP= 0.00E+00 SK= 0.00E+00
   2076 T=   244. E= -.93488053E+03 F= -.94102736E+03 E0= -.94102736E+03  EK= 0.61468E+01 SP= 0.00E+00 SK= 0.00E+00
   2077 T=   240. E= -.93495952E+03 F= -.94099902E+03 E0= -.94099902E+03  EK= 0.60395E+01 SP= 0.00E+00 SK= 0.00E+00
   2078 T=   233. E= -.93502926E+03 F= -.94091297E+03 E0= -.94091297E+03  EK= 0.58837E+01 SP= 0.00E+00 SK= 0.00E+00
   2079 T=   232. E= -.93500634E+03 F= -.94086090E+03 E0= -.94086090E+03  EK= 0.58546E+01 SP= 0.00E+00 SK= 0.00E+00
   2080 T=   233. E= -.93498808E+03 F= -.94085505E+03 E0= -.94085505E+03  EK= 0.58670E+01 SP= 0.00E+00 SK= 0.00E+00
   2081 T=   229. E= -.93508580E+03 F= -.94086808E+03 E0= -.94086808E+03  EK= 0.57823E+01 SP= 0.00E+00 SK= 0.00E+00
   2082 T=   229. E= -.93512399E+03 F= -.94088963E+03 E0= -.94088963E+03  EK= 0.57656E+01 SP= 0.00E+00 SK= 0.00E+00
   2083 T=   230. E= -.93516605E+03 F= -.94096268E+03 E0= -.94096268E+03  EK= 0.57966E+01 SP= 0.00E+00 SK= 0.00E+00
   2084 T=   230. E= -.93519753E+03 F= -.94099295E+03 E0= -.94099295E+03  EK= 0.57954E+01 SP= 0.00E+00 SK= 0.00E+00
   2085 T=   231. E= -.93511369E+03 F= -.94093762E+03 E0= -.94093762E+03  EK= 0.58239E+01 SP= 0.00E+00 SK= 0.00E+00
   2086 T=   229. E= -.93500526E+03 F= -.94077120E+03 E0= -.94077120E+03  EK= 0.57659E+01 SP= 0.00E+00 SK= 0.00E+00
   2087 T=   225. E= -.93487755E+03 F= -.94053942E+03 E0= -.94053942E+03  EK= 0.56619E+01 SP= 0.00E+00 SK= 0.00E+00
   2088 T=   223. E= -.93476720E+03 F= -.94038391E+03 E0= -.94038391E+03  EK= 0.56167E+01 SP= 0.00E+00 SK= 0.00E+00
   2089 T=   225. E= -.93468991E+03 F= -.94036899E+03 E0= -.94036899E+03  EK= 0.56791E+01 SP= 0.00E+00 SK= 0.00E+00
   2090 T=   228. E= -.93471968E+03 F= -.94047313E+03 E0= -.94047313E+03  EK= 0.57535E+01 SP= 0.00E+00 SK= 0.00E+00
   2091 T=   230. E= -.93481777E+03 F= -.94060695E+03 E0= -.94060695E+03  EK= 0.57892E+01 SP= 0.00E+00 SK= 0.00E+00
   2092 T=   230. E= -.93492405E+03 F= -.94072547E+03 E0= -.94072547E+03  EK= 0.58014E+01 SP= 0.00E+00 SK= 0.00E+00
   2093 T=   229. E= -.93498967E+03 F= -.94075039E+03 E0= -.94075039E+03  EK= 0.57607E+01 SP= 0.00E+00 SK= 0.00E+00
   2094 T=   228. E= -.93496827E+03 F= -.94070429E+03 E0= -.94070429E+03  EK= 0.57360E+01 SP= 0.00E+00 SK= 0.00E+00
   2095 T=   225. E= -.93495494E+03 F= -.94061677E+03 E0= -.94061677E+03  EK= 0.56618E+01 SP= 0.00E+00 SK= 0.00E+00
   2096 T=   223. E= -.93492149E+03 F= -.94053595E+03 E0= -.94053595E+03  EK= 0.56145E+01 SP= 0.00E+00 SK= 0.00E+00
   2097 T=   228. E= -.93481221E+03 F= -.94056166E+03 E0= -.94056166E+03  EK= 0.57494E+01 SP= 0.00E+00 SK= 0.00E+00
   2098 T=   235. E= -.93475252E+03 F= -.94066835E+03 E0= -.94066835E+03  EK= 0.59158E+01 SP= 0.00E+00 SK= 0.00E+00
   2099 T=   240. E= -.93474974E+03 F= -.94078673E+03 E0= -.94078673E+03  EK= 0.60370E+01 SP= 0.00E+00 SK= 0.00E+00
   2100 T=   243. E= -.93475510E+03 F= -.94088015E+03 E0= -.94088015E+03  EK= 0.61251E+01 SP= 0.00E+00 SK= 0.00E+00
   2101 T=   241. E= -.93481544E+03 F= -.94087936E+03 E0= -.94087936E+03  EK= 0.60639E+01 SP= 0.00E+00 SK= 0.00E+00
   2102 T=   234. E= -.93482822E+03 F= -.94072668E+03 E0= -.94072668E+03  EK= 0.58985E+01 SP= 0.00E+00 SK= 0.00E+00
   2103 T=   230. E= -.93477617E+03 F= -.94057222E+03 E0= -.94057222E+03  EK= 0.57961E+01 SP= 0.00E+00 SK= 0.00E+00
   2104 T=   227. E= -.93476328E+03 F= -.94049594E+03 E0= -.94049594E+03  EK= 0.57327E+01 SP= 0.00E+00 SK= 0.00E+00
   2105 T=   228. E= -.93481218E+03 F= -.94055963E+03 E0= -.94055963E+03  EK= 0.57475E+01 SP= 0.00E+00 SK= 0.00E+00
   2106 T=   230. E= -.93488566E+03 F= -.94068478E+03 E0= -.94068478E+03  EK= 0.57991E+01 SP= 0.00E+00 SK= 0.00E+00
   2107 T=   233. E= -.93494027E+03 F= -.94080082E+03 E0= -.94080082E+03  EK= 0.58605E+01 SP= 0.00E+00 SK= 0.00E+00
   2108 T=   238. E= -.93490540E+03 F= -.94089868E+03 E0= -.94089868E+03  EK= 0.59933E+01 SP= 0.00E+00 SK= 0.00E+00
   2109 T=   238. E= -.93492204E+03 F= -.94092551E+03 E0= -.94092551E+03  EK= 0.60035E+01 SP= 0.00E+00 SK= 0.00E+00
   2110 T=   236. E= -.93496480E+03 F= -.94090760E+03 E0= -.94090760E+03  EK= 0.59428E+01 SP= 0.00E+00 SK= 0.00E+00
   2111 T=   236. E= -.93497821E+03 F= -.94093196E+03 E0= -.94093196E+03  EK= 0.59538E+01 SP= 0.00E+00 SK= 0.00E+00
   2112 T=   238. E= -.93502734E+03 F= -.94101937E+03 E0= -.94101937E+03  EK= 0.59920E+01 SP= 0.00E+00 SK= 0.00E+00
   2113 T=   241. E= -.93505015E+03 F= -.94112230E+03 E0= -.94112230E+03  EK= 0.60722E+01 SP= 0.00E+00 SK= 0.00E+00
   2114 T=   248. E= -.93495492E+03 F= -.94119345E+03 E0= -.94119345E+03  EK= 0.62385E+01 SP= 0.00E+00 SK= 0.00E+00
   2115 T=   250. E= -.93491682E+03 F= -.94122430E+03 E0= -.94122430E+03  EK= 0.63075E+01 SP= 0.00E+00 SK= 0.00E+00
   2116 T=   246. E= -.93498410E+03 F= -.94118219E+03 E0= -.94118219E+03  EK= 0.61981E+01 SP= 0.00E+00 SK= 0.00E+00
   2117 T=   242. E= -.93499884E+03 F= -.94109571E+03 E0= -.94109571E+03  EK= 0.60969E+01 SP= 0.00E+00 SK= 0.00E+00
   2118 T=   239. E= -.93498050E+03 F= -.94099294E+03 E0= -.94099294E+03  EK= 0.60124E+01 SP= 0.00E+00 SK= 0.00E+00
   2119 T=   238. E= -.93493243E+03 F= -.94093393E+03 E0= -.94093393E+03  EK= 0.60015E+01 SP= 0.00E+00 SK= 0.00E+00
   2120 T=   237. E= -.93495624E+03 F= -.94093947E+03 E0= -.94093947E+03  EK= 0.59832E+01 SP= 0.00E+00 SK= 0.00E+00
   2121 T=   238. E= -.93500529E+03 F= -.94099799E+03 E0= -.94099799E+03  EK= 0.59927E+01 SP= 0.00E+00 SK= 0.00E+00
   2122 T=   237. E= -.93510711E+03 F= -.94107628E+03 E0= -.94107628E+03  EK= 0.59692E+01 SP= 0.00E+00 SK= 0.00E+00
   2123 T=   234. E= -.93522776E+03 F= -.94113018E+03 E0= -.94113018E+03  EK= 0.59024E+01 SP= 0.00E+00 SK= 0.00E+00
   2124 T=   233. E= -.93525140E+03 F= -.94112185E+03 E0= -.94112185E+03  EK= 0.58705E+01 SP= 0.00E+00 SK= 0.00E+00
   2125 T=   234. E= -.93519034E+03 F= -.94108841E+03 E0= -.94108841E+03  EK= 0.58981E+01 SP= 0.00E+00 SK= 0.00E+00
   2126 T=   233. E= -.93513844E+03 F= -.94101915E+03 E0= -.94101915E+03  EK= 0.58807E+01 SP= 0.00E+00 SK= 0.00E+00
   2127 T=   237. E= -.93504099E+03 F= -.94100417E+03 E0= -.94100417E+03  EK= 0.59632E+01 SP= 0.00E+00 SK= 0.00E+00
   2128 T=   241. E= -.93497447E+03 F= -.94105793E+03 E0= -.94105793E+03  EK= 0.60835E+01 SP= 0.00E+00 SK= 0.00E+00
   2129 T=   242. E= -.93502685E+03 F= -.94113504E+03 E0= -.94113504E+03  EK= 0.61082E+01 SP= 0.00E+00 SK= 0.00E+00
   2130 T=   246. E= -.93503197E+03 F= -.94122900E+03 E0= -.94122900E+03  EK= 0.61970E+01 SP= 0.00E+00 SK= 0.00E+00
   2131 T=   248. E= -.93503367E+03 F= -.94128096E+03 E0= -.94128096E+03  EK= 0.62473E+01 SP= 0.00E+00 SK= 0.00E+00
   2132 T=   246. E= -.93506954E+03 F= -.94126468E+03 E0= -.94126468E+03  EK= 0.61951E+01 SP= 0.00E+00 SK= 0.00E+00
   2133 T=   241. E= -.93510050E+03 F= -.94117088E+03 E0= -.94117088E+03  EK= 0.60704E+01 SP= 0.00E+00 SK= 0.00E+00
   2134 T=   236. E= -.93508238E+03 F= -.94102717E+03 E0= -.94102717E+03  EK= 0.59448E+01 SP= 0.00E+00 SK= 0.00E+00
   2135 T=   234. E= -.93504827E+03 F= -.94094465E+03 E0= -.94094465E+03  EK= 0.58964E+01 SP= 0.00E+00 SK= 0.00E+00
   2136 T=   234. E= -.93505366E+03 F= -.94095428E+03 E0= -.94095428E+03  EK= 0.59006E+01 SP= 0.00E+00 SK= 0.00E+00
   2137 T=   235. E= -.93513237E+03 F= -.94106403E+03 E0= -.94106403E+03  EK= 0.59317E+01 SP= 0.00E+00 SK= 0.00E+00
   2138 T=   244. E= -.93507711E+03 F= -.94122712E+03 E0= -.94122712E+03  EK= 0.61500E+01 SP= 0.00E+00 SK= 0.00E+00
   2139 T=   250. E= -.93501816E+03 F= -.94132518E+03 E0= -.94132518E+03  EK= 0.63070E+01 SP= 0.00E+00 SK= 0.00E+00
   2140 T=   249. E= -.93501740E+03 F= -.94129095E+03 E0= -.94129095E+03  EK= 0.62735E+01 SP= 0.00E+00 SK= 0.00E+00
   2141 T=   246. E= -.93495017E+03 F= -.94114953E+03 E0= -.94114953E+03  EK= 0.61994E+01 SP= 0.00E+00 SK= 0.00E+00
   2142 T=   240. E= -.93492745E+03 F= -.94098324E+03 E0= -.94098324E+03  EK= 0.60558E+01 SP= 0.00E+00 SK= 0.00E+00
   2143 T=   234. E= -.93496639E+03 F= -.94086652E+03 E0= -.94086652E+03  EK= 0.59001E+01 SP= 0.00E+00 SK= 0.00E+00
   2144 T=   229. E= -.93502713E+03 F= -.94080794E+03 E0= -.94080794E+03  EK= 0.57808E+01 SP= 0.00E+00 SK= 0.00E+00
   2145 T=   229. E= -.93507931E+03 F= -.94085690E+03 E0= -.94085690E+03  EK= 0.57776E+01 SP= 0.00E+00 SK= 0.00E+00
   2146 T=   233. E= -.93510228E+03 F= -.94097354E+03 E0= -.94097354E+03  EK= 0.58713E+01 SP= 0.00E+00 SK= 0.00E+00
   2147 T=   237. E= -.93512323E+03 F= -.94109371E+03 E0= -.94109371E+03  EK= 0.59705E+01 SP= 0.00E+00 SK= 0.00E+00
   2148 T=   238. E= -.93517377E+03 F= -.94116631E+03 E0= -.94116631E+03  EK= 0.59925E+01 SP= 0.00E+00 SK= 0.00E+00
   2149 T=   234. E= -.93527055E+03 F= -.94117617E+03 E0= -.94117617E+03  EK= 0.59056E+01 SP= 0.00E+00 SK= 0.00E+00
   2150 T=   228. E= -.93538862E+03 F= -.94114560E+03 E0= -.94114560E+03  EK= 0.57570E+01 SP= 0.00E+00 SK= 0.00E+00
   2151 T=   225. E= -.93544974E+03 F= -.94113165E+03 E0= -.94113165E+03  EK= 0.56819E+01 SP= 0.00E+00 SK= 0.00E+00
   2152 T=   227. E= -.93544989E+03 F= -.94115986E+03 E0= -.94115986E+03  EK= 0.57100E+01 SP= 0.00E+00 SK= 0.00E+00
   2153 T=   231. E= -.93539564E+03 F= -.94120571E+03 E0= -.94120571E+03  EK= 0.58101E+01 SP= 0.00E+00 SK= 0.00E+00
   2154 T=   233. E= -.93537644E+03 F= -.94124042E+03 E0= -.94124042E+03  EK= 0.58640E+01 SP= 0.00E+00 SK= 0.00E+00
   2155 T=   229. E= -.93547510E+03 F= -.94123591E+03 E0= -.94123591E+03  EK= 0.57608E+01 SP= 0.00E+00 SK= 0.00E+00
   2156 T=   222. E= -.93557898E+03 F= -.94118145E+03 E0= -.94118145E+03  EK= 0.56025E+01 SP= 0.00E+00 SK= 0.00E+00
   2157 T=   222. E= -.93557987E+03 F= -.94116808E+03 E0= -.94116808E+03  EK= 0.55882E+01 SP= 0.00E+00 SK= 0.00E+00
   2158 T=   220. E= -.93561848E+03 F= -.94115709E+03 E0= -.94115709E+03  EK= 0.55386E+01 SP= 0.00E+00 SK= 0.00E+00
   2159 T=   218. E= -.93567489E+03 F= -.94116068E+03 E0= -.94116068E+03  EK= 0.54858E+01 SP= 0.00E+00 SK= 0.00E+00
   2160 T=   218. E= -.93570997E+03 F= -.94121129E+03 E0= -.94121129E+03  EK= 0.55013E+01 SP= 0.00E+00 SK= 0.00E+00
   2161 T=   218. E= -.93576207E+03 F= -.94126112E+03 E0= -.94126112E+03  EK= 0.54990E+01 SP= 0.00E+00 SK= 0.00E+00
   2162 T=   221. E= -.93574186E+03 F= -.94131741E+03 E0= -.94131741E+03  EK= 0.55756E+01 SP= 0.00E+00 SK= 0.00E+00
   2163 T=   224. E= -.93566854E+03 F= -.94132274E+03 E0= -.94132274E+03  EK= 0.56542E+01 SP= 0.00E+00 SK= 0.00E+00
   2164 T=   222. E= -.93568089E+03 F= -.94127323E+03 E0= -.94127323E+03  EK= 0.55923E+01 SP= 0.00E+00 SK= 0.00E+00
   2165 T=   221. E= -.93567355E+03 F= -.94124593E+03 E0= -.94124593E+03  EK= 0.55724E+01 SP= 0.00E+00 SK= 0.00E+00
   2166 T=   225. E= -.93563444E+03 F= -.94129537E+03 E0= -.94129537E+03  EK= 0.56609E+01 SP= 0.00E+00 SK= 0.00E+00
   2167 T=   231. E= -.93564237E+03 F= -.94146763E+03 E0= -.94146763E+03  EK= 0.58253E+01 SP= 0.00E+00 SK= 0.00E+00
   2168 T=   242. E= -.93562271E+03 F= -.94172001E+03 E0= -.94172001E+03  EK= 0.60973E+01 SP= 0.00E+00 SK= 0.00E+00
   2169 T=   255. E= -.93553797E+03 F= -.94196506E+03 E0= -.94196506E+03  EK= 0.64271E+01 SP= 0.00E+00 SK= 0.00E+00
   2170 T=   260. E= -.93548554E+03 F= -.94204551E+03 E0= -.94204551E+03  EK= 0.65600E+01 SP= 0.00E+00 SK= 0.00E+00
   2171 T=   259. E= -.93543763E+03 F= -.94195439E+03 E0= -.94195439E+03  EK= 0.65168E+01 SP= 0.00E+00 SK= 0.00E+00
   2172 T=   253. E= -.93538329E+03 F= -.94175871E+03 E0= -.94175871E+03  EK= 0.63754E+01 SP= 0.00E+00 SK= 0.00E+00
   2173 T=   245. E= -.93537205E+03 F= -.94154914E+03 E0= -.94154914E+03  EK= 0.61771E+01 SP= 0.00E+00 SK= 0.00E+00
   2174 T=   238. E= -.93543127E+03 F= -.94143115E+03 E0= -.94143115E+03  EK= 0.59999E+01 SP= 0.00E+00 SK= 0.00E+00
   2175 T=   235. E= -.93548370E+03 F= -.94139677E+03 E0= -.94139677E+03  EK= 0.59131E+01 SP= 0.00E+00 SK= 0.00E+00
   2176 T=   234. E= -.93555545E+03 F= -.94146032E+03 E0= -.94146032E+03  EK= 0.59049E+01 SP= 0.00E+00 SK= 0.00E+00
   2177 T=   233. E= -.93569267E+03 F= -.94156272E+03 E0= -.94156272E+03  EK= 0.58701E+01 SP= 0.00E+00 SK= 0.00E+00
   2178 T=   234. E= -.93573251E+03 F= -.94163912E+03 E0= -.94163912E+03  EK= 0.59066E+01 SP= 0.00E+00 SK= 0.00E+00
   2179 T=   238. E= -.93566747E+03 F= -.94166004E+03 E0= -.94166004E+03  EK= 0.59926E+01 SP= 0.00E+00 SK= 0.00E+00
   2180 T=   241. E= -.93553872E+03 F= -.94160517E+03 E0= -.94160517E+03  EK= 0.60664E+01 SP= 0.00E+00 SK= 0.00E+00
   2181 T=   237. E= -.93553738E+03 F= -.94151416E+03 E0= -.94151416E+03  EK= 0.59768E+01 SP= 0.00E+00 SK= 0.00E+00
   2182 T=   235. E= -.93553601E+03 F= -.94145836E+03 E0= -.94145836E+03  EK= 0.59224E+01 SP= 0.00E+00 SK= 0.00E+00
   2183 T=   238. E= -.93545522E+03 F= -.94145742E+03 E0= -.94145742E+03  EK= 0.60022E+01 SP= 0.00E+00 SK= 0.00E+00
   2184 T=   239. E= -.93542286E+03 F= -.94145206E+03 E0= -.94145206E+03  EK= 0.60292E+01 SP= 0.00E+00 SK= 0.00E+00
   2185 T=   243. E= -.93529940E+03 F= -.94143464E+03 E0= -.94143464E+03  EK= 0.61352E+01 SP= 0.00E+00 SK= 0.00E+00
   2186 T=   247. E= -.93519199E+03 F= -.94140991E+03 E0= -.94140991E+03  EK= 0.62179E+01 SP= 0.00E+00 SK= 0.00E+00
   2187 T=   244. E= -.93521795E+03 F= -.94137803E+03 E0= -.94137803E+03  EK= 0.61601E+01 SP= 0.00E+00 SK= 0.00E+00
   2188 T=   242. E= -.93524900E+03 F= -.94135072E+03 E0= -.94135072E+03  EK= 0.61017E+01 SP= 0.00E+00 SK= 0.00E+00
   2189 T=   242. E= -.93521623E+03 F= -.94131401E+03 E0= -.94131401E+03  EK= 0.60978E+01 SP= 0.00E+00 SK= 0.00E+00
   2190 T=   240. E= -.93518141E+03 F= -.94122295E+03 E0= -.94122295E+03  EK= 0.60415E+01 SP= 0.00E+00 SK= 0.00E+00
   2191 T=   234. E= -.93514916E+03 F= -.94104781E+03 E0= -.94104781E+03  EK= 0.58986E+01 SP= 0.00E+00 SK= 0.00E+00
   2192 T=   224. E= -.93518023E+03 F= -.94082766E+03 E0= -.94082766E+03  EK= 0.56474E+01 SP= 0.00E+00 SK= 0.00E+00
   2193 T=   218. E= -.93521393E+03 F= -.94069885E+03 E0= -.94069885E+03  EK= 0.54849E+01 SP= 0.00E+00 SK= 0.00E+00
   2194 T=   217. E= -.93524325E+03 F= -.94070789E+03 E0= -.94070789E+03  EK= 0.54646E+01 SP= 0.00E+00 SK= 0.00E+00
   2195 T=   220. E= -.93522078E+03 F= -.94075811E+03 E0= -.94075811E+03  EK= 0.55373E+01 SP= 0.00E+00 SK= 0.00E+00
   2196 T=   225. E= -.93513276E+03 F= -.94080069E+03 E0= -.94080069E+03  EK= 0.56679E+01 SP= 0.00E+00 SK= 0.00E+00
   2197 T=   226. E= -.93505994E+03 F= -.94076294E+03 E0= -.94076294E+03  EK= 0.57030E+01 SP= 0.00E+00 SK= 0.00E+00
   2198 T=   221. E= -.93511464E+03 F= -.94067981E+03 E0= -.94067981E+03  EK= 0.55652E+01 SP= 0.00E+00 SK= 0.00E+00
   2199 T=   214. E= -.93519664E+03 F= -.94058802E+03 E0= -.94058802E+03  EK= 0.53914E+01 SP= 0.00E+00 SK= 0.00E+00
   2200 T=   208. E= -.93522308E+03 F= -.94047659E+03 E0= -.94047659E+03  EK= 0.52535E+01 SP= 0.00E+00 SK= 0.00E+00
   2201 T=   207. E= -.93524582E+03 F= -.94045440E+03 E0= -.94045440E+03  EK= 0.52086E+01 SP= 0.00E+00 SK= 0.00E+00
   2202 T=   211. E= -.93520877E+03 F= -.94051835E+03 E0= -.94051835E+03  EK= 0.53096E+01 SP= 0.00E+00 SK= 0.00E+00
   2203 T=   220. E= -.93511170E+03 F= -.94065217E+03 E0= -.94065217E+03  EK= 0.55405E+01 SP= 0.00E+00 SK= 0.00E+00
   2204 T=   228. E= -.93503916E+03 F= -.94079852E+03 E0= -.94079852E+03  EK= 0.57594E+01 SP= 0.00E+00 SK= 0.00E+00
   2205 T=   232. E= -.93505915E+03 F= -.94090831E+03 E0= -.94090831E+03  EK= 0.58492E+01 SP= 0.00E+00 SK= 0.00E+00
   2206 T=   231. E= -.93504506E+03 F= -.94086918E+03 E0= -.94086918E+03  EK= 0.58241E+01 SP= 0.00E+00 SK= 0.00E+00
   2207 T=   225. E= -.93505557E+03 F= -.94073671E+03 E0= -.94073671E+03  EK= 0.56811E+01 SP= 0.00E+00 SK= 0.00E+00
   2208 T=   222. E= -.93501160E+03 F= -.94060185E+03 E0= -.94060185E+03  EK= 0.55902E+01 SP= 0.00E+00 SK= 0.00E+00
   2209 T=   221. E= -.93496237E+03 F= -.94052991E+03 E0= -.94052991E+03  EK= 0.55675E+01 SP= 0.00E+00 SK= 0.00E+00
   2210 T=   219. E= -.93501351E+03 F= -.94053356E+03 E0= -.94053356E+03  EK= 0.55201E+01 SP= 0.00E+00 SK= 0.00E+00
   2211 T=   221. E= -.93503191E+03 F= -.94060334E+03 E0= -.94060334E+03  EK= 0.55714E+01 SP= 0.00E+00 SK= 0.00E+00
   2212 T=   224. E= -.93501628E+03 F= -.94065963E+03 E0= -.94065963E+03  EK= 0.56433E+01 SP= 0.00E+00 SK= 0.00E+00
   2213 T=   226. E= -.93498649E+03 F= -.94068365E+03 E0= -.94068365E+03  EK= 0.56972E+01 SP= 0.00E+00 SK= 0.00E+00
   2214 T=   228. E= -.93494372E+03 F= -.94069312E+03 E0= -.94069312E+03  EK= 0.57494E+01 SP= 0.00E+00 SK= 0.00E+00
   2215 T=   230. E= -.93493090E+03 F= -.94073867E+03 E0= -.94073867E+03  EK= 0.58078E+01 SP= 0.00E+00 SK= 0.00E+00
   2216 T=   232. E= -.93491727E+03 F= -.94076066E+03 E0= -.94076066E+03  EK= 0.58434E+01 SP= 0.00E+00 SK= 0.00E+00
   2217 T=   231. E= -.93495340E+03 F= -.94076494E+03 E0= -.94076494E+03  EK= 0.58115E+01 SP= 0.00E+00 SK= 0.00E+00
   2218 T=   230. E= -.93501726E+03 F= -.94081117E+03 E0= -.94081117E+03  EK= 0.57939E+01 SP= 0.00E+00 SK= 0.00E+00
   2219 T=   233. E= -.93508114E+03 F= -.94094500E+03 E0= -.94094500E+03  EK= 0.58639E+01 SP= 0.00E+00 SK= 0.00E+00
   2220 T=   243. E= -.93500706E+03 F= -.94113612E+03 E0= -.94113612E+03  EK= 0.61291E+01 SP= 0.00E+00 SK= 0.00E+00
   2221 T=   251. E= -.93497110E+03 F= -.94129816E+03 E0= -.94129816E+03  EK= 0.63271E+01 SP= 0.00E+00 SK= 0.00E+00
   2222 T=   251. E= -.93504579E+03 F= -.94137587E+03 E0= -.94137587E+03  EK= 0.63301E+01 SP= 0.00E+00 SK= 0.00E+00
   2223 T=   251. E= -.93502967E+03 F= -.94135597E+03 E0= -.94135597E+03  EK= 0.63263E+01 SP= 0.00E+00 SK= 0.00E+00
   2224 T=   249. E= -.93499071E+03 F= -.94126452E+03 E0= -.94126452E+03  EK= 0.62738E+01 SP= 0.00E+00 SK= 0.00E+00
   2225 T=   241. E= -.93504238E+03 F= -.94112232E+03 E0= -.94112232E+03  EK= 0.60799E+01 SP= 0.00E+00 SK= 0.00E+00
   2226 T=   235. E= -.93508900E+03 F= -.94101632E+03 E0= -.94101632E+03  EK= 0.59273E+01 SP= 0.00E+00 SK= 0.00E+00
   2227 T=   232. E= -.93509435E+03 F= -.94093594E+03 E0= -.94093594E+03  EK= 0.58416E+01 SP= 0.00E+00 SK= 0.00E+00
   2228 T=   229. E= -.93512277E+03 F= -.94088613E+03 E0= -.94088613E+03  EK= 0.57634E+01 SP= 0.00E+00 SK= 0.00E+00
   2229 T=   228. E= -.93513715E+03 F= -.94089423E+03 E0= -.94089423E+03  EK= 0.57571E+01 SP= 0.00E+00 SK= 0.00E+00
   2230 T=   228. E= -.93519998E+03 F= -.94093946E+03 E0= -.94093946E+03  EK= 0.57395E+01 SP= 0.00E+00 SK= 0.00E+00
   2231 T=   228. E= -.93524681E+03 F= -.94098851E+03 E0= -.94098851E+03  EK= 0.57417E+01 SP= 0.00E+00 SK= 0.00E+00
   2232 T=   232. E= -.93513738E+03 F= -.94099482E+03 E0= -.94099482E+03  EK= 0.58574E+01 SP= 0.00E+00 SK= 0.00E+00
   2233 T=   233. E= -.93510344E+03 F= -.94098508E+03 E0= -.94098508E+03  EK= 0.58816E+01 SP= 0.00E+00 SK= 0.00E+00
   2234 T=   229. E= -.93511113E+03 F= -.94087937E+03 E0= -.94087937E+03  EK= 0.57682E+01 SP= 0.00E+00 SK= 0.00E+00
   2235 T=   222. E= -.93514581E+03 F= -.94074770E+03 E0= -.94074770E+03  EK= 0.56019E+01 SP= 0.00E+00 SK= 0.00E+00
   2236 T=   222. E= -.93510557E+03 F= -.94069041E+03 E0= -.94069041E+03  EK= 0.55848E+01 SP= 0.00E+00 SK= 0.00E+00
   2237 T=   227. E= -.93503198E+03 F= -.94075512E+03 E0= -.94075512E+03  EK= 0.57231E+01 SP= 0.00E+00 SK= 0.00E+00
   2238 T=   231. E= -.93501173E+03 F= -.94084436E+03 E0= -.94084436E+03  EK= 0.58326E+01 SP= 0.00E+00 SK= 0.00E+00
   2239 T=   236. E= -.93501691E+03 F= -.94096842E+03 E0= -.94096842E+03  EK= 0.59515E+01 SP= 0.00E+00 SK= 0.00E+00
   2240 T=   233. E= -.93516476E+03 F= -.94103309E+03 E0= -.94103309E+03  EK= 0.58683E+01 SP= 0.00E+00 SK= 0.00E+00
   2241 T=   229. E= -.93526522E+03 F= -.94102888E+03 E0= -.94102888E+03  EK= 0.57637E+01 SP= 0.00E+00 SK= 0.00E+00
   2242 T=   225. E= -.93528534E+03 F= -.94095040E+03 E0= -.94095040E+03  EK= 0.56651E+01 SP= 0.00E+00 SK= 0.00E+00
   2243 T=   217. E= -.93535301E+03 F= -.94082559E+03 E0= -.94082559E+03  EK= 0.54726E+01 SP= 0.00E+00 SK= 0.00E+00
   2244 T=   214. E= -.93532809E+03 F= -.94071972E+03 E0= -.94071972E+03  EK= 0.53916E+01 SP= 0.00E+00 SK= 0.00E+00
   2245 T=   217. E= -.93520050E+03 F= -.94066802E+03 E0= -.94066802E+03  EK= 0.54675E+01 SP= 0.00E+00 SK= 0.00E+00
   2246 T=   223. E= -.93509309E+03 F= -.94071195E+03 E0= -.94071195E+03  EK= 0.56189E+01 SP= 0.00E+00 SK= 0.00E+00
   2247 T=   230. E= -.93499989E+03 F= -.94079398E+03 E0= -.94079398E+03  EK= 0.57941E+01 SP= 0.00E+00 SK= 0.00E+00
   2248 T=   234. E= -.93496949E+03 F= -.94087309E+03 E0= -.94087309E+03  EK= 0.59036E+01 SP= 0.00E+00 SK= 0.00E+00
   2249 T=   232. E= -.93503706E+03 F= -.94088989E+03 E0= -.94088989E+03  EK= 0.58528E+01 SP= 0.00E+00 SK= 0.00E+00
   2250 T=   230. E= -.93505863E+03 F= -.94084774E+03 E0= -.94084774E+03  EK= 0.57891E+01 SP= 0.00E+00 SK= 0.00E+00
   2251 T=   228. E= -.93498407E+03 F= -.94073259E+03 E0= -.94073259E+03  EK= 0.57485E+01 SP= 0.00E+00 SK= 0.00E+00
   2252 T=   225. E= -.93493924E+03 F= -.94061536E+03 E0= -.94061536E+03  EK= 0.56761E+01 SP= 0.00E+00 SK= 0.00E+00
   2253 T=   224. E= -.93492721E+03 F= -.94057826E+03 E0= -.94057826E+03  EK= 0.56511E+01 SP= 0.00E+00 SK= 0.00E+00
   2254 T=   226. E= -.93492815E+03 F= -.94062412E+03 E0= -.94062412E+03  EK= 0.56960E+01 SP= 0.00E+00 SK= 0.00E+00
   2255 T=   234. E= -.93485143E+03 F= -.94075010E+03 E0= -.94075010E+03  EK= 0.58987E+01 SP= 0.00E+00 SK= 0.00E+00
   2256 T=   237. E= -.93483437E+03 F= -.94081288E+03 E0= -.94081288E+03  EK= 0.59785E+01 SP= 0.00E+00 SK= 0.00E+00
   2257 T=   233. E= -.93486492E+03 F= -.94074703E+03 E0= -.94074703E+03  EK= 0.58821E+01 SP= 0.00E+00 SK= 0.00E+00
   2258 T=   230. E= -.93478051E+03 F= -.94058323E+03 E0= -.94058323E+03  EK= 0.58027E+01 SP= 0.00E+00 SK= 0.00E+00
       N       E                     dE             d eps       ncg     rms          rms(c)
DAV:   1     0.107431408223E+03    0.10367E+04   -0.74433E+04 16726   0.472E+02
DAV:   2    -0.913504882059E+03   -0.10209E+04   -0.99427E+03 18902   0.155E+02
DAV:   3    -0.956389848751E+03   -0.42885E+02   -0.42766E+02 19332   0.365E+01
DAV:   4    -0.957044221800E+03   -0.65437E+00   -0.65394E+00 19580   0.433E+00    0.441E+01
DAV:   5    -0.926934947025E+03    0.30109E+02   -0.79106E+01 19500   0.180E+01    0.226E+01
DAV:   6    -0.927362026472E+03   -0.42708E+00   -0.23129E+01 18452   0.974E+00    0.106E+01
DAV:   7    -0.929215860493E+03   -0.18538E+01   -0.56331E+00 18620   0.588E+00    0.291E+00
DAV:   8    -0.929341112342E+03   -0.12525E+00   -0.80307E-01 19036   0.219E+00    0.150E+00
DAV:   9    -0.929374192455E+03   -0.33080E-01   -0.33780E-01 18380   0.125E+00    0.836E-01
DAV:  10    -0.929364352446E+03    0.98400E-02   -0.43022E-02 22780   0.632E-01    0.338E-01
DAV:  11    -0.929362383439E+03    0.19690E-02   -0.29165E-02 18692   0.413E-01    0.176E-01
DAV:  12    -0.929360876008E+03    0.15074E-02   -0.32877E-03 20108   0.180E-01    0.101E-01
DAV:  13    -0.929359824422E+03    0.10516E-02   -0.19049E-03 18716   0.153E-01    0.465E-02
DAV:  14    -0.929359388591E+03    0.43583E-03   -0.68018E-04 19652   0.128E-01    0.511E-02
DAV:  15    -0.929359319390E+03    0.69201E-04   -0.83274E-04 19596   0.776E-02
   2259 T=   225. E= -.93474000E+03 F= -.94040036E+03 E0= -.94040036E+03  EK= 0.56604E+01 SP= 0.00E+00 SK= 0.00E+00
   2260 T=   221. E= -.93482818E+03 F= -.94040103E+03 E0= -.94040103E+03  EK= 0.55728E+01 SP= 0.00E+00 SK= 0.00E+00
   2261 T=   226. E= -.93475852E+03 F= -.94045076E+03 E0= -.94045076E+03  EK= 0.56922E+01 SP= 0.00E+00 SK= 0.00E+00
   2262 T=   237. E= -.93461175E+03 F= -.94059301E+03 E0= -.94059301E+03  EK= 0.59813E+01 SP= 0.00E+00 SK= 0.00E+00
   2263 T=   243. E= -.93457277E+03 F= -.94070202E+03 E0= -.94070202E+03  EK= 0.61292E+01 SP= 0.00E+00 SK= 0.00E+00
   2264 T=   243. E= -.93458270E+03 F= -.94071196E+03 E0= -.94071196E+03  EK= 0.61293E+01 SP= 0.00E+00 SK= 0.00E+00
   2265 T=   241. E= -.93459276E+03 F= -.94066692E+03 E0= -.94066692E+03  EK= 0.60742E+01 SP= 0.00E+00 SK= 0.00E+00
   2266 T=   238. E= -.93463028E+03 F= -.94063366E+03 E0= -.94063366E+03  EK= 0.60034E+01 SP= 0.00E+00 SK= 0.00E+00
   2267 T=   238. E= -.93464433E+03 F= -.94063815E+03 E0= -.94063815E+03  EK= 0.59938E+01 SP= 0.00E+00 SK= 0.00E+00
   2268 T=   243. E= -.93458883E+03 F= -.94071256E+03 E0= -.94071256E+03  EK= 0.61237E+01 SP= 0.00E+00 SK= 0.00E+00
   2269 T=   246. E= -.93458704E+03 F= -.94079226E+03 E0= -.94079226E+03  EK= 0.62052E+01 SP= 0.00E+00 SK= 0.00E+00
   2270 T=   247. E= -.93465940E+03 F= -.94087977E+03 E0= -.94087977E+03  EK= 0.62204E+01 SP= 0.00E+00 SK= 0.00E+00
   2271 T=   250. E= -.93465253E+03 F= -.94095691E+03 E0= -.94095691E+03  EK= 0.63044E+01 SP= 0.00E+00 SK= 0.00E+00
   2272 T=   251. E= -.93461873E+03 F= -.94094650E+03 E0= -.94094650E+03  EK= 0.63278E+01 SP= 0.00E+00 SK= 0.00E+00
   2273 T=   246. E= -.93465291E+03 F= -.94085686E+03 E0= -.94085686E+03  EK= 0.62040E+01 SP= 0.00E+00 SK= 0.00E+00
   2274 T=   236. E= -.93475822E+03 F= -.94070302E+03 E0= -.94070302E+03  EK= 0.59448E+01 SP= 0.00E+00 SK= 0.00E+00
   2275 T=   231. E= -.93478121E+03 F= -.94060259E+03 E0= -.94060259E+03  EK= 0.58214E+01 SP= 0.00E+00 SK= 0.00E+00
   2276 T=   230. E= -.93477863E+03 F= -.94057911E+03 E0= -.94057911E+03  EK= 0.58005E+01 SP= 0.00E+00 SK= 0.00E+00
   2277 T=   230. E= -.93481000E+03 F= -.94061100E+03 E0= -.94061100E+03  EK= 0.58010E+01 SP= 0.00E+00 SK= 0.00E+00
   2278 T=   233. E= -.93481170E+03 F= -.94069263E+03 E0= -.94069263E+03  EK= 0.58809E+01 SP= 0.00E+00 SK= 0.00E+00
   2279 T=   237. E= -.93484076E+03 F= -.94081127E+03 E0= -.94081127E+03  EK= 0.59705E+01 SP= 0.00E+00 SK= 0.00E+00
   2280 T=   238. E= -.93489707E+03 F= -.94088472E+03 E0= -.94088472E+03  EK= 0.59877E+01 SP= 0.00E+00 SK= 0.00E+00
   2281 T=   234. E= -.93493642E+03 F= -.94082892E+03 E0= -.94082892E+03  EK= 0.58925E+01 SP= 0.00E+00 SK= 0.00E+00
   2282 T=   226. E= -.93499992E+03 F= -.94070237E+03 E0= -.94070237E+03  EK= 0.57024E+01 SP= 0.00E+00 SK= 0.00E+00
   2283 T=   224. E= -.93496273E+03 F= -.94061980E+03 E0= -.94061980E+03  EK= 0.56571E+01 SP= 0.00E+00 SK= 0.00E+00
   2284 T=   230. E= -.93480855E+03 F= -.94061620E+03 E0= -.94061620E+03  EK= 0.58077E+01 SP= 0.00E+00 SK= 0.00E+00
   2285 T=   234. E= -.93476963E+03 F= -.94067224E+03 E0= -.94067224E+03  EK= 0.59026E+01 SP= 0.00E+00 SK= 0.00E+00
   2286 T=   235. E= -.93482009E+03 F= -.94074572E+03 E0= -.94074572E+03  EK= 0.59256E+01 SP= 0.00E+00 SK= 0.00E+00
   2287 T=   237. E= -.93477448E+03 F= -.94074461E+03 E0= -.94074461E+03  EK= 0.59701E+01 SP= 0.00E+00 SK= 0.00E+00
   2288 T=   233. E= -.93472552E+03 F= -.94060776E+03 E0= -.94060776E+03  EK= 0.58822E+01 SP= 0.00E+00 SK= 0.00E+00
   2289 T=   230. E= -.93466164E+03 F= -.94044817E+03 E0= -.94044817E+03  EK= 0.57865E+01 SP= 0.00E+00 SK= 0.00E+00
   2290 T=   227. E= -.93465112E+03 F= -.94036650E+03 E0= -.94036650E+03  EK= 0.57154E+01 SP= 0.00E+00 SK= 0.00E+00
   2291 T=   227. E= -.93466407E+03 F= -.94039154E+03 E0= -.94039154E+03  EK= 0.57275E+01 SP= 0.00E+00 SK= 0.00E+00
   2292 T=   230. E= -.93472605E+03 F= -.94051837E+03 E0= -.94051837E+03  EK= 0.57923E+01 SP= 0.00E+00 SK= 0.00E+00
   2293 T=   233. E= -.93478975E+03 F= -.94065379E+03 E0= -.94065379E+03  EK= 0.58640E+01 SP= 0.00E+00 SK= 0.00E+00
   2294 T=   238. E= -.93474927E+03 F= -.94075006E+03 E0= -.94075006E+03  EK= 0.60008E+01 SP= 0.00E+00 SK= 0.00E+00
   2295 T=   240. E= -.93472570E+03 F= -.94078765E+03 E0= -.94078765E+03  EK= 0.60620E+01 SP= 0.00E+00 SK= 0.00E+00
   2296 T=   237. E= -.93479703E+03 F= -.94077036E+03 E0= -.94077036E+03  EK= 0.59733E+01 SP= 0.00E+00 SK= 0.00E+00
   2297 T=   232. E= -.93487188E+03 F= -.94070817E+03 E0= -.94070817E+03  EK= 0.58363E+01 SP= 0.00E+00 SK= 0.00E+00
   2298 T=   228. E= -.93489065E+03 F= -.94062562E+03 E0= -.94062562E+03  EK= 0.57350E+01 SP= 0.00E+00 SK= 0.00E+00
   2299 T=   227. E= -.93487504E+03 F= -.94058996E+03 E0= -.94058996E+03  EK= 0.57149E+01 SP= 0.00E+00 SK= 0.00E+00
   2300 T=   230. E= -.93489958E+03 F= -.94069239E+03 E0= -.94069239E+03  EK= 0.57928E+01 SP= 0.00E+00 SK= 0.00E+00
   2301 T=   238. E= -.93489441E+03 F= -.94090007E+03 E0= -.94090007E+03  EK= 0.60057E+01 SP= 0.00E+00 SK= 0.00E+00
   2302 T=   246. E= -.93485595E+03 F= -.94105965E+03 E0= -.94105965E+03  EK= 0.62037E+01 SP= 0.00E+00 SK= 0.00E+00
   2303 T=   245. E= -.93487617E+03 F= -.94104932E+03 E0= -.94104932E+03  EK= 0.61731E+01 SP= 0.00E+00 SK= 0.00E+00
   2304 T=   239. E= -.93488176E+03 F= -.94091039E+03 E0= -.94091039E+03  EK= 0.60286E+01 SP= 0.00E+00 SK= 0.00E+00
   2305 T=   235. E= -.93478844E+03 F= -.94070516E+03 E0= -.94070516E+03  EK= 0.59167E+01 SP= 0.00E+00 SK= 0.00E+00
   2306 T=   232. E= -.93468297E+03 F= -.94052163E+03 E0= -.94052163E+03  EK= 0.58387E+01 SP= 0.00E+00 SK= 0.00E+00
   2307 T=   231. E= -.93460487E+03 F= -.94042186E+03 E0= -.94042186E+03  EK= 0.58170E+01 SP= 0.00E+00 SK= 0.00E+00
   2308 T=   233. E= -.93453392E+03 F= -.94039631E+03 E0= -.94039631E+03  EK= 0.58624E+01 SP= 0.00E+00 SK= 0.00E+00
   2309 T=   234. E= -.93449491E+03 F= -.94039906E+03 E0= -.94039906E+03  EK= 0.59042E+01 SP= 0.00E+00 SK= 0.00E+00
   2310 T=   234. E= -.93448968E+03 F= -.94038082E+03 E0= -.94038082E+03  EK= 0.58911E+01 SP= 0.00E+00 SK= 0.00E+00
   2311 T=   233. E= -.93446826E+03 F= -.94033294E+03 E0= -.94033294E+03  EK= 0.58647E+01 SP= 0.00E+00 SK= 0.00E+00
   2312 T=   228. E= -.93450879E+03 F= -.94025595E+03 E0= -.94025595E+03  EK= 0.57472E+01 SP= 0.00E+00 SK= 0.00E+00
   2313 T=   224. E= -.93453650E+03 F= -.94019499E+03 E0= -.94019499E+03  EK= 0.56585E+01 SP= 0.00E+00 SK= 0.00E+00
   2314 T=   227. E= -.93447904E+03 F= -.94019245E+03 E0= -.94019245E+03  EK= 0.57134E+01 SP= 0.00E+00 SK= 0.00E+00
   2315 T=   231. E= -.93445663E+03 F= -.94026768E+03 E0= -.94026768E+03  EK= 0.58110E+01 SP= 0.00E+00 SK= 0.00E+00
   2316 T=   238. E= -.93447420E+03 F= -.94046415E+03 E0= -.94046415E+03  EK= 0.59899E+01 SP= 0.00E+00 SK= 0.00E+00
   2317 T=   249. E= -.93441256E+03 F= -.94068853E+03 E0= -.94068853E+03  EK= 0.62760E+01 SP= 0.00E+00 SK= 0.00E+00
   2318 T=   259. E= -.93429090E+03 F= -.94082966E+03 E0= -.94082966E+03  EK= 0.65388E+01 SP= 0.00E+00 SK= 0.00E+00
   2319 T=   260. E= -.93429041E+03 F= -.94084985E+03 E0= -.94084985E+03  EK= 0.65594E+01 SP= 0.00E+00 SK= 0.00E+00
   2320 T=   256. E= -.93430104E+03 F= -.94075035E+03 E0= -.94075035E+03  EK= 0.64493E+01 SP= 0.00E+00 SK= 0.00E+00
   2321 T=   255. E= -.93426449E+03 F= -.94069292E+03 E0= -.94069292E+03  EK= 0.64284E+01 SP= 0.00E+00 SK= 0.00E+00
   2322 T=   256. E= -.93429630E+03 F= -.94074754E+03 E0= -.94074754E+03  EK= 0.64512E+01 SP= 0.00E+00 SK= 0.00E+00
   2323 T=   256. E= -.93439382E+03 F= -.94084628E+03 E0= -.94084628E+03  EK= 0.64525E+01 SP= 0.00E+00 SK= 0.00E+00
   2324 T=   252. E= -.93448195E+03 F= -.94084089E+03 E0= -.94084089E+03  EK= 0.63589E+01 SP= 0.00E+00 SK= 0.00E+00
   2325 T=   248. E= -.93447858E+03 F= -.94072502E+03 E0= -.94072502E+03  EK= 0.62464E+01 SP= 0.00E+00 SK= 0.00E+00
   2326 T=   246. E= -.93438103E+03 F= -.94057270E+03 E0= -.94057270E+03  EK= 0.61917E+01 SP= 0.00E+00 SK= 0.00E+00
   2327 T=   239. E= -.93438645E+03 F= -.94041832E+03 E0= -.94041832E+03  EK= 0.60319E+01 SP= 0.00E+00 SK= 0.00E+00
   2328 T=   233. E= -.93444247E+03 F= -.94031106E+03 E0= -.94031106E+03  EK= 0.58686E+01 SP= 0.00E+00 SK= 0.00E+00
   2329 T=   229. E= -.93446257E+03 F= -.94022254E+03 E0= -.94022254E+03  EK= 0.57600E+01 SP= 0.00E+00 SK= 0.00E+00
   2330 T=   226. E= -.93447018E+03 F= -.94016903E+03 E0= -.94016903E+03  EK= 0.56989E+01 SP= 0.00E+00 SK= 0.00E+00
   2331 T=   230. E= -.93441300E+03 F= -.94020531E+03 E0= -.94020531E+03  EK= 0.57923E+01 SP= 0.00E+00 SK= 0.00E+00
   2332 T=   233. E= -.93442980E+03 F= -.94030791E+03 E0= -.94030791E+03  EK= 0.58781E+01 SP= 0.00E+00 SK= 0.00E+00
   2333 T=   237. E= -.93446097E+03 F= -.94043029E+03 E0= -.94043029E+03  EK= 0.59693E+01 SP= 0.00E+00 SK= 0.00E+00
   2334 T=   242. E= -.93441868E+03 F= -.94052526E+03 E0= -.94052526E+03  EK= 0.61066E+01 SP= 0.00E+00 SK= 0.00E+00
   2335 T=   247. E= -.93433776E+03 F= -.94057374E+03 E0= -.94057374E+03  EK= 0.62360E+01 SP= 0.00E+00 SK= 0.00E+00
   2336 T=   255. E= -.93421320E+03 F= -.94063231E+03 E0= -.94063231E+03  EK= 0.64191E+01 SP= 0.00E+00 SK= 0.00E+00
   2337 T=   258. E= -.93418248E+03 F= -.94068528E+03 E0= -.94068528E+03  EK= 0.65028E+01 SP= 0.00E+00 SK= 0.00E+00
   2338 T=   257. E= -.93422373E+03 F= -.94069543E+03 E0= -.94069543E+03  EK= 0.64717E+01 SP= 0.00E+00 SK= 0.00E+00
   2339 T=   255. E= -.93425046E+03 F= -.94068019E+03 E0= -.94068019E+03  EK= 0.64297E+01 SP= 0.00E+00 SK= 0.00E+00
   2340 T=   252. E= -.93425543E+03 F= -.94061342E+03 E0= -.94061342E+03  EK= 0.63580E+01 SP= 0.00E+00 SK= 0.00E+00
   2341 T=   245. E= -.93434567E+03 F= -.94053233E+03 E0= -.94053233E+03  EK= 0.61867E+01 SP= 0.00E+00 SK= 0.00E+00
   2342 T=   242. E= -.93441734E+03 F= -.94052163E+03 E0= -.94052163E+03  EK= 0.61043E+01 SP= 0.00E+00 SK= 0.00E+00
   2343 T=   246. E= -.93441242E+03 F= -.94060324E+03 E0= -.94060324E+03  EK= 0.61908E+01 SP= 0.00E+00 SK= 0.00E+00
   2344 T=   250. E= -.93440967E+03 F= -.94070149E+03 E0= -.94070149E+03  EK= 0.62918E+01 SP= 0.00E+00 SK= 0.00E+00
   2345 T=   255. E= -.93434024E+03 F= -.94077364E+03 E0= -.94077364E+03  EK= 0.64334E+01 SP= 0.00E+00 SK= 0.00E+00
   2346 T=   254. E= -.93431481E+03 F= -.94071399E+03 E0= -.94071399E+03  EK= 0.63992E+01 SP= 0.00E+00 SK= 0.00E+00
   2347 T=   247. E= -.93440482E+03 F= -.94061967E+03 E0= -.94061967E+03  EK= 0.62148E+01 SP= 0.00E+00 SK= 0.00E+00
   2348 T=   243. E= -.93446304E+03 F= -.94059838E+03 E0= -.94059838E+03  EK= 0.61353E+01 SP= 0.00E+00 SK= 0.00E+00
   2349 T=   244. E= -.93448059E+03 F= -.94063763E+03 E0= -.94063763E+03  EK= 0.61570E+01 SP= 0.00E+00 SK= 0.00E+00
   2350 T=   245. E= -.93449167E+03 F= -.94067286E+03 E0= -.94067286E+03  EK= 0.61812E+01 SP= 0.00E+00 SK= 0.00E+00
   2351 T=   245. E= -.93449686E+03 F= -.94067083E+03 E0= -.94067083E+03  EK= 0.61740E+01 SP= 0.00E+00 SK= 0.00E+00
   2352 T=   240. E= -.93459345E+03 F= -.94065111E+03 E0= -.94065111E+03  EK= 0.60577E+01 SP= 0.00E+00 SK= 0.00E+00
   2353 T=   236. E= -.93465933E+03 F= -.94060789E+03 E0= -.94060789E+03  EK= 0.59486E+01 SP= 0.00E+00 SK= 0.00E+00
   2354 T=   235. E= -.93467015E+03 F= -.94058960E+03 E0= -.94058960E+03  EK= 0.59195E+01 SP= 0.00E+00 SK= 0.00E+00
   2355 T=   232. E= -.93470902E+03 F= -.94055096E+03 E0= -.94055096E+03  EK= 0.58419E+01 SP= 0.00E+00 SK= 0.00E+00
   2356 T=   227. E= -.93477800E+03 F= -.94049596E+03 E0= -.94049596E+03  EK= 0.57180E+01 SP= 0.00E+00 SK= 0.00E+00
   2357 T=   224. E= -.93475857E+03 F= -.94041336E+03 E0= -.94041336E+03  EK= 0.56548E+01 SP= 0.00E+00 SK= 0.00E+00
   2358 T=   225. E= -.93463303E+03 F= -.94031467E+03 E0= -.94031467E+03  EK= 0.56816E+01 SP= 0.00E+00 SK= 0.00E+00
   2359 T=   228. E= -.93451126E+03 F= -.94025093E+03 E0= -.94025093E+03  EK= 0.57397E+01 SP= 0.00E+00 SK= 0.00E+00
   2360 T=   228. E= -.93446809E+03 F= -.94020783E+03 E0= -.94020783E+03  EK= 0.57397E+01 SP= 0.00E+00 SK= 0.00E+00
   2361 T=   226. E= -.93448590E+03 F= -.94017104E+03 E0= -.94017104E+03  EK= 0.56851E+01 SP= 0.00E+00 SK= 0.00E+00
   2362 T=   224. E= -.93449626E+03 F= -.94014933E+03 E0= -.94014933E+03  EK= 0.56531E+01 SP= 0.00E+00 SK= 0.00E+00
   2363 T=   222. E= -.93454879E+03 F= -.94015506E+03 E0= -.94015506E+03  EK= 0.56063E+01 SP= 0.00E+00 SK= 0.00E+00
   2364 T=   222. E= -.93459854E+03 F= -.94018196E+03 E0= -.94018196E+03  EK= 0.55834E+01 SP= 0.00E+00 SK= 0.00E+00
   2365 T=   224. E= -.93455476E+03 F= -.94019374E+03 E0= -.94019374E+03  EK= 0.56390E+01 SP= 0.00E+00 SK= 0.00E+00
   2366 T=   224. E= -.93448323E+03 F= -.94013331E+03 E0= -.94013331E+03  EK= 0.56501E+01 SP= 0.00E+00 SK= 0.00E+00
   2367 T=   223. E= -.93445634E+03 F= -.94007134E+03 E0= -.94007134E+03  EK= 0.56150E+01 SP= 0.00E+00 SK= 0.00E+00
   2368 T=   224. E= -.93445017E+03 F= -.94009453E+03 E0= -.94009453E+03  EK= 0.56444E+01 SP= 0.00E+00 SK= 0.00E+00
   2369 T=   225. E= -.93451142E+03 F= -.94018291E+03 E0= -.94018291E+03  EK= 0.56715E+01 SP= 0.00E+00 SK= 0.00E+00
   2370 T=   224. E= -.93461198E+03 F= -.94025466E+03 E0= -.94025466E+03  EK= 0.56427E+01 SP= 0.00E+00 SK= 0.00E+00
   2371 T=   222. E= -.93470569E+03 F= -.94029353E+03 E0= -.94029353E+03  EK= 0.55878E+01 SP= 0.00E+00 SK= 0.00E+00
   2372 T=   221. E= -.93474870E+03 F= -.94033058E+03 E0= -.94033058E+03  EK= 0.55819E+01 SP= 0.00E+00 SK= 0.00E+00
   2373 T=   225. E= -.93475033E+03 F= -.94041940E+03 E0= -.94041940E+03  EK= 0.56691E+01 SP= 0.00E+00 SK= 0.00E+00
   2374 T=   229. E= -.93478010E+03 F= -.94055745E+03 E0= -.94055745E+03  EK= 0.57773E+01 SP= 0.00E+00 SK= 0.00E+00
   2375 T=   232. E= -.93482191E+03 F= -.94067241E+03 E0= -.94067241E+03  EK= 0.58505E+01 SP= 0.00E+00 SK= 0.00E+00
   2376 T=   231. E= -.93490412E+03 F= -.94071691E+03 E0= -.94071691E+03  EK= 0.58128E+01 SP= 0.00E+00 SK= 0.00E+00
   2377 T=   228. E= -.93493108E+03 F= -.94066920E+03 E0= -.94066920E+03  EK= 0.57381E+01 SP= 0.00E+00 SK= 0.00E+00
   2378 T=   230. E= -.93487674E+03 F= -.94067790E+03 E0= -.94067790E+03  EK= 0.58012E+01 SP= 0.00E+00 SK= 0.00E+00
   2379 T=   232. E= -.93488821E+03 F= -.94072907E+03 E0= -.94072907E+03  EK= 0.58409E+01 SP= 0.00E+00 SK= 0.00E+00
   2380 T=   237. E= -.93491128E+03 F= -.94088372E+03 E0= -.94088372E+03  EK= 0.59724E+01 SP= 0.00E+00 SK= 0.00E+00
   2381 T=   246. E= -.93488412E+03 F= -.94107861E+03 E0= -.94107861E+03  EK= 0.61945E+01 SP= 0.00E+00 SK= 0.00E+00
   2382 T=   250. E= -.93487580E+03 F= -.94118667E+03 E0= -.94118667E+03  EK= 0.63109E+01 SP= 0.00E+00 SK= 0.00E+00
   2383 T=   251. E= -.93485370E+03 F= -.94119199E+03 E0= -.94119199E+03  EK= 0.63383E+01 SP= 0.00E+00 SK= 0.00E+00
   2384 T=   250. E= -.93478963E+03 F= -.94108898E+03 E0= -.94108898E+03  EK= 0.62994E+01 SP= 0.00E+00 SK= 0.00E+00
   2385 T=   247. E= -.93473387E+03 F= -.94094887E+03 E0= -.94094887E+03  EK= 0.62150E+01 SP= 0.00E+00 SK= 0.00E+00
   2386 T=   244. E= -.93468194E+03 F= -.94083483E+03 E0= -.94083483E+03  EK= 0.61529E+01 SP= 0.00E+00 SK= 0.00E+00
   2387 T=   245. E= -.93464667E+03 F= -.94082626E+03 E0= -.94082626E+03  EK= 0.61796E+01 SP= 0.00E+00 SK= 0.00E+00
   2388 T=   248. E= -.93467214E+03 F= -.94091981E+03 E0= -.94091981E+03  EK= 0.62477E+01 SP= 0.00E+00 SK= 0.00E+00
   2389 T=   252. E= -.93467139E+03 F= -.94102608E+03 E0= -.94102608E+03  EK= 0.63547E+01 SP= 0.00E+00 SK= 0.00E+00
   2390 T=   255. E= -.93468254E+03 F= -.94110682E+03 E0= -.94110682E+03  EK= 0.64243E+01 SP= 0.00E+00 SK= 0.00E+00
   2391 T=   254. E= -.93472068E+03 F= -.94112264E+03 E0= -.94112264E+03  EK= 0.64020E+01 SP= 0.00E+00 SK= 0.00E+00
   2392 T=   252. E= -.93473490E+03 F= -.94109666E+03 E0= -.94109666E+03  EK= 0.63618E+01 SP= 0.00E+00 SK= 0.00E+00
   2393 T=   249. E= -.93471699E+03 F= -.94100082E+03 E0= -.94100082E+03  EK= 0.62838E+01 SP= 0.00E+00 SK= 0.00E+00
   2394 T=   245. E= -.93473376E+03 F= -.94091149E+03 E0= -.94091149E+03  EK= 0.61777E+01 SP= 0.00E+00 SK= 0.00E+00
   2395 T=   245. E= -.93467281E+03 F= -.94084910E+03 E0= -.94084910E+03  EK= 0.61763E+01 SP= 0.00E+00 SK= 0.00E+00
   2396 T=   245. E= -.93470293E+03 F= -.94088554E+03 E0= -.94088554E+03  EK= 0.61826E+01 SP= 0.00E+00 SK= 0.00E+00
   2397 T=   243. E= -.93478691E+03 F= -.94090952E+03 E0= -.94090952E+03  EK= 0.61226E+01 SP= 0.00E+00 SK= 0.00E+00
   2398 T=   246. E= -.93473947E+03 F= -.94093248E+03 E0= -.94093248E+03  EK= 0.61930E+01 SP= 0.00E+00 SK= 0.00E+00
   2399 T=   246. E= -.93472733E+03 F= -.94091594E+03 E0= -.94091594E+03  EK= 0.61886E+01 SP= 0.00E+00 SK= 0.00E+00
   2400 T=   241. E= -.93472831E+03 F= -.94080452E+03 E0= -.94080452E+03  EK= 0.60762E+01 SP= 0.00E+00 SK= 0.00E+00
   2401 T=   234. E= -.93477615E+03 F= -.94066796E+03 E0= -.94066796E+03  EK= 0.58918E+01 SP= 0.00E+00 SK= 0.00E+00
   2402 T=   227. E= -.93482758E+03 F= -.94055736E+03 E0= -.94055736E+03  EK= 0.57298E+01 SP= 0.00E+00 SK= 0.00E+00
   2403 T=   226. E= -.93478508E+03 F= -.94047455E+03 E0= -.94047455E+03  EK= 0.56895E+01 SP= 0.00E+00 SK= 0.00E+00
   2404 T=   227. E= -.93473926E+03 F= -.94045424E+03 E0= -.94045424E+03  EK= 0.57150E+01 SP= 0.00E+00 SK= 0.00E+00
   2405 T=   227. E= -.93472289E+03 F= -.94045052E+03 E0= -.94045052E+03  EK= 0.57276E+01 SP= 0.00E+00 SK= 0.00E+00
   2406 T=   227. E= -.93473222E+03 F= -.94044509E+03 E0= -.94044509E+03  EK= 0.57129E+01 SP= 0.00E+00 SK= 0.00E+00
   2407 T=   228. E= -.93467693E+03 F= -.94042016E+03 E0= -.94042016E+03  EK= 0.57432E+01 SP= 0.00E+00 SK= 0.00E+00
   2408 T=   229. E= -.93458792E+03 F= -.94036282E+03 E0= -.94036282E+03  EK= 0.57749E+01 SP= 0.00E+00 SK= 0.00E+00
   2409 T=   230. E= -.93455390E+03 F= -.94034841E+03 E0= -.94034841E+03  EK= 0.57945E+01 SP= 0.00E+00 SK= 0.00E+00
   2410 T=   231. E= -.93456315E+03 F= -.94037752E+03 E0= -.94037752E+03  EK= 0.58144E+01 SP= 0.00E+00 SK= 0.00E+00
   2411 T=   233. E= -.93454322E+03 F= -.94042313E+03 E0= -.94042313E+03  EK= 0.58799E+01 SP= 0.00E+00 SK= 0.00E+00
   2412 T=   233. E= -.93453426E+03 F= -.94040748E+03 E0= -.94040748E+03  EK= 0.58732E+01 SP= 0.00E+00 SK= 0.00E+00
   2413 T=   232. E= -.93450089E+03 F= -.94035900E+03 E0= -.94035900E+03  EK= 0.58581E+01 SP= 0.00E+00 SK= 0.00E+00
   2414 T=   228. E= -.93451970E+03 F= -.94026701E+03 E0= -.94026701E+03  EK= 0.57473E+01 SP= 0.00E+00 SK= 0.00E+00
   2415 T=   225. E= -.93455228E+03 F= -.94021435E+03 E0= -.94021435E+03  EK= 0.56621E+01 SP= 0.00E+00 SK= 0.00E+00
   2416 T=   227. E= -.93450920E+03 F= -.94024237E+03 E0= -.94024237E+03  EK= 0.57332E+01 SP= 0.00E+00 SK= 0.00E+00
   2417 T=   232. E= -.93445571E+03 F= -.94029320E+03 E0= -.94029320E+03  EK= 0.58375E+01 SP= 0.00E+00 SK= 0.00E+00
   2418 T=   234. E= -.93445199E+03 F= -.94034767E+03 E0= -.94034767E+03  EK= 0.58957E+01 SP= 0.00E+00 SK= 0.00E+00
   2419 T=   235. E= -.93447117E+03 F= -.94039002E+03 E0= -.94039002E+03  EK= 0.59188E+01 SP= 0.00E+00 SK= 0.00E+00
   2420 T=   236. E= -.93446687E+03 F= -.94041082E+03 E0= -.94041082E+03  EK= 0.59440E+01 SP= 0.00E+00 SK= 0.00E+00
   2421 T=   237. E= -.93443303E+03 F= -.94041857E+03 E0= -.94041857E+03  EK= 0.59855E+01 SP= 0.00E+00 SK= 0.00E+00
   2422 T=   235. E= -.93445895E+03 F= -.94037255E+03 E0= -.94037255E+03  EK= 0.59136E+01 SP= 0.00E+00 SK= 0.00E+00
   2423 T=   232. E= -.93447032E+03 F= -.94031640E+03 E0= -.94031640E+03  EK= 0.58461E+01 SP= 0.00E+00 SK= 0.00E+00
   2424 T=   236. E= -.93437130E+03 F= -.94033051E+03 E0= -.94033051E+03  EK= 0.59592E+01 SP= 0.00E+00 SK= 0.00E+00
   2425 T=   245. E= -.93427520E+03 F= -.94044967E+03 E0= -.94044967E+03  EK= 0.61745E+01 SP= 0.00E+00 SK= 0.00E+00
   2426 T=   254. E= -.93422840E+03 F= -.94063184E+03 E0= -.94063184E+03  EK= 0.64034E+01 SP= 0.00E+00 SK= 0.00E+00
   2427 T=   260. E= -.93420929E+03 F= -.94076477E+03 E0= -.94076477E+03  EK= 0.65555E+01 SP= 0.00E+00 SK= 0.00E+00
   2428 T=   263. E= -.93410864E+03 F= -.94074517E+03 E0= -.94074517E+03  EK= 0.66365E+01 SP= 0.00E+00 SK= 0.00E+00
   2429 T=   264. E= -.93397033E+03 F= -.94062030E+03 E0= -.94062030E+03  EK= 0.66500E+01 SP= 0.00E+00 SK= 0.00E+00
   2430 T=   258. E= -.93394976E+03 F= -.94044783E+03 E0= -.94044783E+03  EK= 0.64981E+01 SP= 0.00E+00 SK= 0.00E+00
   2431 T=   255. E= -.93391985E+03 F= -.94033509E+03 E0= -.94033509E+03  EK= 0.64152E+01 SP= 0.00E+00 SK= 0.00E+00
   2432 T=   253. E= -.93393960E+03 F= -.94031482E+03 E0= -.94031482E+03  EK= 0.63752E+01 SP= 0.00E+00 SK= 0.00E+00
   2433 T=   249. E= -.93401642E+03 F= -.94029990E+03 E0= -.94029990E+03  EK= 0.62835E+01 SP= 0.00E+00 SK= 0.00E+00
   2434 T=   251. E= -.93399753E+03 F= -.94033338E+03 E0= -.94033338E+03  EK= 0.63359E+01 SP= 0.00E+00 SK= 0.00E+00
   2435 T=   255. E= -.93400164E+03 F= -.94043735E+03 E0= -.94043735E+03  EK= 0.64357E+01 SP= 0.00E+00 SK= 0.00E+00
   2436 T=   259. E= -.93402006E+03 F= -.94055593E+03 E0= -.94055593E+03  EK= 0.65359E+01 SP= 0.00E+00 SK= 0.00E+00
   2437 T=   265. E= -.93394882E+03 F= -.94061954E+03 E0= -.94061954E+03  EK= 0.66707E+01 SP= 0.00E+00 SK= 0.00E+00
   2438 T=   266. E= -.93392019E+03 F= -.94061562E+03 E0= -.94061562E+03  EK= 0.66954E+01 SP= 0.00E+00 SK= 0.00E+00
   2439 T=   260. E= -.93397680E+03 F= -.94054013E+03 E0= -.94054013E+03  EK= 0.65633E+01 SP= 0.00E+00 SK= 0.00E+00
   2440 T=   257. E= -.93396693E+03 F= -.94045381E+03 E0= -.94045381E+03  EK= 0.64869E+01 SP= 0.00E+00 SK= 0.00E+00
   2441 T=   260. E= -.93382319E+03 F= -.94038434E+03 E0= -.94038434E+03  EK= 0.65611E+01 SP= 0.00E+00 SK= 0.00E+00
   2442 T=   261. E= -.93376810E+03 F= -.94034056E+03 E0= -.94034056E+03  EK= 0.65725E+01 SP= 0.00E+00 SK= 0.00E+00
   2443 T=   255. E= -.93384275E+03 F= -.94027895E+03 E0= -.94027895E+03  EK= 0.64362E+01 SP= 0.00E+00 SK= 0.00E+00
   2444 T=   253. E= -.93385778E+03 F= -.94022905E+03 E0= -.94022905E+03  EK= 0.63713E+01 SP= 0.00E+00 SK= 0.00E+00
   2445 T=   252. E= -.93383411E+03 F= -.94017999E+03 E0= -.94017999E+03  EK= 0.63459E+01 SP= 0.00E+00 SK= 0.00E+00
   2446 T=   248. E= -.93389558E+03 F= -.94015378E+03 E0= -.94015378E+03  EK= 0.62582E+01 SP= 0.00E+00 SK= 0.00E+00
   2447 T=   246. E= -.93396354E+03 F= -.94015596E+03 E0= -.94015596E+03  EK= 0.61924E+01 SP= 0.00E+00 SK= 0.00E+00
   2448 T=   244. E= -.93397763E+03 F= -.94013449E+03 E0= -.94013449E+03  EK= 0.61569E+01 SP= 0.00E+00 SK= 0.00E+00
   2449 T=   242. E= -.93394911E+03 F= -.94004019E+03 E0= -.94004019E+03  EK= 0.60911E+01 SP= 0.00E+00 SK= 0.00E+00
   2450 T=   237. E= -.93393389E+03 F= -.93990872E+03 E0= -.93990872E+03  EK= 0.59748E+01 SP= 0.00E+00 SK= 0.00E+00
   2451 T=   233. E= -.93391752E+03 F= -.93978021E+03 E0= -.93978021E+03  EK= 0.58627E+01 SP= 0.00E+00 SK= 0.00E+00
   2452 T=   238. E= -.93373826E+03 F= -.93974825E+03 E0= -.93974825E+03  EK= 0.60100E+01 SP= 0.00E+00 SK= 0.00E+00
   2453 T=   245. E= -.93363875E+03 F= -.93982261E+03 E0= -.93982261E+03  EK= 0.61839E+01 SP= 0.00E+00 SK= 0.00E+00
   2454 T=   249. E= -.93374792E+03 F= -.94001281E+03 E0= -.94001281E+03  EK= 0.62649E+01 SP= 0.00E+00 SK= 0.00E+00
   2455 T=   256. E= -.93381646E+03 F= -.94027610E+03 E0= -.94027610E+03  EK= 0.64596E+01 SP= 0.00E+00 SK= 0.00E+00
   2456 T=   262. E= -.93389799E+03 F= -.94049406E+03 E0= -.94049406E+03  EK= 0.65961E+01 SP= 0.00E+00 SK= 0.00E+00
       N       E                     dE             d eps       ncg     rms          rms(c)
DAV:   1    -0.431506689994E+03    0.49785E+03   -0.43980E+04 16238   0.383E+02
DAV:   2    -0.926713519501E+03   -0.49521E+03   -0.48415E+03 18950   0.112E+02
DAV:   3    -0.940216157481E+03   -0.13503E+02   -0.13483E+02 19116   0.204E+01
DAV:   4    -0.940421511044E+03   -0.20535E+00   -0.20529E+00 19108   0.245E+00    0.335E+01
DAV:   5    -0.928569007569E+03    0.11853E+02   -0.28027E+01 19060   0.114E+01    0.186E+01
DAV:   6    -0.928839798301E+03   -0.27079E+00   -0.15696E+01 18612   0.823E+00    0.662E+00
DAV:   7    -0.929456134844E+03   -0.61634E+00   -0.28583E+00 18388   0.401E+00    0.219E+00
DAV:   8    -0.929485674798E+03   -0.29540E-01   -0.31801E-01 19076   0.137E+00    0.103E+00
DAV:   9    -0.929483835309E+03    0.18395E-02   -0.10299E-01 18516   0.751E-01    0.401E-01
DAV:  10    -0.929480334658E+03    0.35007E-02   -0.15620E-02 19836   0.374E-01    0.184E-01
DAV:  11    -0.929479058270E+03    0.12764E-02   -0.10308E-02 18676   0.243E-01    0.125E-01
DAV:  12    -0.929477690649E+03    0.13676E-02   -0.14227E-03 21068   0.158E-01    0.467E-02
DAV:  13    -0.929476891086E+03    0.79956E-03   -0.10723E-03 17812   0.157E-01    0.558E-02
DAV:  14    -0.929476693797E+03    0.19729E-03   -0.87433E-04 19420   0.100E-01    0.325E-02
DAV:  15    -0.929476679826E+03    0.13971E-04   -0.29433E-04 16444   0.381E-02
   2457 T=   265. E= -.93382832E+03 F= -.94051575E+03 E0= -.94051575E+03  EK= 0.66874E+01 SP= 0.00E+00 SK= 0.00E+00
   2458 T=   265. E= -.93391526E+03 F= -.94058768E+03 E0= -.94058768E+03  EK= 0.66724E+01 SP= 0.00E+00 SK= 0.00E+00
   2459 T=   258. E= -.93398245E+03 F= -.94048138E+03 E0= -.94048138E+03  EK= 0.64989E+01 SP= 0.00E+00 SK= 0.00E+00
   2460 T=   253. E= -.93401108E+03 F= -.94037568E+03 E0= -.94037568E+03  EK= 0.63646E+01 SP= 0.00E+00 SK= 0.00E+00
   2461 T=   254. E= -.93393468E+03 F= -.94033162E+03 E0= -.94033162E+03  EK= 0.63969E+01 SP= 0.00E+00 SK= 0.00E+00
   2462 T=   254. E= -.93394261E+03 F= -.94035519E+03 E0= -.94035519E+03  EK= 0.64126E+01 SP= 0.00E+00 SK= 0.00E+00
   2463 T=   256. E= -.93404904E+03 F= -.94050240E+03 E0= -.94050240E+03  EK= 0.64534E+01 SP= 0.00E+00 SK= 0.00E+00
   2464 T=   261. E= -.93410609E+03 F= -.94069141E+03 E0= -.94069141E+03  EK= 0.65853E+01 SP= 0.00E+00 SK= 0.00E+00
   2465 T=   263. E= -.93416570E+03 F= -.94078388E+03 E0= -.94078388E+03  EK= 0.66182E+01 SP= 0.00E+00 SK= 0.00E+00
   2466 T=   260. E= -.93414090E+03 F= -.94070195E+03 E0= -.94070195E+03  EK= 0.65611E+01 SP= 0.00E+00 SK= 0.00E+00
   2467 T=   250. E= -.93413485E+03 F= -.94044258E+03 E0= -.94044258E+03  EK= 0.63077E+01 SP= 0.00E+00 SK= 0.00E+00
   2468 T=   241. E= -.93409251E+03 F= -.94017337E+03 E0= -.94017337E+03  EK= 0.60809E+01 SP= 0.00E+00 SK= 0.00E+00
   2469 T=   238. E= -.93406009E+03 F= -.94004985E+03 E0= -.94004985E+03  EK= 0.59898E+01 SP= 0.00E+00 SK= 0.00E+00
   2470 T=   241. E= -.93407312E+03 F= -.94015592E+03 E0= -.94015592E+03  EK= 0.60828E+01 SP= 0.00E+00 SK= 0.00E+00
   2471 T=   248. E= -.93409213E+03 F= -.94035255E+03 E0= -.94035255E+03  EK= 0.62604E+01 SP= 0.00E+00 SK= 0.00E+00
   2472 T=   255. E= -.93416776E+03 F= -.94060089E+03 E0= -.94060089E+03  EK= 0.64331E+01 SP= 0.00E+00 SK= 0.00E+00
   2473 T=   259. E= -.93422996E+03 F= -.94076506E+03 E0= -.94076506E+03  EK= 0.65351E+01 SP= 0.00E+00 SK= 0.00E+00
   2474 T=   261. E= -.93427834E+03 F= -.94085448E+03 E0= -.94085448E+03  EK= 0.65761E+01 SP= 0.00E+00 SK= 0.00E+00
   2475 T=   262. E= -.93422893E+03 F= -.94084195E+03 E0= -.94084195E+03  EK= 0.66130E+01 SP= 0.00E+00 SK= 0.00E+00
   2476 T=   261. E= -.93421809E+03 F= -.94078760E+03 E0= -.94078760E+03  EK= 0.65695E+01 SP= 0.00E+00 SK= 0.00E+00
   2477 T=   252. E= -.93433994E+03 F= -.94068465E+03 E0= -.94068465E+03  EK= 0.63447E+01 SP= 0.00E+00 SK= 0.00E+00
   2478 T=   246. E= -.93436949E+03 F= -.94057064E+03 E0= -.94057064E+03  EK= 0.62011E+01 SP= 0.00E+00 SK= 0.00E+00
   2479 T=   242. E= -.93438602E+03 F= -.94048536E+03 E0= -.94048536E+03  EK= 0.60993E+01 SP= 0.00E+00 SK= 0.00E+00
   2480 T=   235. E= -.93445377E+03 F= -.94038051E+03 E0= -.94038051E+03  EK= 0.59267E+01 SP= 0.00E+00 SK= 0.00E+00
   2481 T=   229. E= -.93450712E+03 F= -.94028295E+03 E0= -.94028295E+03  EK= 0.57758E+01 SP= 0.00E+00 SK= 0.00E+00
   2482 T=   226. E= -.93456813E+03 F= -.94025810E+03 E0= -.94025810E+03  EK= 0.56900E+01 SP= 0.00E+00 SK= 0.00E+00
   2483 T=   223. E= -.93467254E+03 F= -.94029314E+03 E0= -.94029314E+03  EK= 0.56206E+01 SP= 0.00E+00 SK= 0.00E+00
   2484 T=   223. E= -.93474182E+03 F= -.94035440E+03 E0= -.94035440E+03  EK= 0.56126E+01 SP= 0.00E+00 SK= 0.00E+00
   2485 T=   224. E= -.93473497E+03 F= -.94037410E+03 E0= -.94037410E+03  EK= 0.56391E+01 SP= 0.00E+00 SK= 0.00E+00
   2486 T=   222. E= -.93474745E+03 F= -.94035432E+03 E0= -.94035432E+03  EK= 0.56069E+01 SP= 0.00E+00 SK= 0.00E+00
   2487 T=   220. E= -.93478046E+03 F= -.94031588E+03 E0= -.94031588E+03  EK= 0.55354E+01 SP= 0.00E+00 SK= 0.00E+00
   2488 T=   218. E= -.93483445E+03 F= -.94034105E+03 E0= -.94034105E+03  EK= 0.55066E+01 SP= 0.00E+00 SK= 0.00E+00
   2489 T=   223. E= -.93483850E+03 F= -.94045402E+03 E0= -.94045402E+03  EK= 0.56155E+01 SP= 0.00E+00 SK= 0.00E+00
   2490 T=   228. E= -.93488946E+03 F= -.94063787E+03 E0= -.94063787E+03  EK= 0.57484E+01 SP= 0.00E+00 SK= 0.00E+00
   2491 T=   233. E= -.93494906E+03 F= -.94081423E+03 E0= -.94081423E+03  EK= 0.58652E+01 SP= 0.00E+00 SK= 0.00E+00
   2492 T=   233. E= -.93505526E+03 F= -.94094063E+03 E0= -.94094063E+03  EK= 0.58854E+01 SP= 0.00E+00 SK= 0.00E+00
   2493 T=   232. E= -.93510644E+03 F= -.94095404E+03 E0= -.94095404E+03  EK= 0.58476E+01 SP= 0.00E+00 SK= 0.00E+00
   2494 T=   228. E= -.93514200E+03 F= -.94088264E+03 E0= -.94088264E+03  EK= 0.57406E+01 SP= 0.00E+00 SK= 0.00E+00
   2495 T=   219. E= -.93523961E+03 F= -.94076390E+03 E0= -.94076390E+03  EK= 0.55243E+01 SP= 0.00E+00 SK= 0.00E+00
   2496 T=   214. E= -.93527524E+03 F= -.94066864E+03 E0= -.94066864E+03  EK= 0.53934E+01 SP= 0.00E+00 SK= 0.00E+00
   2497 T=   213. E= -.93525299E+03 F= -.94062572E+03 E0= -.94062572E+03  EK= 0.53727E+01 SP= 0.00E+00 SK= 0.00E+00
   2498 T=   217. E= -.93519154E+03 F= -.94066816E+03 E0= -.94066816E+03  EK= 0.54766E+01 SP= 0.00E+00 SK= 0.00E+00
   2499 T=   223. E= -.93512353E+03 F= -.94074027E+03 E0= -.94074027E+03  EK= 0.56167E+01 SP= 0.00E+00 SK= 0.00E+00
   2500 T=   230. E= -.93503803E+03 F= -.94082602E+03 E0= -.94082602E+03  EK= 0.57880E+01 SP= 0.00E+00 SK= 0.00E+00
   2501 T=   235. E= -.93492007E+03 F= -.94084589E+03 E0= -.94084589E+03  EK= 0.59258E+01 SP= 0.00E+00 SK= 0.00E+00
   2502 T=   235. E= -.93485128E+03 F= -.94078346E+03 E0= -.94078346E+03  EK= 0.59322E+01 SP= 0.00E+00 SK= 0.00E+00
   2503 T=   229. E= -.93488384E+03 F= -.94066764E+03 E0= -.94066764E+03  EK= 0.57838E+01 SP= 0.00E+00 SK= 0.00E+00
   2504 T=   223. E= -.93496593E+03 F= -.94058515E+03 E0= -.94058515E+03  EK= 0.56192E+01 SP= 0.00E+00 SK= 0.00E+00
   2505 T=   227. E= -.93491903E+03 F= -.94063051E+03 E0= -.94063051E+03  EK= 0.57115E+01 SP= 0.00E+00 SK= 0.00E+00
   2506 T=   239. E= -.93483590E+03 F= -.94085542E+03 E0= -.94085542E+03  EK= 0.60195E+01 SP= 0.00E+00 SK= 0.00E+00
   2507 T=   249. E= -.93480818E+03 F= -.94108583E+03 E0= -.94108583E+03  EK= 0.62776E+01 SP= 0.00E+00 SK= 0.00E+00
   2508 T=   255. E= -.93478234E+03 F= -.94122068E+03 E0= -.94122068E+03  EK= 0.64383E+01 SP= 0.00E+00 SK= 0.00E+00
   2509 T=   255. E= -.93476686E+03 F= -.94118672E+03 E0= -.94118672E+03  EK= 0.64199E+01 SP= 0.00E+00 SK= 0.00E+00
   2510 T=   250. E= -.93473034E+03 F= -.94102647E+03 E0= -.94102647E+03  EK= 0.62961E+01 SP= 0.00E+00 SK= 0.00E+00
   2511 T=   247. E= -.93465004E+03 F= -.94088123E+03 E0= -.94088123E+03  EK= 0.62312E+01 SP= 0.00E+00 SK= 0.00E+00
   2512 T=   248. E= -.93457326E+03 F= -.94081424E+03 E0= -.94081424E+03  EK= 0.62410E+01 SP= 0.00E+00 SK= 0.00E+00
   2513 T=   248. E= -.93453532E+03 F= -.94079687E+03 E0= -.94079687E+03  EK= 0.62615E+01 SP= 0.00E+00 SK= 0.00E+00
   2514 T=   247. E= -.93456425E+03 F= -.94078307E+03 E0= -.94078307E+03  EK= 0.62188E+01 SP= 0.00E+00 SK= 0.00E+00
   2515 T=   246. E= -.93454253E+03 F= -.94073199E+03 E0= -.94073199E+03  EK= 0.61895E+01 SP= 0.00E+00 SK= 0.00E+00
   2516 T=   246. E= -.93447265E+03 F= -.94067106E+03 E0= -.94067106E+03  EK= 0.61984E+01 SP= 0.00E+00 SK= 0.00E+00
   2517 T=   244. E= -.93443289E+03 F= -.94057425E+03 E0= -.94057425E+03  EK= 0.61414E+01 SP= 0.00E+00 SK= 0.00E+00
   2518 T=   238. E= -.93445562E+03 F= -.94045697E+03 E0= -.94045697E+03  EK= 0.60014E+01 SP= 0.00E+00 SK= 0.00E+00
   2519 T=   237. E= -.93440017E+03 F= -.94037679E+03 E0= -.94037679E+03  EK= 0.59766E+01 SP= 0.00E+00 SK= 0.00E+00
   2520 T=   245. E= -.93421909E+03 F= -.94039450E+03 E0= -.94039450E+03  EK= 0.61754E+01 SP= 0.00E+00 SK= 0.00E+00
   2521 T=   248. E= -.93423402E+03 F= -.94048597E+03 E0= -.94048597E+03  EK= 0.62520E+01 SP= 0.00E+00 SK= 0.00E+00
   2522 T=   248. E= -.93432844E+03 F= -.94057212E+03 E0= -.94057212E+03  EK= 0.62437E+01 SP= 0.00E+00 SK= 0.00E+00
   2523 T=   250. E= -.93431243E+03 F= -.94062540E+03 E0= -.94062540E+03  EK= 0.63130E+01 SP= 0.00E+00 SK= 0.00E+00
   2524 T=   250. E= -.93433432E+03 F= -.94063499E+03 E0= -.94063499E+03  EK= 0.63007E+01 SP= 0.00E+00 SK= 0.00E+00
   2525 T=   249. E= -.93434288E+03 F= -.94062867E+03 E0= -.94062867E+03  EK= 0.62858E+01 SP= 0.00E+00 SK= 0.00E+00
   2526 T=   249. E= -.93435996E+03 F= -.94064498E+03 E0= -.94064498E+03  EK= 0.62850E+01 SP= 0.00E+00 SK= 0.00E+00
   2527 T=   248. E= -.93436813E+03 F= -.94062144E+03 E0= -.94062144E+03  EK= 0.62533E+01 SP= 0.00E+00 SK= 0.00E+00
   2528 T=   248. E= -.93429516E+03 F= -.94054783E+03 E0= -.94054783E+03  EK= 0.62527E+01 SP= 0.00E+00 SK= 0.00E+00
   2529 T=   245. E= -.93421721E+03 F= -.94040032E+03 E0= -.94040032E+03  EK= 0.61831E+01 SP= 0.00E+00 SK= 0.00E+00
   2530 T=   241. E= -.93415894E+03 F= -.94024107E+03 E0= -.94024107E+03  EK= 0.60821E+01 SP= 0.00E+00 SK= 0.00E+00
   2531 T=   241. E= -.93409429E+03 F= -.94017122E+03 E0= -.94017122E+03  EK= 0.60769E+01 SP= 0.00E+00 SK= 0.00E+00
   2532 T=   244. E= -.93402875E+03 F= -.94018139E+03 E0= -.94018139E+03  EK= 0.61526E+01 SP= 0.00E+00 SK= 0.00E+00
   2533 T=   249. E= -.93401437E+03 F= -.94030064E+03 E0= -.94030064E+03  EK= 0.62863E+01 SP= 0.00E+00 SK= 0.00E+00
   2534 T=   251. E= -.93406122E+03 F= -.94039216E+03 E0= -.94039216E+03  EK= 0.63309E+01 SP= 0.00E+00 SK= 0.00E+00
   2535 T=   249. E= -.93414722E+03 F= -.94041125E+03 E0= -.94041125E+03  EK= 0.62640E+01 SP= 0.00E+00 SK= 0.00E+00
   2536 T=   244. E= -.93418880E+03 F= -.94034481E+03 E0= -.94034481E+03  EK= 0.61560E+01 SP= 0.00E+00 SK= 0.00E+00
   2537 T=   241. E= -.93416222E+03 F= -.94023402E+03 E0= -.94023402E+03  EK= 0.60718E+01 SP= 0.00E+00 SK= 0.00E+00
   2538 T=   238. E= -.93417256E+03 F= -.94016767E+03 E0= -.94016767E+03  EK= 0.59951E+01 SP= 0.00E+00 SK= 0.00E+00
   2539 T=   238. E= -.93418995E+03 F= -.94018655E+03 E0= -.94018655E+03  EK= 0.59966E+01 SP= 0.00E+00 SK= 0.00E+00
   2540 T=   241. E= -.93414424E+03 F= -.94021493E+03 E0= -.94021493E+03  EK= 0.60707E+01 SP= 0.00E+00 SK= 0.00E+00
   2541 T=   246. E= -.93404851E+03 F= -.94024522E+03 E0= -.94024522E+03  EK= 0.61967E+01 SP= 0.00E+00 SK= 0.00E+00
   2542 T=   250. E= -.93396396E+03 F= -.94025813E+03 E0= -.94025813E+03  EK= 0.62942E+01 SP= 0.00E+00 SK= 0.00E+00
   2543 T=   251. E= -.93395285E+03 F= -.94028460E+03 E0= -.94028460E+03  EK= 0.63318E+01 SP= 0.00E+00 SK= 0.00E+00
   2544 T=   254. E= -.93394607E+03 F= -.94034875E+03 E0= -.94034875E+03  EK= 0.64027E+01 SP= 0.00E+00 SK= 0.00E+00
   2545 T=   258. E= -.93391054E+03 F= -.94040330E+03 E0= -.94040330E+03  EK= 0.64928E+01 SP= 0.00E+00 SK= 0.00E+00
   2546 T=   258. E= -.93393461E+03 F= -.94042734E+03 E0= -.94042734E+03  EK= 0.64927E+01 SP= 0.00E+00 SK= 0.00E+00
   2547 T=   254. E= -.93402799E+03 F= -.94042982E+03 E0= -.94042982E+03  EK= 0.64018E+01 SP= 0.00E+00 SK= 0.00E+00
   2548 T=   247. E= -.93417419E+03 F= -.94041225E+03 E0= -.94041225E+03  EK= 0.62381E+01 SP= 0.00E+00 SK= 0.00E+00
   2549 T=   246. E= -.93417146E+03 F= -.94036212E+03 E0= -.94036212E+03  EK= 0.61907E+01 SP= 0.00E+00 SK= 0.00E+00
   2550 T=   247. E= -.93410072E+03 F= -.94032952E+03 E0= -.94032952E+03  EK= 0.62288E+01 SP= 0.00E+00 SK= 0.00E+00
   2551 T=   248. E= -.93413270E+03 F= -.94037270E+03 E0= -.94037270E+03  EK= 0.62400E+01 SP= 0.00E+00 SK= 0.00E+00
   2552 T=   250. E= -.93416424E+03 F= -.94046869E+03 E0= -.94046869E+03  EK= 0.63045E+01 SP= 0.00E+00 SK= 0.00E+00
   2553 T=   257. E= -.93412590E+03 F= -.94060497E+03 E0= -.94060497E+03  EK= 0.64791E+01 SP= 0.00E+00 SK= 0.00E+00
   2554 T=   263. E= -.93413843E+03 F= -.94077058E+03 E0= -.94077058E+03  EK= 0.66321E+01 SP= 0.00E+00 SK= 0.00E+00
   2555 T=   266. E= -.93422960E+03 F= -.94092342E+03 E0= -.94092342E+03  EK= 0.66938E+01 SP= 0.00E+00 SK= 0.00E+00
   2556 T=   266. E= -.93424560E+03 F= -.94095533E+03 E0= -.94095533E+03  EK= 0.67097E+01 SP= 0.00E+00 SK= 0.00E+00
   2557 T=   268. E= -.93414309E+03 F= -.94088789E+03 E0= -.94088789E+03  EK= 0.67448E+01 SP= 0.00E+00 SK= 0.00E+00
   2558 T=   266. E= -.93402473E+03 F= -.94074133E+03 E0= -.94074133E+03  EK= 0.67166E+01 SP= 0.00E+00 SK= 0.00E+00
   2559 T=   257. E= -.93408206E+03 F= -.94055231E+03 E0= -.94055231E+03  EK= 0.64703E+01 SP= 0.00E+00 SK= 0.00E+00
   2560 T=   248. E= -.93419214E+03 F= -.94045275E+03 E0= -.94045275E+03  EK= 0.62606E+01 SP= 0.00E+00 SK= 0.00E+00
   2561 T=   245. E= -.93423205E+03 F= -.94041956E+03 E0= -.94041956E+03  EK= 0.61875E+01 SP= 0.00E+00 SK= 0.00E+00
   2562 T=   246. E= -.93426358E+03 F= -.94047606E+03 E0= -.94047606E+03  EK= 0.62125E+01 SP= 0.00E+00 SK= 0.00E+00
   2563 T=   249. E= -.93430075E+03 F= -.94058797E+03 E0= -.94058797E+03  EK= 0.62872E+01 SP= 0.00E+00 SK= 0.00E+00
   2564 T=   249. E= -.93438866E+03 F= -.94067229E+03 E0= -.94067229E+03  EK= 0.62836E+01 SP= 0.00E+00 SK= 0.00E+00
   2565 T=   247. E= -.93448280E+03 F= -.94069976E+03 E0= -.94069976E+03  EK= 0.62170E+01 SP= 0.00E+00 SK= 0.00E+00
   2566 T=   244. E= -.93451827E+03 F= -.94066988E+03 E0= -.94066988E+03  EK= 0.61516E+01 SP= 0.00E+00 SK= 0.00E+00
   2567 T=   241. E= -.93454107E+03 F= -.94062177E+03 E0= -.94062177E+03  EK= 0.60807E+01 SP= 0.00E+00 SK= 0.00E+00
   2568 T=   241. E= -.93453580E+03 F= -.94060072E+03 E0= -.94060072E+03  EK= 0.60649E+01 SP= 0.00E+00 SK= 0.00E+00
   2569 T=   242. E= -.93451442E+03 F= -.94060218E+03 E0= -.94060218E+03  EK= 0.60878E+01 SP= 0.00E+00 SK= 0.00E+00
   2570 T=   241. E= -.93459106E+03 F= -.94066708E+03 E0= -.94066708E+03  EK= 0.60760E+01 SP= 0.00E+00 SK= 0.00E+00
   2571 T=   245. E= -.93460708E+03 F= -.94078961E+03 E0= -.94078961E+03  EK= 0.61825E+01 SP= 0.00E+00 SK= 0.00E+00
   2572 T=   248. E= -.93467967E+03 F= -.94092524E+03 E0= -.94092524E+03  EK= 0.62456E+01 SP= 0.00E+00 SK= 0.00E+00
   2573 T=   251. E= -.93471173E+03 F= -.94104974E+03 E0= -.94104974E+03  EK= 0.63380E+01 SP= 0.00E+00 SK= 0.00E+00
   2574 T=   258. E= -.93458932E+03 F= -.94109103E+03 E0= -.94109103E+03  EK= 0.65017E+01 SP= 0.00E+00 SK= 0.00E+00
   2575 T=   256. E= -.93450370E+03 F= -.94094749E+03 E0= -.94094749E+03  EK= 0.64438E+01 SP= 0.00E+00 SK= 0.00E+00
   2576 T=   247. E= -.93445192E+03 F= -.94066716E+03 E0= -.94066716E+03  EK= 0.62152E+01 SP= 0.00E+00 SK= 0.00E+00
   2577 T=   236. E= -.93441934E+03 F= -.94036344E+03 E0= -.94036344E+03  EK= 0.59441E+01 SP= 0.00E+00 SK= 0.00E+00
   2578 T=   231. E= -.93442044E+03 F= -.94023922E+03 E0= -.94023922E+03  EK= 0.58188E+01 SP= 0.00E+00 SK= 0.00E+00
   2579 T=   235. E= -.93437282E+03 F= -.94030137E+03 E0= -.94030137E+03  EK= 0.59286E+01 SP= 0.00E+00 SK= 0.00E+00
   2580 T=   243. E= -.93436066E+03 F= -.94049365E+03 E0= -.94049365E+03  EK= 0.61330E+01 SP= 0.00E+00 SK= 0.00E+00
   2581 T=   247. E= -.93444635E+03 F= -.94067535E+03 E0= -.94067535E+03  EK= 0.62290E+01 SP= 0.00E+00 SK= 0.00E+00
   2582 T=   252. E= -.93441738E+03 F= -.94076241E+03 E0= -.94076241E+03  EK= 0.63450E+01 SP= 0.00E+00 SK= 0.00E+00
   2583 T=   253. E= -.93431285E+03 F= -.94069669E+03 E0= -.94069669E+03  EK= 0.63838E+01 SP= 0.00E+00 SK= 0.00E+00
   2584 T=   252. E= -.93425191E+03 F= -.94059632E+03 E0= -.94059632E+03  EK= 0.63444E+01 SP= 0.00E+00 SK= 0.00E+00
   2585 T=   252. E= -.93417527E+03 F= -.94053905E+03 E0= -.94053905E+03  EK= 0.63638E+01 SP= 0.00E+00 SK= 0.00E+00
   2586 T=   253. E= -.93421962E+03 F= -.94058588E+03 E0= -.94058588E+03  EK= 0.63663E+01 SP= 0.00E+00 SK= 0.00E+00
   2587 T=   254. E= -.93430918E+03 F= -.94072017E+03 E0= -.94072017E+03  EK= 0.64110E+01 SP= 0.00E+00 SK= 0.00E+00
   2588 T=   260. E= -.93429706E+03 F= -.94084878E+03 E0= -.94084878E+03  EK= 0.65517E+01 SP= 0.00E+00 SK= 0.00E+00
   2589 T=   264. E= -.93426552E+03 F= -.94092483E+03 E0= -.94092483E+03  EK= 0.66593E+01 SP= 0.00E+00 SK= 0.00E+00
   2590 T=   259. E= -.93436497E+03 F= -.94089552E+03 E0= -.94089552E+03  EK= 0.65305E+01 SP= 0.00E+00 SK= 0.00E+00
   2591 T=   252. E= -.93439337E+03 F= -.94074817E+03 E0= -.94074817E+03  EK= 0.63548E+01 SP= 0.00E+00 SK= 0.00E+00
   2592 T=   245. E= -.93435007E+03 F= -.94053773E+03 E0= -.94053773E+03  EK= 0.61877E+01 SP= 0.00E+00 SK= 0.00E+00
   2593 T=   239. E= -.93432365E+03 F= -.94035144E+03 E0= -.94035144E+03  EK= 0.60278E+01 SP= 0.00E+00 SK= 0.00E+00
   2594 T=   237. E= -.93429956E+03 F= -.94026858E+03 E0= -.94026858E+03  EK= 0.59690E+01 SP= 0.00E+00 SK= 0.00E+00
   2595 T=   238. E= -.93429099E+03 F= -.94029880E+03 E0= -.94029880E+03  EK= 0.60078E+01 SP= 0.00E+00 SK= 0.00E+00
   2596 T=   242. E= -.93432051E+03 F= -.94041449E+03 E0= -.94041449E+03  EK= 0.60940E+01 SP= 0.00E+00 SK= 0.00E+00
   2597 T=   245. E= -.93439512E+03 F= -.94057085E+03 E0= -.94057085E+03  EK= 0.61757E+01 SP= 0.00E+00 SK= 0.00E+00
   2598 T=   249. E= -.93441501E+03 F= -.94069597E+03 E0= -.94069597E+03  EK= 0.62810E+01 SP= 0.00E+00 SK= 0.00E+00
   2599 T=   250. E= -.93442793E+03 F= -.94072842E+03 E0= -.94072842E+03  EK= 0.63005E+01 SP= 0.00E+00 SK= 0.00E+00
   2600 T=   246. E= -.93444968E+03 F= -.94066267E+03 E0= -.94066267E+03  EK= 0.62130E+01 SP= 0.00E+00 SK= 0.00E+00
   2601 T=   246. E= -.93443129E+03 F= -.94062885E+03 E0= -.94062885E+03  EK= 0.61976E+01 SP= 0.00E+00 SK= 0.00E+00
   2602 T=   252. E= -.93437653E+03 F= -.94071711E+03 E0= -.94071711E+03  EK= 0.63406E+01 SP= 0.00E+00 SK= 0.00E+00
   2603 T=   259. E= -.93434263E+03 F= -.94088304E+03 E0= -.94088304E+03  EK= 0.65404E+01 SP= 0.00E+00 SK= 0.00E+00
   2604 T=   265. E= -.93431260E+03 F= -.94100276E+03 E0= -.94100276E+03  EK= 0.66902E+01 SP= 0.00E+00 SK= 0.00E+00
   2605 T=   263. E= -.93436099E+03 F= -.94098598E+03 E0= -.94098598E+03  EK= 0.66250E+01 SP= 0.00E+00 SK= 0.00E+00
   2606 T=   255. E= -.93443116E+03 F= -.94085976E+03 E0= -.94085976E+03  EK= 0.64286E+01 SP= 0.00E+00 SK= 0.00E+00
   2607 T=   251. E= -.93441084E+03 F= -.94073276E+03 E0= -.94073276E+03  EK= 0.63219E+01 SP= 0.00E+00 SK= 0.00E+00
   2608 T=   249. E= -.93439559E+03 F= -.94066196E+03 E0= -.94066196E+03  EK= 0.62664E+01 SP= 0.00E+00 SK= 0.00E+00
   2609 T=   250. E= -.93433381E+03 F= -.94064269E+03 E0= -.94064269E+03  EK= 0.63089E+01 SP= 0.00E+00 SK= 0.00E+00
   2610 T=   251. E= -.93427721E+03 F= -.94060113E+03 E0= -.94060113E+03  EK= 0.63239E+01 SP= 0.00E+00 SK= 0.00E+00
   2611 T=   250. E= -.93426644E+03 F= -.94057328E+03 E0= -.94057328E+03  EK= 0.63068E+01 SP= 0.00E+00 SK= 0.00E+00
   2612 T=   252. E= -.93419853E+03 F= -.94054287E+03 E0= -.94054287E+03  EK= 0.63443E+01 SP= 0.00E+00 SK= 0.00E+00
   2613 T=   252. E= -.93414006E+03 F= -.94049006E+03 E0= -.94049006E+03  EK= 0.63500E+01 SP= 0.00E+00 SK= 0.00E+00
   2614 T=   250. E= -.93409695E+03 F= -.94039163E+03 E0= -.94039163E+03  EK= 0.62947E+01 SP= 0.00E+00 SK= 0.00E+00
   2615 T=   249. E= -.93404369E+03 F= -.94032266E+03 E0= -.94032266E+03  EK= 0.62790E+01 SP= 0.00E+00 SK= 0.00E+00
   2616 T=   248. E= -.93403189E+03 F= -.94027978E+03 E0= -.94027978E+03  EK= 0.62479E+01 SP= 0.00E+00 SK= 0.00E+00
   2617 T=   249. E= -.93400860E+03 F= -.94028283E+03 E0= -.94028283E+03  EK= 0.62742E+01 SP= 0.00E+00 SK= 0.00E+00
   2618 T=   251. E= -.93395540E+03 F= -.94027889E+03 E0= -.94027889E+03  EK= 0.63235E+01 SP= 0.00E+00 SK= 0.00E+00
   2619 T=   250. E= -.93396378E+03 F= -.94027479E+03 E0= -.94027479E+03  EK= 0.63110E+01 SP= 0.00E+00 SK= 0.00E+00
   2620 T=   252. E= -.93393792E+03 F= -.94028007E+03 E0= -.94028007E+03  EK= 0.63421E+01 SP= 0.00E+00 SK= 0.00E+00
   2621 T=   258. E= -.93382119E+03 F= -.94031603E+03 E0= -.94031603E+03  EK= 0.64948E+01 SP= 0.00E+00 SK= 0.00E+00
   2622 T=   259. E= -.93380372E+03 F= -.94033837E+03 E0= -.94033837E+03  EK= 0.65347E+01 SP= 0.00E+00 SK= 0.00E+00
   2623 T=   260. E= -.93378133E+03 F= -.94033869E+03 E0= -.94033869E+03  EK= 0.65574E+01 SP= 0.00E+00 SK= 0.00E+00
   2624 T=   262. E= -.93368340E+03 F= -.94029705E+03 E0= -.94029705E+03  EK= 0.66137E+01 SP= 0.00E+00 SK= 0.00E+00
   2625 T=   260. E= -.93364148E+03 F= -.94018855E+03 E0= -.94018855E+03  EK= 0.65471E+01 SP= 0.00E+00 SK= 0.00E+00
   2626 T=   258. E= -.93355392E+03 F= -.94006146E+03 E0= -.94006146E+03  EK= 0.65075E+01 SP= 0.00E+00 SK= 0.00E+00
   2627 T=   257. E= -.93348569E+03 F= -.93996438E+03 E0= -.93996438E+03  EK= 0.64787E+01 SP= 0.00E+00 SK= 0.00E+00
   2628 T=   258. E= -.93346731E+03 F= -.93996597E+03 E0= -.93996597E+03  EK= 0.64987E+01 SP= 0.00E+00 SK= 0.00E+00
   2629 T=   260. E= -.93349199E+03 F= -.94004751E+03 E0= -.94004751E+03  EK= 0.65555E+01 SP= 0.00E+00 SK= 0.00E+00
   2630 T=   266. E= -.93344623E+03 F= -.94016355E+03 E0= -.94016355E+03  EK= 0.67173E+01 SP= 0.00E+00 SK= 0.00E+00
   2631 T=   275. E= -.93342969E+03 F= -.94035860E+03 E0= -.94035860E+03  EK= 0.69289E+01 SP= 0.00E+00 SK= 0.00E+00
   2632 T=   280. E= -.93350724E+03 F= -.94055821E+03 E0= -.94055821E+03  EK= 0.70510E+01 SP= 0.00E+00 SK= 0.00E+00
   2633 T=   284. E= -.93353848E+03 F= -.94070598E+03 E0= -.94070598E+03  EK= 0.71675E+01 SP= 0.00E+00 SK= 0.00E+00
   2634 T=   283. E= -.93359334E+03 F= -.94072695E+03 E0= -.94072695E+03  EK= 0.71336E+01 SP= 0.00E+00 SK= 0.00E+00
   2635 T=   278. E= -.93364163E+03 F= -.94065041E+03 E0= -.94065041E+03  EK= 0.70088E+01 SP= 0.00E+00 SK= 0.00E+00
   2636 T=   275. E= -.93358910E+03 F= -.94052995E+03 E0= -.94052995E+03  EK= 0.69408E+01 SP= 0.00E+00 SK= 0.00E+00
   2637 T=   277. E= -.93342252E+03 F= -.94040681E+03 E0= -.94040681E+03  EK= 0.69843E+01 SP= 0.00E+00 SK= 0.00E+00
   2638 T=   281. E= -.93329603E+03 F= -.94036970E+03 E0= -.94036970E+03  EK= 0.70737E+01 SP= 0.00E+00 SK= 0.00E+00
   2639 T=   281. E= -.93332965E+03 F= -.94040565E+03 E0= -.94040565E+03  EK= 0.70760E+01 SP= 0.00E+00 SK= 0.00E+00
   2640 T=   277. E= -.93346362E+03 F= -.94045157E+03 E0= -.94045157E+03  EK= 0.69879E+01 SP= 0.00E+00 SK= 0.00E+00
   2641 T=   273. E= -.93354665E+03 F= -.94043317E+03 E0= -.94043317E+03  EK= 0.68865E+01 SP= 0.00E+00 SK= 0.00E+00
   2642 T=   269. E= -.93358401E+03 F= -.94035827E+03 E0= -.94035827E+03  EK= 0.67743E+01 SP= 0.00E+00 SK= 0.00E+00
   2643 T=   265. E= -.93358590E+03 F= -.94026300E+03 E0= -.94026300E+03  EK= 0.66771E+01 SP= 0.00E+00 SK= 0.00E+00
   2644 T=   263. E= -.93353919E+03 F= -.94016818E+03 E0= -.94016818E+03  EK= 0.66290E+01 SP= 0.00E+00 SK= 0.00E+00
   2645 T=   260. E= -.93355038E+03 F= -.94009346E+03 E0= -.94009346E+03  EK= 0.65431E+01 SP= 0.00E+00 SK= 0.00E+00
   2646 T=   257. E= -.93360404E+03 F= -.94007636E+03 E0= -.94007636E+03  EK= 0.64723E+01 SP= 0.00E+00 SK= 0.00E+00
   2647 T=   258. E= -.93361960E+03 F= -.94011520E+03 E0= -.94011520E+03  EK= 0.64956E+01 SP= 0.00E+00 SK= 0.00E+00
   2648 T=   264. E= -.93359069E+03 F= -.94023639E+03 E0= -.94023639E+03  EK= 0.66457E+01 SP= 0.00E+00 SK= 0.00E+00
   2649 T=   270. E= -.93361092E+03 F= -.94040479E+03 E0= -.94040479E+03  EK= 0.67939E+01 SP= 0.00E+00 SK= 0.00E+00
   2650 T=   272. E= -.93366947E+03 F= -.94051951E+03 E0= -.94051951E+03  EK= 0.68500E+01 SP= 0.00E+00 SK= 0.00E+00
   2651 T=   275. E= -.93363152E+03 F= -.94055984E+03 E0= -.94055984E+03  EK= 0.69283E+01 SP= 0.00E+00 SK= 0.00E+00
       N       E                     dE             d eps       ncg     rms          rms(c)
DAV:   1    -0.373010343900E+03    0.55647E+03   -0.46840E+04 16238   0.393E+02
DAV:   2    -0.926513152400E+03   -0.55350E+03   -0.54185E+03 18902   0.118E+02
DAV:   3    -0.942612360158E+03   -0.16099E+02   -0.16078E+02 19052   0.220E+01
DAV:   4    -0.942853929699E+03   -0.24157E+00   -0.24152E+00 19124   0.261E+00    0.348E+01
DAV:   5    -0.928749075268E+03    0.14105E+02   -0.33284E+01 18812   0.123E+01    0.190E+01
DAV:   6    -0.928669010673E+03    0.80065E-01   -0.16779E+01 18492   0.830E+00    0.716E+00
DAV:   7    -0.929404128196E+03   -0.73512E+00   -0.31415E+00 18612   0.442E+00    0.231E+00
DAV:   8    -0.929443354109E+03   -0.39226E-01   -0.42539E-01 18844   0.158E+00    0.110E+00
DAV:   9    -0.929439724959E+03    0.36292E-02   -0.12630E-01 18652   0.812E-01    0.449E-01
DAV:  10    -0.929434212300E+03    0.55127E-02   -0.20963E-02 19812   0.447E-01    0.214E-01
DAV:  11    -0.929432107551E+03    0.21047E-02   -0.14442E-02 18708   0.305E-01    0.147E-01
DAV:  12    -0.929429917806E+03    0.21897E-02   -0.14354E-03 19564   0.183E-01    0.698E-02
DAV:  13    -0.929428014369E+03    0.19034E-02   -0.17384E-03 18316   0.262E-01    0.513E-02
DAV:  14    -0.929427873133E+03    0.14124E-03   -0.20655E-03 19572   0.137E-01    0.483E-02
DAV:  15    -0.929427863337E+03    0.97963E-05   -0.56324E-04 19028   0.497E-02
   2652 T=   273. E= -.93360487E+03 F= -.94047593E+03 E0= -.94047593E+03  EK= 0.68711E+01 SP= 0.00E+00 SK= 0.00E+00
   2653 T=   272. E= -.93358938E+03 F= -.94044338E+03 E0= -.94044338E+03  EK= 0.68540E+01 SP= 0.00E+00 SK= 0.00E+00
   2654 T=   275. E= -.93346858E+03 F= -.94040275E+03 E0= -.94040275E+03  EK= 0.69342E+01 SP= 0.00E+00 SK= 0.00E+00
   2655 T=   277. E= -.93346805E+03 F= -.94044882E+03 E0= -.94044882E+03  EK= 0.69808E+01 SP= 0.00E+00 SK= 0.00E+00
   2656 T=   280. E= -.93352363E+03 F= -.94058165E+03 E0= -.94058165E+03  EK= 0.70580E+01 SP= 0.00E+00 SK= 0.00E+00
   2657 T=   281. E= -.93362545E+03 F= -.94071658E+03 E0= -.94071658E+03  EK= 0.70911E+01 SP= 0.00E+00 SK= 0.00E+00
   2658 T=   276. E= -.93373123E+03 F= -.94069495E+03 E0= -.94069495E+03  EK= 0.69637E+01 SP= 0.00E+00 SK= 0.00E+00
   2659 T=   269. E= -.93377029E+03 F= -.94055008E+03 E0= -.94055008E+03  EK= 0.67798E+01 SP= 0.00E+00 SK= 0.00E+00
   2660 T=   263. E= -.93374427E+03 F= -.94037587E+03 E0= -.94037587E+03  EK= 0.66316E+01 SP= 0.00E+00 SK= 0.00E+00
   2661 T=   259. E= -.93369995E+03 F= -.94023907E+03 E0= -.94023907E+03  EK= 0.65391E+01 SP= 0.00E+00 SK= 0.00E+00
       N       E                     dE             d eps       ncg     rms          rms(c)
DAV:   1    -0.921633434154E+03    0.77944E+01   -0.30265E+03 16238   0.107E+02
DAV:   2    -0.930103813136E+03   -0.84704E+01   -0.84679E+01 19260   0.160E+01
DAV:   3    -0.930193371137E+03   -0.89558E-01   -0.89551E-01 19508   0.171E+00
DAV:   4    -0.930195399509E+03   -0.20284E-02   -0.20283E-02 19244   0.245E-01    0.106E+01
DAV:   5    -0.929159289096E+03    0.10361E+01   -0.21588E+00 20420   0.387E+00    0.577E+00
DAV:   6    -0.929092549703E+03    0.66739E-01   -0.15719E+00 19348   0.282E+00    0.176E+00
DAV:   7    -0.929116012145E+03   -0.23462E-01   -0.30121E-01 18988   0.142E+00    0.650E-01
DAV:   8    -0.929112503239E+03    0.35089E-02   -0.35986E-02 18844   0.456E-01    0.346E-01
DAV:   9    -0.929109148888E+03    0.33544E-02   -0.14548E-02 18348   0.297E-01    0.178E-01
DAV:  10    -0.929107322177E+03    0.18267E-02   -0.30472E-03 21788   0.215E-01    0.630E-02
DAV:  11    -0.929106890220E+03    0.43196E-03   -0.20820E-03 19012   0.123E-01    0.593E-02
DAV:  12    -0.929106459311E+03    0.43091E-03   -0.29519E-04 15604   0.858E-02    0.221E-02
DAV:  13    -0.929106269528E+03    0.18978E-03   -0.32126E-04 16732   0.874E-02    0.332E-02
DAV:  14    -0.929106234093E+03    0.35435E-04   -0.31577E-04 16884   0.580E-02
   2662 T=   260. E= -.93359212E+03 F= -.94013799E+03 E0= -.94013799E+03  EK= 0.65459E+01 SP= 0.00E+00 SK= 0.00E+00
   2663 T=   259. E= -.93356601E+03 F= -.94009594E+03 E0= -.94009594E+03  EK= 0.65299E+01 SP= 0.00E+00 SK= 0.00E+00
   2664 T=   256. E= -.93362908E+03 F= -.94007984E+03 E0= -.94007984E+03  EK= 0.64508E+01 SP= 0.00E+00 SK= 0.00E+00
   2665 T=   260. E= -.93355143E+03 F= -.94011640E+03 E0= -.94011640E+03  EK= 0.65650E+01 SP= 0.00E+00 SK= 0.00E+00
   2666 T=   268. E= -.93340616E+03 F= -.94017301E+03 E0= -.94017301E+03  EK= 0.67668E+01 SP= 0.00E+00 SK= 0.00E+00
   2667 T=   272. E= -.93334805E+03 F= -.94021388E+03 E0= -.94021388E+03  EK= 0.68658E+01 SP= 0.00E+00 SK= 0.00E+00
   2668 T=   272. E= -.93336274E+03 F= -.94022939E+03 E0= -.94022939E+03  EK= 0.68666E+01 SP= 0.00E+00 SK= 0.00E+00
   2669 T=   269. E= -.93340568E+03 F= -.94018839E+03 E0= -.94018839E+03  EK= 0.67827E+01 SP= 0.00E+00 SK= 0.00E+00
   2670 T=   262. E= -.93345038E+03 F= -.94006504E+03 E0= -.94006504E+03  EK= 0.66147E+01 SP= 0.00E+00 SK= 0.00E+00
   2671 T=   251. E= -.93356599E+03 F= -.93990485E+03 E0= -.93990485E+03  EK= 0.63389E+01 SP= 0.00E+00 SK= 0.00E+00
       N       E                     dE             d eps       ncg     rms          rms(c)
DAV:   1    -0.921041734122E+03    0.80645E+01   -0.31063E+03 16238   0.108E+02
DAV:   2    -0.930015920897E+03   -0.89742E+01   -0.89717E+01 19020   0.165E+01
DAV:   3    -0.930110702010E+03   -0.94781E-01   -0.94776E-01 19508   0.176E+00
DAV:   4    -0.930112761676E+03   -0.20597E-02   -0.20596E-02 19116   0.249E-01    0.109E+01
DAV:   5    -0.928902598802E+03    0.12102E+01   -0.24896E+00 20220   0.425E+00    0.581E+00
DAV:   6    -0.928806489535E+03    0.96109E-01   -0.17552E+00 19516   0.305E+00    0.190E+00
DAV:   7    -0.928820660520E+03   -0.14171E-01   -0.34888E-01 18940   0.155E+00    0.656E-01
DAV:   8    -0.928815225047E+03    0.54355E-02   -0.41337E-02 18932   0.538E-01    0.332E-01
DAV:   9    -0.928810356435E+03    0.48686E-02   -0.17705E-02 18396   0.345E-01    0.200E-01
DAV:  10    -0.928807987185E+03    0.23693E-02   -0.44029E-03 21564   0.234E-01    0.755E-02
DAV:  11    -0.928807060693E+03    0.92649E-03   -0.22888E-03 18596   0.146E-01    0.619E-02
DAV:  12    -0.928806375075E+03    0.68562E-03   -0.43974E-04 17052   0.123E-01    0.326E-02
DAV:  13    -0.928806024163E+03    0.35091E-03   -0.49334E-04 17532   0.125E-01    0.276E-02
DAV:  14    -0.928806024454E+03   -0.29089E-06   -0.58474E-04 19428   0.626E-02
   2672 T=   248. E= -.93359332E+03 F= -.93984328E+03 E0= -.93984328E+03  EK= 0.62500E+01 SP= 0.00E+00 SK= 0.00E+00
   2673 T=   256. E= -.93352049E+03 F= -.93998394E+03 E0= -.93998394E+03  EK= 0.64634E+01 SP= 0.00E+00 SK= 0.00E+00
   2674 T=   266. E= -.93350191E+03 F= -.94019569E+03 E0= -.94019569E+03  EK= 0.66938E+01 SP= 0.00E+00 SK= 0.00E+00
   2675 T=   270. E= -.93356191E+03 F= -.94037184E+03 E0= -.94037184E+03  EK= 0.68099E+01 SP= 0.00E+00 SK= 0.00E+00
   2676 T=   262. E= -.93370786E+03 F= -.94031361E+03 E0= -.94031361E+03  EK= 0.66058E+01 SP= 0.00E+00 SK= 0.00E+00
   2677 T=   248. E= -.93377079E+03 F= -.94002866E+03 E0= -.94002866E+03  EK= 0.62579E+01 SP= 0.00E+00 SK= 0.00E+00
   2678 T=   235. E= -.93377961E+03 F= -.93969797E+03 E0= -.93969797E+03  EK= 0.59184E+01 SP= 0.00E+00 SK= 0.00E+00
   2679 T=   226. E= -.93385932E+03 F= -.93954383E+03 E0= -.93954383E+03  EK= 0.56845E+01 SP= 0.00E+00 SK= 0.00E+00
   2680 T=   228. E= -.93388635E+03 F= -.93963682E+03 E0= -.93963682E+03  EK= 0.57505E+01 SP= 0.00E+00 SK= 0.00E+00
   2681 T=   238. E= -.93390036E+03 F= -.93989412E+03 E0= -.93989412E+03  EK= 0.59938E+01 SP= 0.00E+00 SK= 0.00E+00
       N       E                     dE             d eps       ncg     rms          rms(c)
DAV:   1    -0.923349617509E+03    0.54564E+01   -0.25625E+03 16238   0.987E+01
DAV:   2    -0.930072462623E+03   -0.67228E+01   -0.67211E+01 19220   0.145E+01
DAV:   3    -0.930142483957E+03   -0.70021E-01   -0.70017E-01 19524   0.152E+00
DAV:   4    -0.930144099655E+03   -0.16157E-02   -0.16156E-02 19212   0.220E-01    0.100E+01
DAV:   5    -0.929195907560E+03    0.94819E+00   -0.21046E+00 20812   0.388E+00    0.541E+00
DAV:   6    -0.929130533567E+03    0.65374E-01   -0.13748E+00 19420   0.272E+00    0.176E+00
DAV:   7    -0.929145526168E+03   -0.14993E-01   -0.29455E-01 19468   0.145E+00    0.620E-01
DAV:   8    -0.929140605857E+03    0.49203E-02   -0.39048E-02 18884   0.478E-01    0.341E-01
DAV:   9    -0.929135221135E+03    0.53847E-02   -0.15672E-02 18396   0.316E-01    0.186E-01
DAV:  10    -0.929132521566E+03    0.26996E-02   -0.36557E-03 22172   0.247E-01    0.732E-02
DAV:  11    -0.929131547106E+03    0.97446E-03   -0.29257E-03 18932   0.170E-01    0.754E-02
DAV:  12    -0.929130841946E+03    0.70516E-03   -0.74259E-04 19740   0.119E-01    0.296E-02
DAV:  13    -0.929130517867E+03    0.32408E-03   -0.30843E-04 15780   0.107E-01    0.294E-02
DAV:  14    -0.929130502944E+03    0.14924E-04   -0.50555E-04 19636   0.632E-02
   2682 T=   253. E= -.93377939E+03 F= -.94015770E+03 E0= -.94015770E+03  EK= 0.63783E+01 SP= 0.00E+00 SK= 0.00E+00
   2683 T=   269. E= -.93352292E+03 F= -.94031308E+03 E0= -.94031308E+03  EK= 0.67902E+01 SP= 0.00E+00 SK= 0.00E+00
   2684 T=   277. E= -.93339120E+03 F= -.94037724E+03 E0= -.94037724E+03  EK= 0.69860E+01 SP= 0.00E+00 SK= 0.00E+00
   2685 T=   274. E= -.93344178E+03 F= -.94035715E+03 E0= -.94035715E+03  EK= 0.69154E+01 SP= 0.00E+00 SK= 0.00E+00
   2686 T=   269. E= -.93346838E+03 F= -.94025883E+03 E0= -.94025883E+03  EK= 0.67904E+01 SP= 0.00E+00 SK= 0.00E+00
   2687 T=   267. E= -.93342437E+03 F= -.94014195E+03 E0= -.94014195E+03  EK= 0.67176E+01 SP= 0.00E+00 SK= 0.00E+00
   2688 T=   265. E= -.93341176E+03 F= -.94008082E+03 E0= -.94008082E+03  EK= 0.66691E+01 SP= 0.00E+00 SK= 0.00E+00
   2689 T=   265. E= -.93338162E+03 F= -.94005914E+03 E0= -.94005914E+03  EK= 0.66775E+01 SP= 0.00E+00 SK= 0.00E+00
   2690 T=   266. E= -.93346097E+03 F= -.94016418E+03 E0= -.94016418E+03  EK= 0.67032E+01 SP= 0.00E+00 SK= 0.00E+00
   2691 T=   270. E= -.93351172E+03 F= -.94032003E+03 E0= -.94032003E+03  EK= 0.68083E+01 SP= 0.00E+00 SK= 0.00E+00
       N       E                     dE             d eps       ncg     rms          rms(c)
DAV:   1    -0.923443506713E+03    0.56870E+01   -0.27459E+03 16238   0.103E+02
DAV:   2    -0.930208064790E+03   -0.67646E+01   -0.67628E+01 19180   0.146E+01
DAV:   3    -0.930281242061E+03   -0.73177E-01   -0.73172E-01 19492   0.155E+00
DAV:   4    -0.930282955050E+03   -0.17130E-02   -0.17129E-02 19212   0.226E-01    0.101E+01
DAV:   5    -0.929380264135E+03    0.90269E+00   -0.19132E+00 19372   0.361E+00    0.555E+00
DAV:   6    -0.929308494026E+03    0.71770E-01   -0.14290E+00 19484   0.271E+00    0.170E+00
DAV:   7    -0.929317906084E+03   -0.94121E-02   -0.29525E-01 18844   0.143E+00    0.618E-01
DAV:   8    -0.929311632945E+03    0.62731E-02   -0.37766E-02 18668   0.482E-01    0.319E-01
DAV:   9    -0.929306285284E+03    0.53477E-02   -0.14039E-02 18348   0.295E-01    0.168E-01
DAV:  10    -0.929303843332E+03    0.24420E-02   -0.31486E-03 22452   0.227E-01    0.670E-02
DAV:  11    -0.929303074885E+03    0.76845E-03   -0.23997E-03 18804   0.146E-01    0.685E-02
DAV:  12    -0.929302479248E+03    0.59564E-03   -0.47433E-04 18092   0.996E-02    0.263E-02
DAV:  13    -0.929302245523E+03    0.23373E-03   -0.39186E-04 17220   0.955E-02    0.372E-02
DAV:  14    -0.929302209131E+03    0.36391E-04   -0.42688E-04 18876   0.623E-02
   2692 T=   273. E= -.93349316E+03 F= -.94038467E+03 E0= -.94038467E+03  EK= 0.68915E+01 SP= 0.00E+00 SK= 0.00E+00
   2693 T=   266. E= -.93356960E+03 F= -.94026363E+03 E0= -.94026363E+03  EK= 0.66940E+01 SP= 0.00E+00 SK= 0.00E+00
   2694 T=   256. E= -.93356161E+03 F= -.94001531E+03 E0= -.94001531E+03  EK= 0.64537E+01 SP= 0.00E+00 SK= 0.00E+00
   2695 T=   250. E= -.93348493E+03 F= -.93978441E+03 E0= -.93978441E+03  EK= 0.62995E+01 SP= 0.00E+00 SK= 0.00E+00
   2696 T=   243. E= -.93350108E+03 F= -.93962294E+03 E0= -.93962294E+03  EK= 0.61219E+01 SP= 0.00E+00 SK= 0.00E+00
   2697 T=   240. E= -.93351338E+03 F= -.93956860E+03 E0= -.93956860E+03  EK= 0.60552E+01 SP= 0.00E+00 SK= 0.00E+00
   2698 T=   243. E= -.93352469E+03 F= -.93965501E+03 E0= -.93965501E+03  EK= 0.61303E+01 SP= 0.00E+00 SK= 0.00E+00
   2699 T=   251. E= -.93352660E+03 F= -.93984625E+03 E0= -.93984625E+03  EK= 0.63196E+01 SP= 0.00E+00 SK= 0.00E+00
   2700 T=   258. E= -.93353240E+03 F= -.94004410E+03 E0= -.94004410E+03  EK= 0.65117E+01 SP= 0.00E+00 SK= 0.00E+00
   2701 T=   264. E= -.93347160E+03 F= -.94013365E+03 E0= -.94013365E+03  EK= 0.66620E+01 SP= 0.00E+00 SK= 0.00E+00
       N       E                     dE             d eps       ncg     rms          rms(c)
DAV:   1    -0.922735096153E+03    0.65671E+01   -0.28070E+03 16238   0.104E+02
DAV:   2    -0.930095300633E+03   -0.73602E+01   -0.73584E+01 19124   0.152E+01
DAV:   3    -0.930172966356E+03   -0.77666E-01   -0.77661E-01 19484   0.163E+00
DAV:   4    -0.930174742699E+03   -0.17763E-02   -0.17763E-02 19172   0.234E-01    0.103E+01
DAV:   5    -0.929134483879E+03    0.10403E+01   -0.18539E+00 20196   0.363E+00    0.561E+00
DAV:   6    -0.929033392257E+03    0.10109E+00   -0.17909E+00 19556   0.304E+00    0.154E+00
DAV:   7    -0.929047477068E+03   -0.14085E-01   -0.34006E-01 18572   0.151E+00    0.618E-01
DAV:   8    -0.929043093119E+03    0.43839E-02   -0.37015E-02 18820   0.494E-01    0.335E-01
DAV:   9    -0.929039571191E+03    0.35219E-02   -0.19962E-02 18332   0.347E-01    0.228E-01
DAV:  10    -0.929037059555E+03    0.25116E-02   -0.46874E-03 22572   0.241E-01    0.703E-02
DAV:  11    -0.929036382788E+03    0.67677E-03   -0.23487E-03 18636   0.131E-01    0.595E-02
DAV:  12    -0.929035722934E+03    0.65985E-03   -0.37502E-04 15684   0.111E-01    0.263E-02
DAV:  13    -0.929035534308E+03    0.18863E-03   -0.60911E-04 17732   0.911E-02    0.377E-02
DAV:  14    -0.929035497438E+03    0.36871E-04   -0.27221E-04 15148   0.476E-02
   2702 T=   269. E= -.93336564E+03 F= -.94014830E+03 E0= -.94014830E+03  EK= 0.67827E+01 SP= 0.00E+00 SK= 0.00E+00
   2703 T=   262. E= -.93337962E+03 F= -.93999078E+03 E0= -.93999078E+03  EK= 0.66112E+01 SP= 0.00E+00 SK= 0.00E+00
   2704 T=   253. E= -.93349309E+03 F= -.93987085E+03 E0= -.93987085E+03  EK= 0.63778E+01 SP= 0.00E+00 SK= 0.00E+00
   2705 T=   253. E= -.93344318E+03 F= -.93982114E+03 E0= -.93982114E+03  EK= 0.63780E+01 SP= 0.00E+00 SK= 0.00E+00
   2706 T=   260. E= -.93329511E+03 F= -.93984015E+03 E0= -.93984015E+03  EK= 0.65450E+01 SP= 0.00E+00 SK= 0.00E+00
   2707 T=   264. E= -.93323638E+03 F= -.93989861E+03 E0= -.93989861E+03  EK= 0.66622E+01 SP= 0.00E+00 SK= 0.00E+00
   2708 T=   263. E= -.93331573E+03 F= -.93993554E+03 E0= -.93993554E+03  EK= 0.66198E+01 SP= 0.00E+00 SK= 0.00E+00
   2709 T=   260. E= -.93336487E+03 F= -.93991103E+03 E0= -.93991103E+03  EK= 0.65462E+01 SP= 0.00E+00 SK= 0.00E+00
   2710 T=   254. E= -.93345933E+03 F= -.93986277E+03 E0= -.93986277E+03  EK= 0.64034E+01 SP= 0.00E+00 SK= 0.00E+00
   2711 T=   251. E= -.93351934E+03 F= -.93983974E+03 E0= -.93983974E+03  EK= 0.63204E+01 SP= 0.00E+00 SK= 0.00E+00
       N       E                     dE             d eps       ncg     rms          rms(c)
DAV:   1    -0.923297799417E+03    0.57377E+01   -0.25439E+03 16238   0.992E+01
DAV:   2    -0.929737159669E+03   -0.64394E+01   -0.64373E+01 19316   0.143E+01
DAV:   3    -0.929804889078E+03   -0.67729E-01   -0.67725E-01 19492   0.152E+00
DAV:   4    -0.929806415144E+03   -0.15261E-02   -0.15260E-02 19276   0.219E-01    0.100E+01
DAV:   5    -0.928851376633E+03    0.95504E+00   -0.17959E+00 20540   0.362E+00    0.554E+00
DAV:   6    -0.928752097544E+03    0.99279E-01   -0.16068E+00 19580   0.299E+00    0.156E+00
DAV:   7    -0.928762122863E+03   -0.10025E-01   -0.31109E-01 18692   0.140E+00    0.616E-01
DAV:   8    -0.928755795468E+03    0.63274E-02   -0.33592E-02 18900   0.433E-01    0.319E-01
DAV:   9    -0.928750728611E+03    0.50669E-02   -0.12699E-02 18412   0.308E-01    0.172E-01
DAV:  10    -0.928747931574E+03    0.27970E-02   -0.34195E-03 21372   0.232E-01    0.615E-02
DAV:  11    -0.928747119420E+03    0.81215E-03   -0.22001E-03 19180   0.141E-01    0.622E-02
DAV:  12    -0.928746529128E+03    0.59029E-03   -0.54593E-04 17396   0.102E-01    0.275E-02
DAV:  13    -0.928746314313E+03    0.21481E-03   -0.27197E-04 15140   0.920E-02    0.336E-02
DAV:  14    -0.928746298354E+03    0.15959E-04   -0.44598E-04 19124   0.567E-02
   2712 T=   253. E= -.93348483E+03 F= -.93986348E+03 E0= -.93986348E+03  EK= 0.63787E+01 SP= 0.00E+00 SK= 0.00E+00
   2713 T=   255. E= -.93337855E+03 F= -.93981557E+03 E0= -.93981557E+03  EK= 0.64370E+01 SP= 0.00E+00 SK= 0.00E+00
   2714 T=   250. E= -.93343807E+03 F= -.93975088E+03 E0= -.93975088E+03  EK= 0.63128E+01 SP= 0.00E+00 SK= 0.00E+00
   2715 T=   247. E= -.93346352E+03 F= -.93970006E+03 E0= -.93970006E+03  EK= 0.62365E+01 SP= 0.00E+00 SK= 0.00E+00
   2716 T=   251. E= -.93341683E+03 F= -.93975027E+03 E0= -.93975027E+03  EK= 0.63334E+01 SP= 0.00E+00 SK= 0.00E+00
   2717 T=   255. E= -.93343369E+03 F= -.93986673E+03 E0= -.93986673E+03  EK= 0.64330E+01 SP= 0.00E+00 SK= 0.00E+00
   2718 T=   254. E= -.93360437E+03 F= -.93999760E+03 E0= -.93999760E+03  EK= 0.63932E+01 SP= 0.00E+00 SK= 0.00E+00
   2719 T=   252. E= -.93377610E+03 F= -.94013022E+03 E0= -.94013022E+03  EK= 0.63541E+01 SP= 0.00E+00 SK= 0.00E+00
   2720 T=   255. E= -.93378558E+03 F= -.94020296E+03 E0= -.94020296E+03  EK= 0.64174E+01 SP= 0.00E+00 SK= 0.00E+00
   2721 T=   256. E= -.93372557E+03 F= -.94018799E+03 E0= -.94018799E+03  EK= 0.64624E+01 SP= 0.00E+00 SK= 0.00E+00
       N       E                     dE             d eps       ncg     rms          rms(c)
DAV:   1    -0.922993535268E+03    0.57528E+01   -0.26535E+03 16238   0.101E+02
DAV:   2    -0.930036000834E+03   -0.70425E+01   -0.70405E+01 19148   0.149E+01
DAV:   3    -0.930108992714E+03   -0.72992E-01   -0.72987E-01 19508   0.157E+00
DAV:   4    -0.930110609532E+03   -0.16168E-02   -0.16168E-02 19172   0.226E-01    0.103E+01
DAV:   5    -0.929081868199E+03    0.10287E+01   -0.20069E+00 19988   0.368E+00    0.559E+00
DAV:   6    -0.928990216405E+03    0.91652E-01   -0.16342E+00 19556   0.285E+00    0.162E+00
DAV:   7    -0.929006254124E+03   -0.16038E-01   -0.31414E-01 18516   0.140E+00    0.633E-01
DAV:   8    -0.929001226248E+03    0.50279E-02   -0.32268E-02 19028   0.460E-01    0.315E-01
DAV:   9    -0.928997699916E+03    0.35263E-02   -0.14098E-02 18156   0.272E-01    0.177E-01
DAV:  10    -0.928995887906E+03    0.18120E-02   -0.33794E-03 22364   0.203E-01    0.555E-02
DAV:  11    -0.928995413640E+03    0.47427E-03   -0.14487E-03 18684   0.990E-02    0.523E-02
DAV:  12    -0.928994970687E+03    0.44295E-03   -0.21712E-04 14180   0.757E-02    0.216E-02
DAV:  13    -0.928994812590E+03    0.15810E-03   -0.36065E-04 17196   0.764E-02    0.315E-02
DAV:  14    -0.928994790430E+03    0.22159E-04   -0.24266E-04 14684   0.451E-02
   2722 T=   257. E= -.93363559E+03 F= -.94011005E+03 E0= -.94011005E+03  EK= 0.64745E+01 SP= 0.00E+00 SK= 0.00E+00
   2723 T=   254. E= -.93359941E+03 F= -.93998972E+03 E0= -.93998972E+03  EK= 0.63903E+01 SP= 0.00E+00 SK= 0.00E+00
   2724 T=   250. E= -.93362963E+03 F= -.93993404E+03 E0= -.93993404E+03  EK= 0.63044E+01 SP= 0.00E+00 SK= 0.00E+00
   2725 T=   252. E= -.93360397E+03 F= -.93994395E+03 E0= -.93994395E+03  EK= 0.63400E+01 SP= 0.00E+00 SK= 0.00E+00
   2726 T=   253. E= -.93363689E+03 F= -.94000719E+03 E0= -.94000719E+03  EK= 0.63703E+01 SP= 0.00E+00 SK= 0.00E+00
   2727 T=   253. E= -.93374086E+03 F= -.94011512E+03 E0= -.94011512E+03  EK= 0.63743E+01 SP= 0.00E+00 SK= 0.00E+00
   2728 T=   256. E= -.93373679E+03 F= -.94017890E+03 E0= -.94017890E+03  EK= 0.64421E+01 SP= 0.00E+00 SK= 0.00E+00
   2729 T=   252. E= -.93377122E+03 F= -.94012742E+03 E0= -.94012742E+03  EK= 0.63562E+01 SP= 0.00E+00 SK= 0.00E+00
   2730 T=   247. E= -.93375637E+03 F= -.93999079E+03 E0= -.93999079E+03  EK= 0.62344E+01 SP= 0.00E+00 SK= 0.00E+00
   2731 T=   243. E= -.93372281E+03 F= -.93983558E+03 E0= -.93983558E+03  EK= 0.61128E+01 SP= 0.00E+00 SK= 0.00E+00
       N       E                     dE             d eps       ncg     rms          rms(c)
DAV:   1    -0.923502868415E+03    0.54919E+01   -0.23172E+03 16238   0.948E+01
DAV:   2    -0.929507367684E+03   -0.60045E+01   -0.60031E+01 19148   0.138E+01
DAV:   3    -0.929570082826E+03   -0.62715E-01   -0.62711E-01 19516   0.146E+00
DAV:   4    -0.929571525240E+03   -0.14424E-02   -0.14424E-02 19156   0.212E-01    0.100E+01
DAV:   5    -0.928692919734E+03    0.87861E+00   -0.20060E+00 20492   0.374E+00    0.546E+00
DAV:   6    -0.928664743200E+03    0.28177E-01   -0.14184E+00 19340   0.273E+00    0.173E+00
DAV:   7    -0.928681409229E+03   -0.16666E-01   -0.30073E-01 18964   0.143E+00    0.607E-01
DAV:   8    -0.928675729708E+03    0.56795E-02   -0.35312E-02 19044   0.494E-01    0.308E-01
DAV:   9    -0.928671478173E+03    0.42515E-02   -0.16257E-02 18324   0.306E-01    0.186E-01
DAV:  10    -0.928669419601E+03    0.20586E-02   -0.38891E-03 22356   0.220E-01    0.601E-02
DAV:  11    -0.928668713086E+03    0.70652E-03   -0.17666E-03 18636   0.126E-01    0.572E-02
DAV:  12    -0.928668205517E+03    0.50757E-03   -0.34327E-04 16292   0.100E-01    0.296E-02
DAV:  13    -0.928667955778E+03    0.24974E-03   -0.35903E-04 16652   0.998E-02    0.267E-02
DAV:  14    -0.928667943692E+03    0.12086E-04   -0.39501E-04 18652   0.537E-02
   2732 T=   239. E= -.93372982E+03 F= -.93976459E+03 E0= -.93976459E+03  EK= 0.60348E+01 SP= 0.00E+00 SK= 0.00E+00
   2733 T=   241. E= -.93375234E+03 F= -.93983546E+03 E0= -.93983546E+03  EK= 0.60831E+01 SP= 0.00E+00 SK= 0.00E+00
   2734 T=   250. E= -.93370312E+03 F= -.94000299E+03 E0= -.94000299E+03  EK= 0.62999E+01 SP= 0.00E+00 SK= 0.00E+00
   2735 T=   257. E= -.93370775E+03 F= -.94018964E+03 E0= -.94018964E+03  EK= 0.64819E+01 SP= 0.00E+00 SK= 0.00E+00
   2736 T=   263. E= -.93373990E+03 F= -.94037507E+03 E0= -.94037507E+03  EK= 0.66352E+01 SP= 0.00E+00 SK= 0.00E+00
   2737 T=   267. E= -.93375192E+03 F= -.94048914E+03 E0= -.94048914E+03  EK= 0.67372E+01 SP= 0.00E+00 SK= 0.00E+00
   2738 T=   267. E= -.93372066E+03 F= -.94044798E+03 E0= -.94044798E+03  EK= 0.67273E+01 SP= 0.00E+00 SK= 0.00E+00
   2739 T=   260. E= -.93372632E+03 F= -.94027340E+03 E0= -.94027340E+03  EK= 0.65471E+01 SP= 0.00E+00 SK= 0.00E+00
   2740 T=   249. E= -.93381431E+03 F= -.94009306E+03 E0= -.94009306E+03  EK= 0.62787E+01 SP= 0.00E+00 SK= 0.00E+00
   2741 T=   245. E= -.93381048E+03 F= -.93999249E+03 E0= -.93999249E+03  EK= 0.61820E+01 SP= 0.00E+00 SK= 0.00E+00
       N       E                     dE             d eps       ncg     rms          rms(c)
DAV:   1    -0.921480204270E+03    0.71878E+01   -0.31106E+03 16238   0.109E+02
DAV:   2    -0.930192062916E+03   -0.87119E+01   -0.87094E+01 19164   0.164E+01
DAV:   3    -0.930280059511E+03   -0.87997E-01   -0.87991E-01 19484   0.173E+00
DAV:   4    -0.930281997267E+03   -0.19378E-02   -0.19377E-02 19196   0.247E-01    0.107E+01
DAV:   5    -0.929031585332E+03    0.12504E+01   -0.23992E+00 20684   0.423E+00    0.576E+00
DAV:   6    -0.928907910713E+03    0.12367E+00   -0.18927E+00 19572   0.316E+00    0.180E+00
DAV:   7    -0.928926291337E+03   -0.18381E-01   -0.35739E-01 18732   0.153E+00    0.647E-01
DAV:   8    -0.928921592998E+03    0.46983E-02   -0.36784E-02 19132   0.479E-01    0.359E-01
DAV:   9    -0.928917552952E+03    0.40400E-02   -0.20892E-02 18340   0.352E-01    0.223E-01
DAV:  10    -0.928915213659E+03    0.23393E-02   -0.43562E-03 21572   0.230E-01    0.787E-02
DAV:  11    -0.928914533644E+03    0.68001E-03   -0.26200E-03 18636   0.136E-01    0.611E-02
DAV:  12    -0.928914058074E+03    0.47557E-03   -0.45363E-04 17852   0.901E-02    0.296E-02
DAV:  13    -0.928913806497E+03    0.25158E-03   -0.23328E-04 14452   0.760E-02    0.205E-02
DAV:  14    -0.928913773480E+03    0.33017E-04   -0.22993E-04 15084   0.497E-02
   2742 T=   246. E= -.93380425E+03 F= -.94000193E+03 E0= -.94000193E+03  EK= 0.61977E+01 SP= 0.00E+00 SK= 0.00E+00
   2743 T=   248. E= -.93383680E+03 F= -.94008025E+03 E0= -.94008025E+03  EK= 0.62434E+01 SP= 0.00E+00 SK= 0.00E+00
   2744 T=   251. E= -.93381616E+03 F= -.94015481E+03 E0= -.94015481E+03  EK= 0.63386E+01 SP= 0.00E+00 SK= 0.00E+00
   2745 T=   251. E= -.93383381E+03 F= -.94016363E+03 E0= -.94016363E+03  EK= 0.63298E+01 SP= 0.00E+00 SK= 0.00E+00
   2746 T=   246. E= -.93385536E+03 F= -.94004713E+03 E0= -.94004713E+03  EK= 0.61918E+01 SP= 0.00E+00 SK= 0.00E+00
   2747 T=   239. E= -.93389323E+03 F= -.93991099E+03 E0= -.93991099E+03  EK= 0.60178E+01 SP= 0.00E+00 SK= 0.00E+00
   2748 T=   233. E= -.93393517E+03 F= -.93981199E+03 E0= -.93981199E+03  EK= 0.58768E+01 SP= 0.00E+00 SK= 0.00E+00
   2749 T=   239. E= -.93382525E+03 F= -.93984089E+03 E0= -.93984089E+03  EK= 0.60156E+01 SP= 0.00E+00 SK= 0.00E+00
   2750 T=   246. E= -.93373145E+03 F= -.93993385E+03 E0= -.93993385E+03  EK= 0.62024E+01 SP= 0.00E+00 SK= 0.00E+00
   2751 T=   245. E= -.93381571E+03 F= -.93999764E+03 E0= -.93999764E+03  EK= 0.61819E+01 SP= 0.00E+00 SK= 0.00E+00
       N       E                     dE             d eps       ncg     rms          rms(c)
DAV:   1    -0.922666443061E+03    0.62474E+01   -0.26232E+03 16238   0.100E+02
DAV:   2    -0.929769004715E+03   -0.71026E+01   -0.71009E+01 19092   0.149E+01
DAV:   3    -0.929842793130E+03   -0.73788E-01   -0.73785E-01 19508   0.157E+00
DAV:   4    -0.929844477693E+03   -0.16846E-02   -0.16845E-02 19276   0.225E-01    0.986E+00
DAV:   5    -0.929007253388E+03    0.83722E+00   -0.16428E+00 20140   0.347E+00    0.546E+00
DAV:   6    -0.928932609985E+03    0.74643E-01   -0.14241E+00 19524   0.282E+00    0.154E+00
DAV:   7    -0.928946055709E+03   -0.13446E-01   -0.29013E-01 19020   0.137E+00    0.619E-01
DAV:   8    -0.928940757810E+03    0.52979E-02   -0.33266E-02 18564   0.437E-01    0.315E-01
DAV:   9    -0.928936556950E+03    0.42009E-02   -0.11503E-02 18612   0.274E-01    0.163E-01
DAV:  10    -0.928934022065E+03    0.25349E-02   -0.28450E-03 21628   0.218E-01    0.587E-02
DAV:  11    -0.928933309584E+03    0.71248E-03   -0.20225E-03 19212   0.129E-01    0.647E-02
DAV:  12    -0.928932748853E+03    0.56073E-03   -0.55371E-04 17804   0.884E-02    0.285E-02
DAV:  13    -0.928932497990E+03    0.25086E-03   -0.24188E-04 14612   0.847E-02    0.362E-02
DAV:  14    -0.928932477201E+03    0.20790E-04   -0.38717E-04 18764   0.514E-02
   2752 T=   243. E= -.93389625E+03 F= -.94002127E+03 E0= -.94002127E+03  EK= 0.61250E+01 SP= 0.00E+00 SK= 0.00E+00
   2753 T=   241. E= -.93389131E+03 F= -.93997809E+03 E0= -.93997809E+03  EK= 0.60868E+01 SP= 0.00E+00 SK= 0.00E+00
   2754 T=   240. E= -.93392489E+03 F= -.93998319E+03 E0= -.93998319E+03  EK= 0.60583E+01 SP= 0.00E+00 SK= 0.00E+00
   2755 T=   240. E= -.93390850E+03 F= -.93997016E+03 E0= -.93997016E+03  EK= 0.60617E+01 SP= 0.00E+00 SK= 0.00E+00
   2756 T=   242. E= -.93384724E+03 F= -.93994845E+03 E0= -.93994845E+03  EK= 0.61012E+01 SP= 0.00E+00 SK= 0.00E+00
   2757 T=   239. E= -.93384236E+03 F= -.93986273E+03 E0= -.93986273E+03  EK= 0.60204E+01 SP= 0.00E+00 SK= 0.00E+00
   2758 T=   233. E= -.93387250E+03 F= -.93974346E+03 E0= -.93974346E+03  EK= 0.58710E+01 SP= 0.00E+00 SK= 0.00E+00
   2759 T=   232. E= -.93383519E+03 F= -.93968282E+03 E0= -.93968282E+03  EK= 0.58476E+01 SP= 0.00E+00 SK= 0.00E+00
   2760 T=   233. E= -.93381892E+03 F= -.93969514E+03 E0= -.93969514E+03  EK= 0.58762E+01 SP= 0.00E+00 SK= 0.00E+00
   2761 T=   238. E= -.93379774E+03 F= -.93980768E+03 E0= -.93980768E+03  EK= 0.60099E+01 SP= 0.00E+00 SK= 0.00E+00
       N       E                     dE             d eps       ncg     rms          rms(c)
DAV:   1    -0.923337261736E+03    0.55952E+01   -0.24755E+03 16238   0.975E+01
DAV:   2    -0.929760023224E+03   -0.64228E+01   -0.64212E+01 19212   0.143E+01
DAV:   3    -0.929827038373E+03   -0.67015E-01   -0.67011E-01 19492   0.150E+00
DAV:   4    -0.929828585720E+03   -0.15473E-02   -0.15473E-02 19252   0.216E-01    0.967E+00
DAV:   5    -0.929000483033E+03    0.82810E+00   -0.15636E+00 19956   0.333E+00    0.535E+00
DAV:   6    -0.928925202275E+03    0.75281E-01   -0.14584E+00 19604   0.284E+00    0.146E+00
DAV:   7    -0.928937017916E+03   -0.11816E-01   -0.29933E-01 18692   0.136E+00    0.604E-01
DAV:   8    -0.928931686528E+03    0.53314E-02   -0.29335E-02 18604   0.416E-01    0.331E-01
DAV:   9    -0.928927375813E+03    0.43107E-02   -0.14540E-02 18332   0.315E-01    0.181E-01
DAV:  10    -0.928925126975E+03    0.22488E-02   -0.30298E-03 21084   0.205E-01    0.717E-02
DAV:  11    -0.928924468187E+03    0.65879E-03   -0.23229E-03 18916   0.138E-01    0.620E-02
DAV:  12    -0.928923965933E+03    0.50225E-03   -0.55497E-04 18204   0.102E-01    0.270E-02
DAV:  13    -0.928923805767E+03    0.16017E-03   -0.34246E-04 16980   0.750E-02    0.357E-02
DAV:  14    -0.928923756157E+03    0.49610E-04   -0.18876E-04 13964   0.502E-02
   2762 T=   245. E= -.93384813E+03 F= -.94001401E+03 E0= -.94001401E+03  EK= 0.61659E+01 SP= 0.00E+00 SK= 0.00E+00
   2763 T=   248. E= -.93385843E+03 F= -.94011271E+03 E0= -.94011271E+03  EK= 0.62543E+01 SP= 0.00E+00 SK= 0.00E+00
   2764 T=   249. E= -.93393773E+03 F= -.94021353E+03 E0= -.94021353E+03  EK= 0.62758E+01 SP= 0.00E+00 SK= 0.00E+00
   2765 T=   252. E= -.93391539E+03 F= -.94027678E+03 E0= -.94027678E+03  EK= 0.63614E+01 SP= 0.00E+00 SK= 0.00E+00
   2766 T=   256. E= -.93386520E+03 F= -.94030882E+03 E0= -.94030882E+03  EK= 0.64436E+01 SP= 0.00E+00 SK= 0.00E+00
   2767 T=   253. E= -.93394009E+03 F= -.94030673E+03 E0= -.94030673E+03  EK= 0.63666E+01 SP= 0.00E+00 SK= 0.00E+00
   2768 T=   254. E= -.93392198E+03 F= -.94033188E+03 E0= -.94033188E+03  EK= 0.64099E+01 SP= 0.00E+00 SK= 0.00E+00
   2769 T=   258. E= -.93387186E+03 F= -.94037171E+03 E0= -.94037171E+03  EK= 0.64999E+01 SP= 0.00E+00 SK= 0.00E+00
   2770 T=   255. E= -.93394939E+03 F= -.94037252E+03 E0= -.94037252E+03  EK= 0.64231E+01 SP= 0.00E+00 SK= 0.00E+00
   2771 T=   246. E= -.93414191E+03 F= -.94034859E+03 E0= -.94034859E+03  EK= 0.62067E+01 SP= 0.00E+00 SK= 0.00E+00
       N       E                     dE             d eps       ncg     rms          rms(c)
DAV:   1    -0.922013559174E+03    0.69102E+01   -0.28762E+03 16238   0.105E+02
DAV:   2    -0.930192995465E+03   -0.81794E+01   -0.81772E+01 19196   0.159E+01
DAV:   3    -0.930277654681E+03   -0.84659E-01   -0.84654E-01 19492   0.169E+00
DAV:   4    -0.930279570031E+03   -0.19154E-02   -0.19153E-02 19196   0.241E-01    0.994E+00
DAV:   5    -0.929397170583E+03    0.88240E+00   -0.16398E+00 19580   0.327E+00    0.552E+00
DAV:   6    -0.929316176662E+03    0.80994E-01   -0.15754E+00 19340   0.275E+00    0.148E+00
DAV:   7    -0.929329561620E+03   -0.13385E-01   -0.30381E-01 18796   0.144E+00    0.624E-01
DAV:   8    -0.929326088346E+03    0.34733E-02   -0.37610E-02 18476   0.457E-01    0.336E-01
DAV:   9    -0.929322983406E+03    0.31049E-02   -0.14529E-02 18252   0.264E-01    0.188E-01
DAV:  10    -0.929320938319E+03    0.20451E-02   -0.30945E-03 22276   0.215E-01    0.578E-02
DAV:  11    -0.929320601150E+03    0.33717E-03   -0.20084E-03 19500   0.111E-01    0.557E-02
DAV:  12    -0.929320231500E+03    0.36965E-03   -0.26337E-04 14444   0.582E-02    0.223E-02
DAV:  13    -0.929320074236E+03    0.15726E-03   -0.30131E-04 16548   0.670E-02    0.344E-02
DAV:  14    -0.929320034890E+03    0.39346E-04   -0.20513E-04 14636   0.495E-02
   2772 T=   241. E= -.93429771E+03 F= -.94038163E+03 E0= -.94038163E+03  EK= 0.60839E+01 SP= 0.00E+00 SK= 0.00E+00
   2773 T=   243. E= -.93420353E+03 F= -.94033147E+03 E0= -.94033147E+03  EK= 0.61279E+01 SP= 0.00E+00 SK= 0.00E+00
   2774 T=   243. E= -.93420734E+03 F= -.94032101E+03 E0= -.94032101E+03  EK= 0.61137E+01 SP= 0.00E+00 SK= 0.00E+00
   2775 T=   238. E= -.93428143E+03 F= -.94026790E+03 E0= -.94026790E+03  EK= 0.59865E+01 SP= 0.00E+00 SK= 0.00E+00
   2776 T=   233. E= -.93430231E+03 F= -.94016796E+03 E0= -.94016796E+03  EK= 0.58656E+01 SP= 0.00E+00 SK= 0.00E+00
   2777 T=   229. E= -.93429940E+03 F= -.94006834E+03 E0= -.94006834E+03  EK= 0.57689E+01 SP= 0.00E+00 SK= 0.00E+00
   2778 T=   224. E= -.93433947E+03 F= -.93999013E+03 E0= -.93999013E+03  EK= 0.56507E+01 SP= 0.00E+00 SK= 0.00E+00
   2779 T=   221. E= -.93435045E+03 F= -.93993137E+03 E0= -.93993137E+03  EK= 0.55809E+01 SP= 0.00E+00 SK= 0.00E+00
   2780 T=   223. E= -.93430929E+03 F= -.93994269E+03 E0= -.93994269E+03  EK= 0.56334E+01 SP= 0.00E+00 SK= 0.00E+00
   2781 T=   229. E= -.93424623E+03 F= -.94002929E+03 E0= -.94002929E+03  EK= 0.57831E+01 SP= 0.00E+00 SK= 0.00E+00
   2782 T=   236. E= -.93414437E+03 F= -.94010192E+03 E0= -.94010192E+03  EK= 0.59576E+01 SP= 0.00E+00 SK= 0.00E+00
   2783 T=   240. E= -.93403549E+03 F= -.94009456E+03 E0= -.94009456E+03  EK= 0.60591E+01 SP= 0.00E+00 SK= 0.00E+00
   2784 T=   238. E= -.93397881E+03 F= -.93998877E+03 E0= -.93998877E+03  EK= 0.60100E+01 SP= 0.00E+00 SK= 0.00E+00
   2785 T=   232. E= -.93401297E+03 F= -.93985164E+03 E0= -.93985164E+03  EK= 0.58387E+01 SP= 0.00E+00 SK= 0.00E+00
   2786 T=   226. E= -.93407772E+03 F= -.93978239E+03 E0= -.93978239E+03  EK= 0.57047E+01 SP= 0.00E+00 SK= 0.00E+00
   2787 T=   231. E= -.93407502E+03 F= -.93988575E+03 E0= -.93988575E+03  EK= 0.58107E+01 SP= 0.00E+00 SK= 0.00E+00
   2788 T=   241. E= -.93406175E+03 F= -.94013776E+03 E0= -.94013776E+03  EK= 0.60760E+01 SP= 0.00E+00 SK= 0.00E+00
   2789 T=   250. E= -.93407386E+03 F= -.94036283E+03 E0= -.94036283E+03  EK= 0.62890E+01 SP= 0.00E+00 SK= 0.00E+00
   2790 T=   250. E= -.93407586E+03 F= -.94037628E+03 E0= -.94037628E+03  EK= 0.63004E+01 SP= 0.00E+00 SK= 0.00E+00
   2791 T=   243. E= -.93410894E+03 F= -.94024632E+03 E0= -.94024632E+03  EK= 0.61374E+01 SP= 0.00E+00 SK= 0.00E+00
   2792 T=   241. E= -.93407218E+03 F= -.94015325E+03 E0= -.94015325E+03  EK= 0.60811E+01 SP= 0.00E+00 SK= 0.00E+00
   2793 T=   244. E= -.93408519E+03 F= -.94024094E+03 E0= -.94024094E+03  EK= 0.61558E+01 SP= 0.00E+00 SK= 0.00E+00
   2794 T=   248. E= -.93418575E+03 F= -.94043835E+03 E0= -.94043835E+03  EK= 0.62526E+01 SP= 0.00E+00 SK= 0.00E+00
   2795 T=   255. E= -.93422205E+03 F= -.94064600E+03 E0= -.94064600E+03  EK= 0.64240E+01 SP= 0.00E+00 SK= 0.00E+00
   2796 T=   262. E= -.93420370E+03 F= -.94079518E+03 E0= -.94079518E+03  EK= 0.65915E+01 SP= 0.00E+00 SK= 0.00E+00
   2797 T=   266. E= -.93414550E+03 F= -.94084320E+03 E0= -.94084320E+03  EK= 0.66977E+01 SP= 0.00E+00 SK= 0.00E+00
   2798 T=   262. E= -.93415240E+03 F= -.94075302E+03 E0= -.94075302E+03  EK= 0.66006E+01 SP= 0.00E+00 SK= 0.00E+00
   2799 T=   256. E= -.93415797E+03 F= -.94061975E+03 E0= -.94061975E+03  EK= 0.64618E+01 SP= 0.00E+00 SK= 0.00E+00
   2800 T=   252. E= -.93409938E+03 F= -.94044750E+03 E0= -.94044750E+03  EK= 0.63481E+01 SP= 0.00E+00 SK= 0.00E+00
   2801 T=   247. E= -.93405349E+03 F= -.94027499E+03 E0= -.94027499E+03  EK= 0.62215E+01 SP= 0.00E+00 SK= 0.00E+00
   2802 T=   249. E= -.93393737E+03 F= -.94020405E+03 E0= -.94020405E+03  EK= 0.62667E+01 SP= 0.00E+00 SK= 0.00E+00
   2803 T=   252. E= -.93387026E+03 F= -.94022222E+03 E0= -.94022222E+03  EK= 0.63520E+01 SP= 0.00E+00 SK= 0.00E+00
   2804 T=   251. E= -.93390877E+03 F= -.94024505E+03 E0= -.94024505E+03  EK= 0.63363E+01 SP= 0.00E+00 SK= 0.00E+00
   2805 T=   250. E= -.93392866E+03 F= -.94022598E+03 E0= -.94022598E+03  EK= 0.62973E+01 SP= 0.00E+00 SK= 0.00E+00
   2806 T=   243. E= -.93396131E+03 F= -.94008430E+03 E0= -.94008430E+03  EK= 0.61230E+01 SP= 0.00E+00 SK= 0.00E+00
   2807 T=   235. E= -.93400512E+03 F= -.93992837E+03 E0= -.93992837E+03  EK= 0.59233E+01 SP= 0.00E+00 SK= 0.00E+00
   2808 T=   233. E= -.93401253E+03 F= -.93987763E+03 E0= -.93987763E+03  EK= 0.58651E+01 SP= 0.00E+00 SK= 0.00E+00
   2809 T=   236. E= -.93392998E+03 F= -.93988375E+03 E0= -.93988375E+03  EK= 0.59538E+01 SP= 0.00E+00 SK= 0.00E+00
   2810 T=   239. E= -.93392373E+03 F= -.93993862E+03 E0= -.93993862E+03  EK= 0.60149E+01 SP= 0.00E+00 SK= 0.00E+00
   2811 T=   236. E= -.93399856E+03 F= -.93993986E+03 E0= -.93993986E+03  EK= 0.59413E+01 SP= 0.00E+00 SK= 0.00E+00
   2812 T=   236. E= -.93400531E+03 F= -.93995175E+03 E0= -.93995175E+03  EK= 0.59464E+01 SP= 0.00E+00 SK= 0.00E+00
   2813 T=   241. E= -.93395101E+03 F= -.94001329E+03 E0= -.94001329E+03  EK= 0.60623E+01 SP= 0.00E+00 SK= 0.00E+00
   2814 T=   245. E= -.93391815E+03 F= -.94009527E+03 E0= -.94009527E+03  EK= 0.61771E+01 SP= 0.00E+00 SK= 0.00E+00
   2815 T=   248. E= -.93387742E+03 F= -.94012497E+03 E0= -.94012497E+03  EK= 0.62476E+01 SP= 0.00E+00 SK= 0.00E+00
   2816 T=   245. E= -.93389625E+03 F= -.94007003E+03 E0= -.94007003E+03  EK= 0.61738E+01 SP= 0.00E+00 SK= 0.00E+00
   2817 T=   243. E= -.93388850E+03 F= -.94001595E+03 E0= -.94001595E+03  EK= 0.61274E+01 SP= 0.00E+00 SK= 0.00E+00
   2818 T=   241. E= -.93391051E+03 F= -.93999589E+03 E0= -.93999589E+03  EK= 0.60854E+01 SP= 0.00E+00 SK= 0.00E+00
   2819 T=   240. E= -.93397010E+03 F= -.94001116E+03 E0= -.94001116E+03  EK= 0.60411E+01 SP= 0.00E+00 SK= 0.00E+00
   2820 T=   238. E= -.93397887E+03 F= -.93996854E+03 E0= -.93996854E+03  EK= 0.59897E+01 SP= 0.00E+00 SK= 0.00E+00
   2821 T=   235. E= -.93393379E+03 F= -.93984777E+03 E0= -.93984777E+03  EK= 0.59140E+01 SP= 0.00E+00 SK= 0.00E+00
   2822 T=   228. E= -.93396134E+03 F= -.93971620E+03 E0= -.93971620E+03  EK= 0.57549E+01 SP= 0.00E+00 SK= 0.00E+00
   2823 T=   222. E= -.93401001E+03 F= -.93961760E+03 E0= -.93961760E+03  EK= 0.56076E+01 SP= 0.00E+00 SK= 0.00E+00
   2824 T=   223. E= -.93399778E+03 F= -.93960877E+03 E0= -.93960877E+03  EK= 0.56110E+01 SP= 0.00E+00 SK= 0.00E+00
   2825 T=   223. E= -.93406344E+03 F= -.93968202E+03 E0= -.93968202E+03  EK= 0.56186E+01 SP= 0.00E+00 SK= 0.00E+00
   2826 T=   222. E= -.93420621E+03 F= -.93979377E+03 E0= -.93979377E+03  EK= 0.55876E+01 SP= 0.00E+00 SK= 0.00E+00
   2827 T=   224. E= -.93429827E+03 F= -.93995154E+03 E0= -.93995154E+03  EK= 0.56533E+01 SP= 0.00E+00 SK= 0.00E+00
   2828 T=   233. E= -.93422060E+03 F= -.94008823E+03 E0= -.94008823E+03  EK= 0.58676E+01 SP= 0.00E+00 SK= 0.00E+00
   2829 T=   240. E= -.93408732E+03 F= -.94013132E+03 E0= -.94013132E+03  EK= 0.60440E+01 SP= 0.00E+00 SK= 0.00E+00
   2830 T=   241. E= -.93408968E+03 F= -.94015378E+03 E0= -.94015378E+03  EK= 0.60641E+01 SP= 0.00E+00 SK= 0.00E+00
   2831 T=   244. E= -.93410182E+03 F= -.94026291E+03 E0= -.94026291E+03  EK= 0.61611E+01 SP= 0.00E+00 SK= 0.00E+00
   2832 T=   251. E= -.93411366E+03 F= -.94043541E+03 E0= -.94043541E+03  EK= 0.63218E+01 SP= 0.00E+00 SK= 0.00E+00
   2833 T=   258. E= -.93411124E+03 F= -.94060557E+03 E0= -.94060557E+03  EK= 0.64943E+01 SP= 0.00E+00 SK= 0.00E+00
   2834 T=   260. E= -.93416245E+03 F= -.94071383E+03 E0= -.94071383E+03  EK= 0.65514E+01 SP= 0.00E+00 SK= 0.00E+00
   2835 T=   258. E= -.93420141E+03 F= -.94070899E+03 E0= -.94070899E+03  EK= 0.65076E+01 SP= 0.00E+00 SK= 0.00E+00
   2836 T=   256. E= -.93412962E+03 F= -.94056989E+03 E0= -.94056989E+03  EK= 0.64403E+01 SP= 0.00E+00 SK= 0.00E+00
   2837 T=   254. E= -.93400663E+03 F= -.94039845E+03 E0= -.94039845E+03  EK= 0.63918E+01 SP= 0.00E+00 SK= 0.00E+00
   2838 T=   249. E= -.93398237E+03 F= -.94026672E+03 E0= -.94026672E+03  EK= 0.62843E+01 SP= 0.00E+00 SK= 0.00E+00
   2839 T=   245. E= -.93405018E+03 F= -.94023290E+03 E0= -.94023290E+03  EK= 0.61827E+01 SP= 0.00E+00 SK= 0.00E+00
   2840 T=   252. E= -.93398624E+03 F= -.94034946E+03 E0= -.94034946E+03  EK= 0.63632E+01 SP= 0.00E+00 SK= 0.00E+00
   2841 T=   260. E= -.93399805E+03 F= -.94054331E+03 E0= -.94054331E+03  EK= 0.65453E+01 SP= 0.00E+00 SK= 0.00E+00
   2842 T=   260. E= -.93412549E+03 F= -.94068028E+03 E0= -.94068028E+03  EK= 0.65548E+01 SP= 0.00E+00 SK= 0.00E+00
   2843 T=   257. E= -.93420391E+03 F= -.94068230E+03 E0= -.94068230E+03  EK= 0.64784E+01 SP= 0.00E+00 SK= 0.00E+00
   2844 T=   256. E= -.93410061E+03 F= -.94056527E+03 E0= -.94056527E+03  EK= 0.64647E+01 SP= 0.00E+00 SK= 0.00E+00
   2845 T=   257. E= -.93395531E+03 F= -.94042926E+03 E0= -.94042926E+03  EK= 0.64739E+01 SP= 0.00E+00 SK= 0.00E+00
   2846 T=   255. E= -.93396273E+03 F= -.94040243E+03 E0= -.94040243E+03  EK= 0.64397E+01 SP= 0.00E+00 SK= 0.00E+00
   2847 T=   256. E= -.93406963E+03 F= -.94053258E+03 E0= -.94053258E+03  EK= 0.64629E+01 SP= 0.00E+00 SK= 0.00E+00
   2848 T=   263. E= -.93414350E+03 F= -.94077109E+03 E0= -.94077109E+03  EK= 0.66276E+01 SP= 0.00E+00 SK= 0.00E+00
   2849 T=   268. E= -.93420054E+03 F= -.94096431E+03 E0= -.94096431E+03  EK= 0.67638E+01 SP= 0.00E+00 SK= 0.00E+00
   2850 T=   268. E= -.93422381E+03 F= -.94098252E+03 E0= -.94098252E+03  EK= 0.67587E+01 SP= 0.00E+00 SK= 0.00E+00
   2851 T=   263. E= -.93415829E+03 F= -.94079601E+03 E0= -.94079601E+03  EK= 0.66377E+01 SP= 0.00E+00 SK= 0.00E+00
   2852 T=   254. E= -.93406737E+03 F= -.94046869E+03 E0= -.94046869E+03  EK= 0.64013E+01 SP= 0.00E+00 SK= 0.00E+00
   2853 T=   240. E= -.93404412E+03 F= -.94009890E+03 E0= -.94009890E+03  EK= 0.60548E+01 SP= 0.00E+00 SK= 0.00E+00
   2854 T=   227. E= -.93411542E+03 F= -.93983020E+03 E0= -.93983020E+03  EK= 0.57148E+01 SP= 0.00E+00 SK= 0.00E+00
   2855 T=   217. E= -.93426517E+03 F= -.93974109E+03 E0= -.93974109E+03  EK= 0.54759E+01 SP= 0.00E+00 SK= 0.00E+00
   2856 T=   216. E= -.93443898E+03 F= -.93989033E+03 E0= -.93989033E+03  EK= 0.54514E+01 SP= 0.00E+00 SK= 0.00E+00
   2857 T=   225. E= -.93447979E+03 F= -.94014408E+03 E0= -.94014408E+03  EK= 0.56643E+01 SP= 0.00E+00 SK= 0.00E+00
   2858 T=   235. E= -.93443960E+03 F= -.94036682E+03 E0= -.94036682E+03  EK= 0.59272E+01 SP= 0.00E+00 SK= 0.00E+00
   2859 T=   239. E= -.93444919E+03 F= -.94047966E+03 E0= -.94047966E+03  EK= 0.60305E+01 SP= 0.00E+00 SK= 0.00E+00
   2860 T=   235. E= -.93446414E+03 F= -.94039827E+03 E0= -.94039827E+03  EK= 0.59341E+01 SP= 0.00E+00 SK= 0.00E+00
   2861 T=   230. E= -.93443304E+03 F= -.94022317E+03 E0= -.94022317E+03  EK= 0.57901E+01 SP= 0.00E+00 SK= 0.00E+00
   2862 T=   227. E= -.93438470E+03 F= -.94009893E+03 E0= -.94009893E+03  EK= 0.57142E+01 SP= 0.00E+00 SK= 0.00E+00
   2863 T=   227. E= -.93443370E+03 F= -.94015227E+03 E0= -.94015227E+03  EK= 0.57186E+01 SP= 0.00E+00 SK= 0.00E+00
   2864 T=   233. E= -.93447416E+03 F= -.94035250E+03 E0= -.94035250E+03  EK= 0.58783E+01 SP= 0.00E+00 SK= 0.00E+00
   2865 T=   245. E= -.93445775E+03 F= -.94064110E+03 E0= -.94064110E+03  EK= 0.61834E+01 SP= 0.00E+00 SK= 0.00E+00
   2866 T=   256. E= -.93441933E+03 F= -.94086700E+03 E0= -.94086700E+03  EK= 0.64477E+01 SP= 0.00E+00 SK= 0.00E+00
   2867 T=   264. E= -.93433088E+03 F= -.94099511E+03 E0= -.94099511E+03  EK= 0.66642E+01 SP= 0.00E+00 SK= 0.00E+00
   2868 T=   267. E= -.93429855E+03 F= -.94103391E+03 E0= -.94103391E+03  EK= 0.67354E+01 SP= 0.00E+00 SK= 0.00E+00
   2869 T=   264. E= -.93431592E+03 F= -.94096298E+03 E0= -.94096298E+03  EK= 0.66471E+01 SP= 0.00E+00 SK= 0.00E+00
   2870 T=   261. E= -.93424268E+03 F= -.94081430E+03 E0= -.94081430E+03  EK= 0.65716E+01 SP= 0.00E+00 SK= 0.00E+00
   2871 T=   254. E= -.93417095E+03 F= -.94057792E+03 E0= -.94057792E+03  EK= 0.64070E+01 SP= 0.00E+00 SK= 0.00E+00
   2872 T=   246. E= -.93414267E+03 F= -.94035518E+03 E0= -.94035518E+03  EK= 0.62125E+01 SP= 0.00E+00 SK= 0.00E+00
   2873 T=   243. E= -.93411150E+03 F= -.94023985E+03 E0= -.94023985E+03  EK= 0.61283E+01 SP= 0.00E+00 SK= 0.00E+00
   2874 T=   243. E= -.93408957E+03 F= -.94022552E+03 E0= -.94022552E+03  EK= 0.61360E+01 SP= 0.00E+00 SK= 0.00E+00
   2875 T=   249. E= -.93396594E+03 F= -.94022965E+03 E0= -.94022965E+03  EK= 0.62637E+01 SP= 0.00E+00 SK= 0.00E+00
       N       E                     dE             d eps       ncg     rms          rms(c)
DAV:   1    -0.622425520017E+03    0.30689E+03   -0.32981E+04 16238   0.337E+02
DAV:   2    -0.931357947981E+03   -0.30893E+03   -0.30649E+03 18378   0.903E+01
DAV:   3    -0.937686937285E+03   -0.63290E+01   -0.63253E+01 19364   0.145E+01
DAV:   4    -0.937795607947E+03   -0.10867E+00   -0.10866E+00 18956   0.180E+00    0.290E+01
DAV:   5    -0.929364224039E+03    0.84314E+01   -0.15530E+01 18868   0.896E+00    0.163E+01
DAV:   6    -0.928809249551E+03    0.55497E+00   -0.12473E+01 19460   0.755E+00    0.482E+00
DAV:   7    -0.929145458804E+03   -0.33621E+00   -0.20833E+00 18580   0.320E+00    0.186E+00
DAV:   8    -0.929152612827E+03   -0.71540E-02   -0.19090E-01 18212   0.979E-01    0.783E-01
DAV:   9    -0.929148103396E+03    0.45094E-02   -0.39753E-02 18868   0.511E-01    0.294E-01
DAV:  10    -0.929146508210E+03    0.15952E-02   -0.88516E-03 19660   0.269E-01    0.109E-01
DAV:  11    -0.929145843030E+03    0.66518E-03   -0.29467E-03 19156   0.132E-01    0.770E-02
DAV:  12    -0.929144958626E+03    0.88440E-03   -0.64457E-04 17052   0.117E-01    0.346E-02
DAV:  13    -0.929144636078E+03    0.32255E-03   -0.52782E-04 18020   0.924E-02    0.396E-02
DAV:  14    -0.929144560976E+03    0.75102E-04   -0.47538E-04 18212   0.653E-02
   2876 T=   250. E= -.93389064E+03 F= -.94019416E+03 E0= -.94019416E+03  EK= 0.63035E+01 SP= 0.00E+00 SK= 0.00E+00
   2877 T=   251. E= -.93380500E+03 F= -.94014183E+03 E0= -.94014183E+03  EK= 0.63368E+01 SP= 0.00E+00 SK= 0.00E+00
   2878 T=   249. E= -.93383794E+03 F= -.94012103E+03 E0= -.94012103E+03  EK= 0.62831E+01 SP= 0.00E+00 SK= 0.00E+00
   2879 T=   245. E= -.93394494E+03 F= -.94011983E+03 E0= -.94011983E+03  EK= 0.61749E+01 SP= 0.00E+00 SK= 0.00E+00
   2880 T=   240. E= -.93396688E+03 F= -.94002886E+03 E0= -.94002886E+03  EK= 0.60620E+01 SP= 0.00E+00 SK= 0.00E+00
   2881 T=   233. E= -.93400387E+03 F= -.93988738E+03 E0= -.93988738E+03  EK= 0.58835E+01 SP= 0.00E+00 SK= 0.00E+00
   2882 T=   226. E= -.93406052E+03 F= -.93976156E+03 E0= -.93976156E+03  EK= 0.57010E+01 SP= 0.00E+00 SK= 0.00E+00
   2883 T=   224. E= -.93408877E+03 F= -.93974108E+03 E0= -.93974108E+03  EK= 0.56523E+01 SP= 0.00E+00 SK= 0.00E+00
   2884 T=   227. E= -.93414646E+03 F= -.93987828E+03 E0= -.93987828E+03  EK= 0.57318E+01 SP= 0.00E+00 SK= 0.00E+00
   2885 T=   234. E= -.93423618E+03 F= -.94012630E+03 E0= -.94012630E+03  EK= 0.58901E+01 SP= 0.00E+00 SK= 0.00E+00
   2886 T=   243. E= -.93423407E+03 F= -.94036760E+03 E0= -.94036760E+03  EK= 0.61335E+01 SP= 0.00E+00 SK= 0.00E+00
   2887 T=   248. E= -.93420881E+03 F= -.94045857E+03 E0= -.94045857E+03  EK= 0.62498E+01 SP= 0.00E+00 SK= 0.00E+00
   2888 T=   247. E= -.93413459E+03 F= -.94036955E+03 E0= -.94036955E+03  EK= 0.62350E+01 SP= 0.00E+00 SK= 0.00E+00
   2889 T=   243. E= -.93404254E+03 F= -.94016639E+03 E0= -.94016639E+03  EK= 0.61238E+01 SP= 0.00E+00 SK= 0.00E+00
   2890 T=   241. E= -.93388548E+03 F= -.93996976E+03 E0= -.93996976E+03  EK= 0.60843E+01 SP= 0.00E+00 SK= 0.00E+00
   2891 T=   239. E= -.93383423E+03 F= -.93985261E+03 E0= -.93985261E+03  EK= 0.60184E+01 SP= 0.00E+00 SK= 0.00E+00
   2892 T=   240. E= -.93390591E+03 F= -.93995778E+03 E0= -.93995778E+03  EK= 0.60519E+01 SP= 0.00E+00 SK= 0.00E+00
   2893 T=   252. E= -.93387567E+03 F= -.94022732E+03 E0= -.94022732E+03  EK= 0.63517E+01 SP= 0.00E+00 SK= 0.00E+00
   2894 T=   262. E= -.93388293E+03 F= -.94048779E+03 E0= -.94048779E+03  EK= 0.66049E+01 SP= 0.00E+00 SK= 0.00E+00
   2895 T=   269. E= -.93379248E+03 F= -.94056994E+03 E0= -.94056994E+03  EK= 0.67775E+01 SP= 0.00E+00 SK= 0.00E+00
   2896 T=   273. E= -.93360131E+03 F= -.94047251E+03 E0= -.94047251E+03  EK= 0.68712E+01 SP= 0.00E+00 SK= 0.00E+00
   2897 T=   265. E= -.93354319E+03 F= -.94022037E+03 E0= -.94022037E+03  EK= 0.66772E+01 SP= 0.00E+00 SK= 0.00E+00
   2898 T=   255. E= -.93351791E+03 F= -.93994570E+03 E0= -.93994570E+03  EK= 0.64278E+01 SP= 0.00E+00 SK= 0.00E+00
   2899 T=   245. E= -.93358509E+03 F= -.93976186E+03 E0= -.93976186E+03  EK= 0.61768E+01 SP= 0.00E+00 SK= 0.00E+00
   2900 T=   240. E= -.93373872E+03 F= -.93979937E+03 E0= -.93979937E+03  EK= 0.60606E+01 SP= 0.00E+00 SK= 0.00E+00
   2901 T=   245. E= -.93384794E+03 F= -.94002683E+03 E0= -.94002683E+03  EK= 0.61789E+01 SP= 0.00E+00 SK= 0.00E+00
   2902 T=   255. E= -.93391144E+03 F= -.94033394E+03 E0= -.94033394E+03  EK= 0.64225E+01 SP= 0.00E+00 SK= 0.00E+00
   2903 T=   259. E= -.93396213E+03 F= -.94049367E+03 E0= -.94049367E+03  EK= 0.65315E+01 SP= 0.00E+00 SK= 0.00E+00
   2904 T=   255. E= -.93397681E+03 F= -.94040453E+03 E0= -.94040453E+03  EK= 0.64277E+01 SP= 0.00E+00 SK= 0.00E+00
   2905 T=   243. E= -.93397273E+03 F= -.94010982E+03 E0= -.94010982E+03  EK= 0.61371E+01 SP= 0.00E+00 SK= 0.00E+00
   2906 T=   231. E= -.93403217E+03 F= -.93985739E+03 E0= -.93985739E+03  EK= 0.58252E+01 SP= 0.00E+00 SK= 0.00E+00
   2907 T=   228. E= -.93406185E+03 F= -.93980488E+03 E0= -.93980488E+03  EK= 0.57430E+01 SP= 0.00E+00 SK= 0.00E+00
   2908 T=   232. E= -.93407607E+03 F= -.93993334E+03 E0= -.93993334E+03  EK= 0.58573E+01 SP= 0.00E+00 SK= 0.00E+00
   2909 T=   238. E= -.93414169E+03 F= -.94014437E+03 E0= -.94014437E+03  EK= 0.60027E+01 SP= 0.00E+00 SK= 0.00E+00
   2910 T=   242. E= -.93416594E+03 F= -.94026828E+03 E0= -.94026828E+03  EK= 0.61023E+01 SP= 0.00E+00 SK= 0.00E+00
   2911 T=   240. E= -.93419084E+03 F= -.94024783E+03 E0= -.94024783E+03  EK= 0.60570E+01 SP= 0.00E+00 SK= 0.00E+00
   2912 T=   237. E= -.93417318E+03 F= -.94014780E+03 E0= -.94014780E+03  EK= 0.59746E+01 SP= 0.00E+00 SK= 0.00E+00
   2913 T=   237. E= -.93409310E+03 F= -.94005737E+03 E0= -.94005737E+03  EK= 0.59643E+01 SP= 0.00E+00 SK= 0.00E+00
   2914 T=   241. E= -.93396060E+03 F= -.94002673E+03 E0= -.94002673E+03  EK= 0.60661E+01 SP= 0.00E+00 SK= 0.00E+00
   2915 T=   248. E= -.93382587E+03 F= -.94007124E+03 E0= -.94007124E+03  EK= 0.62454E+01 SP= 0.00E+00 SK= 0.00E+00
   2916 T=   255. E= -.93372631E+03 F= -.94016536E+03 E0= -.94016536E+03  EK= 0.64391E+01 SP= 0.00E+00 SK= 0.00E+00
   2917 T=   260. E= -.93366533E+03 F= -.94021158E+03 E0= -.94021158E+03  EK= 0.65463E+01 SP= 0.00E+00 SK= 0.00E+00
   2918 T=   260. E= -.93365832E+03 F= -.94020064E+03 E0= -.94020064E+03  EK= 0.65423E+01 SP= 0.00E+00 SK= 0.00E+00
   2919 T=   253. E= -.93377653E+03 F= -.94015817E+03 E0= -.94015817E+03  EK= 0.63816E+01 SP= 0.00E+00 SK= 0.00E+00
   2920 T=   247. E= -.93391120E+03 F= -.94012874E+03 E0= -.94012874E+03  EK= 0.62175E+01 SP= 0.00E+00 SK= 0.00E+00
   2921 T=   252. E= -.93384389E+03 F= -.94020497E+03 E0= -.94020497E+03  EK= 0.63611E+01 SP= 0.00E+00 SK= 0.00E+00
   2922 T=   261. E= -.93377770E+03 F= -.94034897E+03 E0= -.94034897E+03  EK= 0.65713E+01 SP= 0.00E+00 SK= 0.00E+00
   2923 T=   265. E= -.93375322E+03 F= -.94044496E+03 E0= -.94044496E+03  EK= 0.66917E+01 SP= 0.00E+00 SK= 0.00E+00
   2924 T=   262. E= -.93380016E+03 F= -.94041155E+03 E0= -.94041155E+03  EK= 0.66114E+01 SP= 0.00E+00 SK= 0.00E+00
   2925 T=   254. E= -.93390530E+03 F= -.94030740E+03 E0= -.94030740E+03  EK= 0.64021E+01 SP= 0.00E+00 SK= 0.00E+00
   2926 T=   247. E= -.93396097E+03 F= -.94019254E+03 E0= -.94019254E+03  EK= 0.62316E+01 SP= 0.00E+00 SK= 0.00E+00
   2927 T=   244. E= -.93398621E+03 F= -.94013305E+03 E0= -.94013305E+03  EK= 0.61468E+01 SP= 0.00E+00 SK= 0.00E+00
   2928 T=   239. E= -.93407975E+03 F= -.94009415E+03 E0= -.94009415E+03  EK= 0.60144E+01 SP= 0.00E+00 SK= 0.00E+00
   2929 T=   236. E= -.93413546E+03 F= -.94007769E+03 E0= -.94007769E+03  EK= 0.59422E+01 SP= 0.00E+00 SK= 0.00E+00
   2930 T=   243. E= -.93400237E+03 F= -.94012424E+03 E0= -.94012424E+03  EK= 0.61219E+01 SP= 0.00E+00 SK= 0.00E+00
   2931 T=   253. E= -.93387284E+03 F= -.94024397E+03 E0= -.94024397E+03  EK= 0.63711E+01 SP= 0.00E+00 SK= 0.00E+00
   2932 T=   255. E= -.93388932E+03 F= -.94032639E+03 E0= -.94032639E+03  EK= 0.64371E+01 SP= 0.00E+00 SK= 0.00E+00
   2933 T=   251. E= -.93403024E+03 F= -.94034751E+03 E0= -.94034751E+03  EK= 0.63173E+01 SP= 0.00E+00 SK= 0.00E+00
   2934 T=   249. E= -.93408555E+03 F= -.94035514E+03 E0= -.94035514E+03  EK= 0.62696E+01 SP= 0.00E+00 SK= 0.00E+00
   2935 T=   247. E= -.93408955E+03 F= -.94031083E+03 E0= -.94031083E+03  EK= 0.62213E+01 SP= 0.00E+00 SK= 0.00E+00
   2936 T=   246. E= -.93407963E+03 F= -.94028555E+03 E0= -.94028555E+03  EK= 0.62059E+01 SP= 0.00E+00 SK= 0.00E+00
   2937 T=   248. E= -.93406136E+03 F= -.94032380E+03 E0= -.94032380E+03  EK= 0.62624E+01 SP= 0.00E+00 SK= 0.00E+00
   2938 T=   252. E= -.93405845E+03 F= -.94039930E+03 E0= -.94039930E+03  EK= 0.63408E+01 SP= 0.00E+00 SK= 0.00E+00
   2939 T=   257. E= -.93401093E+03 F= -.94049307E+03 E0= -.94049307E+03  EK= 0.64821E+01 SP= 0.00E+00 SK= 0.00E+00
   2940 T=   259. E= -.93406385E+03 F= -.94059155E+03 E0= -.94059155E+03  EK= 0.65277E+01 SP= 0.00E+00 SK= 0.00E+00
   2941 T=   263. E= -.93404542E+03 F= -.94067149E+03 E0= -.94067149E+03  EK= 0.66261E+01 SP= 0.00E+00 SK= 0.00E+00
   2942 T=   276. E= -.93384207E+03 F= -.94079753E+03 E0= -.94079753E+03  EK= 0.69555E+01 SP= 0.00E+00 SK= 0.00E+00
   2943 T=   285. E= -.93370651E+03 F= -.94089425E+03 E0= -.94089425E+03  EK= 0.71877E+01 SP= 0.00E+00 SK= 0.00E+00
   2944 T=   285. E= -.93371297E+03 F= -.94089038E+03 E0= -.94089038E+03  EK= 0.71774E+01 SP= 0.00E+00 SK= 0.00E+00
   2945 T=   278. E= -.93377481E+03 F= -.94078220E+03 E0= -.94078220E+03  EK= 0.70074E+01 SP= 0.00E+00 SK= 0.00E+00
   2946 T=   273. E= -.93376115E+03 F= -.94064582E+03 E0= -.94064582E+03  EK= 0.68847E+01 SP= 0.00E+00 SK= 0.00E+00
   2947 T=   268. E= -.93381340E+03 F= -.94057403E+03 E0= -.94057403E+03  EK= 0.67606E+01 SP= 0.00E+00 SK= 0.00E+00
   2948 T=   267. E= -.93390237E+03 F= -.94062461E+03 E0= -.94062461E+03  EK= 0.67222E+01 SP= 0.00E+00 SK= 0.00E+00
   2949 T=   273. E= -.93391055E+03 F= -.94078670E+03 E0= -.94078670E+03  EK= 0.68762E+01 SP= 0.00E+00 SK= 0.00E+00
   2950 T=   277. E= -.93396566E+03 F= -.94094913E+03 E0= -.94094913E+03  EK= 0.69835E+01 SP= 0.00E+00 SK= 0.00E+00
   2951 T=   271. E= -.93415439E+03 F= -.94098740E+03 E0= -.94098740E+03  EK= 0.68330E+01 SP= 0.00E+00 SK= 0.00E+00
   2952 T=   264. E= -.93426300E+03 F= -.94090922E+03 E0= -.94090922E+03  EK= 0.66462E+01 SP= 0.00E+00 SK= 0.00E+00
   2953 T=   257. E= -.93423355E+03 F= -.94071985E+03 E0= -.94071985E+03  EK= 0.64863E+01 SP= 0.00E+00 SK= 0.00E+00
   2954 T=   253. E= -.93419338E+03 F= -.94057741E+03 E0= -.94057741E+03  EK= 0.63840E+01 SP= 0.00E+00 SK= 0.00E+00
   2955 T=   254. E= -.93409992E+03 F= -.94050351E+03 E0= -.94050351E+03  EK= 0.64036E+01 SP= 0.00E+00 SK= 0.00E+00
   2956 T=   256. E= -.93403857E+03 F= -.94048545E+03 E0= -.94048545E+03  EK= 0.64469E+01 SP= 0.00E+00 SK= 0.00E+00
   2957 T=   251. E= -.93410497E+03 F= -.94043375E+03 E0= -.94043375E+03  EK= 0.63288E+01 SP= 0.00E+00 SK= 0.00E+00
   2958 T=   246. E= -.93415466E+03 F= -.94035449E+03 E0= -.94035449E+03  EK= 0.61998E+01 SP= 0.00E+00 SK= 0.00E+00
   2959 T=   243. E= -.93415791E+03 F= -.94027289E+03 E0= -.94027289E+03  EK= 0.61150E+01 SP= 0.00E+00 SK= 0.00E+00
   2960 T=   240. E= -.93413499E+03 F= -.94019308E+03 E0= -.94019308E+03  EK= 0.60581E+01 SP= 0.00E+00 SK= 0.00E+00
   2961 T=   240. E= -.93411007E+03 F= -.94015458E+03 E0= -.94015458E+03  EK= 0.60445E+01 SP= 0.00E+00 SK= 0.00E+00
   2962 T=   238. E= -.93419902E+03 F= -.94019680E+03 E0= -.94019680E+03  EK= 0.59978E+01 SP= 0.00E+00 SK= 0.00E+00
   2963 T=   240. E= -.93429440E+03 F= -.94034440E+03 E0= -.94034440E+03  EK= 0.60500E+01 SP= 0.00E+00 SK= 0.00E+00
   2964 T=   246. E= -.93427036E+03 F= -.94046179E+03 E0= -.94046179E+03  EK= 0.61914E+01 SP= 0.00E+00 SK= 0.00E+00
   2965 T=   251. E= -.93419321E+03 F= -.94051998E+03 E0= -.94051998E+03  EK= 0.63268E+01 SP= 0.00E+00 SK= 0.00E+00
   2966 T=   249. E= -.93419081E+03 F= -.94047698E+03 E0= -.94047698E+03  EK= 0.62862E+01 SP= 0.00E+00 SK= 0.00E+00
   2967 T=   243. E= -.93423905E+03 F= -.94036385E+03 E0= -.94036385E+03  EK= 0.61248E+01 SP= 0.00E+00 SK= 0.00E+00
   2968 T=   239. E= -.93426505E+03 F= -.94029943E+03 E0= -.94029943E+03  EK= 0.60344E+01 SP= 0.00E+00 SK= 0.00E+00
   2969 T=   242. E= -.93420549E+03 F= -.94030552E+03 E0= -.94030552E+03  EK= 0.61000E+01 SP= 0.00E+00 SK= 0.00E+00
   2970 T=   251. E= -.93407536E+03 F= -.94041124E+03 E0= -.94041124E+03  EK= 0.63359E+01 SP= 0.00E+00 SK= 0.00E+00
   2971 T=   262. E= -.93397567E+03 F= -.94058377E+03 E0= -.94058377E+03  EK= 0.66081E+01 SP= 0.00E+00 SK= 0.00E+00
   2972 T=   269. E= -.93398113E+03 F= -.94074992E+03 E0= -.94074992E+03  EK= 0.67688E+01 SP= 0.00E+00 SK= 0.00E+00
   2973 T=   273. E= -.93391461E+03 F= -.94080381E+03 E0= -.94080381E+03  EK= 0.68892E+01 SP= 0.00E+00 SK= 0.00E+00
   2974 T=   272. E= -.93381578E+03 F= -.94067792E+03 E0= -.94067792E+03  EK= 0.68621E+01 SP= 0.00E+00 SK= 0.00E+00
   2975 T=   264. E= -.93374790E+03 F= -.94040618E+03 E0= -.94040618E+03  EK= 0.66583E+01 SP= 0.00E+00 SK= 0.00E+00
   2976 T=   256. E= -.93364793E+03 F= -.94009260E+03 E0= -.94009260E+03  EK= 0.64447E+01 SP= 0.00E+00 SK= 0.00E+00
   2977 T=   249. E= -.93360871E+03 F= -.93987874E+03 E0= -.93987874E+03  EK= 0.62700E+01 SP= 0.00E+00 SK= 0.00E+00
   2978 T=   247. E= -.93361406E+03 F= -.93983504E+03 E0= -.93983504E+03  EK= 0.62210E+01 SP= 0.00E+00 SK= 0.00E+00
   2979 T=   252. E= -.93362456E+03 F= -.93998148E+03 E0= -.93998148E+03  EK= 0.63569E+01 SP= 0.00E+00 SK= 0.00E+00
   2980 T=   259. E= -.93364350E+03 F= -.94018347E+03 E0= -.94018347E+03  EK= 0.65400E+01 SP= 0.00E+00 SK= 0.00E+00
   2981 T=   268. E= -.93353519E+03 F= -.94028136E+03 E0= -.94028136E+03  EK= 0.67462E+01 SP= 0.00E+00 SK= 0.00E+00
   2982 T=   265. E= -.93351623E+03 F= -.94019806E+03 E0= -.94019806E+03  EK= 0.66818E+01 SP= 0.00E+00 SK= 0.00E+00
   2983 T=   253. E= -.93361382E+03 F= -.93998628E+03 E0= -.93998628E+03  EK= 0.63725E+01 SP= 0.00E+00 SK= 0.00E+00
   2984 T=   241. E= -.93367534E+03 F= -.93975199E+03 E0= -.93975199E+03  EK= 0.60766E+01 SP= 0.00E+00 SK= 0.00E+00
   2985 T=   230. E= -.93383039E+03 F= -.93962509E+03 E0= -.93962509E+03  EK= 0.57947E+01 SP= 0.00E+00 SK= 0.00E+00
   2986 T=   230. E= -.93390104E+03 F= -.93968765E+03 E0= -.93968765E+03  EK= 0.57866E+01 SP= 0.00E+00 SK= 0.00E+00
   2987 T=   236. E= -.93391330E+03 F= -.93987330E+03 E0= -.93987330E+03  EK= 0.59600E+01 SP= 0.00E+00 SK= 0.00E+00
   2988 T=   241. E= -.93403077E+03 F= -.94010849E+03 E0= -.94010849E+03  EK= 0.60777E+01 SP= 0.00E+00 SK= 0.00E+00
   2989 T=   246. E= -.93411340E+03 F= -.94031142E+03 E0= -.94031142E+03  EK= 0.61980E+01 SP= 0.00E+00 SK= 0.00E+00
   2990 T=   247. E= -.93418889E+03 F= -.94040570E+03 E0= -.94040570E+03  EK= 0.62168E+01 SP= 0.00E+00 SK= 0.00E+00
   2991 T=   246. E= -.93416605E+03 F= -.94035492E+03 E0= -.94035492E+03  EK= 0.61889E+01 SP= 0.00E+00 SK= 0.00E+00
   2992 T=   241. E= -.93407731E+03 F= -.94016363E+03 E0= -.94016363E+03  EK= 0.60863E+01 SP= 0.00E+00 SK= 0.00E+00
   2993 T=   234. E= -.93401559E+03 F= -.93992430E+03 E0= -.93992430E+03  EK= 0.59087E+01 SP= 0.00E+00 SK= 0.00E+00
   2994 T=   230. E= -.93397955E+03 F= -.93977556E+03 E0= -.93977556E+03  EK= 0.57960E+01 SP= 0.00E+00 SK= 0.00E+00
   2995 T=   231. E= -.93401075E+03 F= -.93982703E+03 E0= -.93982703E+03  EK= 0.58163E+01 SP= 0.00E+00 SK= 0.00E+00
   2996 T=   238. E= -.93402199E+03 F= -.94000954E+03 E0= -.94000954E+03  EK= 0.59875E+01 SP= 0.00E+00 SK= 0.00E+00
   2997 T=   249. E= -.93396035E+03 F= -.94024416E+03 E0= -.94024416E+03  EK= 0.62838E+01 SP= 0.00E+00 SK= 0.00E+00
   2998 T=   259. E= -.93387746E+03 F= -.94041129E+03 E0= -.94041129E+03  EK= 0.65338E+01 SP= 0.00E+00 SK= 0.00E+00
   2999 T=   260. E= -.93385898E+03 F= -.94040953E+03 E0= -.94040953E+03  EK= 0.65505E+01 SP= 0.00E+00 SK= 0.00E+00
   3000 T=   253. E= -.93391931E+03 F= -.94028464E+03 E0= -.94028464E+03  EK= 0.63653E+01 SP= 0.00E+00 SK= 0.00E+00
   3001 T=   246. E= -.93393231E+03 F= -.94012727E+03 E0= -.94012727E+03  EK= 0.61950E+01 SP= 0.00E+00 SK= 0.00E+00
   3002 T=   246. E= -.93385717E+03 F= -.94006746E+03 E0= -.94006746E+03  EK= 0.62103E+01 SP= 0.00E+00 SK= 0.00E+00
   3003 T=   251. E= -.93383946E+03 F= -.94017025E+03 E0= -.94017025E+03  EK= 0.63308E+01 SP= 0.00E+00 SK= 0.00E+00
   3004 T=   257. E= -.93390313E+03 F= -.94038422E+03 E0= -.94038422E+03  EK= 0.64811E+01 SP= 0.00E+00 SK= 0.00E+00
   3005 T=   264. E= -.93391494E+03 F= -.94057779E+03 E0= -.94057779E+03  EK= 0.66629E+01 SP= 0.00E+00 SK= 0.00E+00
   3006 T=   265. E= -.93397477E+03 F= -.94064762E+03 E0= -.94064762E+03  EK= 0.66728E+01 SP= 0.00E+00 SK= 0.00E+00
   3007 T=   260. E= -.93408535E+03 F= -.94062962E+03 E0= -.94062962E+03  EK= 0.65443E+01 SP= 0.00E+00 SK= 0.00E+00
   3008 T=   257. E= -.93411683E+03 F= -.94060622E+03 E0= -.94060622E+03  EK= 0.64894E+01 SP= 0.00E+00 SK= 0.00E+00
   3009 T=   265. E= -.93393005E+03 F= -.94060381E+03 E0= -.94060381E+03  EK= 0.66738E+01 SP= 0.00E+00 SK= 0.00E+00
   3010 T=   274. E= -.93370410E+03 F= -.94061382E+03 E0= -.94061382E+03  EK= 0.69097E+01 SP= 0.00E+00 SK= 0.00E+00
   3011 T=   276. E= -.93365756E+03 F= -.94060956E+03 E0= -.94060956E+03  EK= 0.69520E+01 SP= 0.00E+00 SK= 0.00E+00
   3012 T=   272. E= -.93365630E+03 F= -.94051267E+03 E0= -.94051267E+03  EK= 0.68564E+01 SP= 0.00E+00 SK= 0.00E+00
   3013 T=   265. E= -.93366755E+03 F= -.94035463E+03 E0= -.94035463E+03  EK= 0.66871E+01 SP= 0.00E+00 SK= 0.00E+00
   3014 T=   257. E= -.93371615E+03 F= -.94020118E+03 E0= -.94020118E+03  EK= 0.64850E+01 SP= 0.00E+00 SK= 0.00E+00
   3015 T=   251. E= -.93377702E+03 F= -.94010707E+03 E0= -.94010707E+03  EK= 0.63300E+01 SP= 0.00E+00 SK= 0.00E+00
   3016 T=   249. E= -.93379104E+03 F= -.94006384E+03 E0= -.94006384E+03  EK= 0.62728E+01 SP= 0.00E+00 SK= 0.00E+00
   3017 T=   248. E= -.93378404E+03 F= -.94003289E+03 E0= -.94003289E+03  EK= 0.62488E+01 SP= 0.00E+00 SK= 0.00E+00
   3018 T=   246. E= -.93382175E+03 F= -.94002787E+03 E0= -.94002787E+03  EK= 0.62061E+01 SP= 0.00E+00 SK= 0.00E+00
   3019 T=   249. E= -.93382921E+03 F= -.94009510E+03 E0= -.94009510E+03  EK= 0.62659E+01 SP= 0.00E+00 SK= 0.00E+00
   3020 T=   250. E= -.93387532E+03 F= -.94017617E+03 E0= -.94017617E+03  EK= 0.63009E+01 SP= 0.00E+00 SK= 0.00E+00
   3021 T=   246. E= -.93398044E+03 F= -.94019272E+03 E0= -.94019272E+03  EK= 0.62123E+01 SP= 0.00E+00 SK= 0.00E+00
   3022 T=   242. E= -.93397920E+03 F= -.94006758E+03 E0= -.94006758E+03  EK= 0.60884E+01 SP= 0.00E+00 SK= 0.00E+00
   3023 T=   233. E= -.93400231E+03 F= -.93988181E+03 E0= -.93988181E+03  EK= 0.58795E+01 SP= 0.00E+00 SK= 0.00E+00
   3024 T=   227. E= -.93407594E+03 F= -.93980406E+03 E0= -.93980406E+03  EK= 0.57281E+01 SP= 0.00E+00 SK= 0.00E+00
   3025 T=   230. E= -.93408161E+03 F= -.93987300E+03 E0= -.93987300E+03  EK= 0.57914E+01 SP= 0.00E+00 SK= 0.00E+00
   3026 T=   237. E= -.93404018E+03 F= -.94000980E+03 E0= -.94000980E+03  EK= 0.59696E+01 SP= 0.00E+00 SK= 0.00E+00
   3027 T=   237. E= -.93405379E+03 F= -.94003919E+03 E0= -.94003919E+03  EK= 0.59854E+01 SP= 0.00E+00 SK= 0.00E+00
   3028 T=   234. E= -.93404097E+03 F= -.93993272E+03 E0= -.93993272E+03  EK= 0.58918E+01 SP= 0.00E+00 SK= 0.00E+00
   3029 T=   229. E= -.93400722E+03 F= -.93976785E+03 E0= -.93976785E+03  EK= 0.57606E+01 SP= 0.00E+00 SK= 0.00E+00
   3030 T=   225. E= -.93402387E+03 F= -.93968638E+03 E0= -.93968638E+03  EK= 0.56625E+01 SP= 0.00E+00 SK= 0.00E+00
   3031 T=   223. E= -.93404952E+03 F= -.93965821E+03 E0= -.93965821E+03  EK= 0.56087E+01 SP= 0.00E+00 SK= 0.00E+00
   3032 T=   222. E= -.93408781E+03 F= -.93967393E+03 E0= -.93967393E+03  EK= 0.55861E+01 SP= 0.00E+00 SK= 0.00E+00
   3033 T=   224. E= -.93403151E+03 F= -.93968087E+03 E0= -.93968087E+03  EK= 0.56494E+01 SP= 0.00E+00 SK= 0.00E+00
   3034 T=   227. E= -.93394438E+03 F= -.93966160E+03 E0= -.93966160E+03  EK= 0.57172E+01 SP= 0.00E+00 SK= 0.00E+00
   3035 T=   226. E= -.93392471E+03 F= -.93962596E+03 E0= -.93962596E+03  EK= 0.57012E+01 SP= 0.00E+00 SK= 0.00E+00
   3036 T=   227. E= -.93391341E+03 F= -.93962356E+03 E0= -.93962356E+03  EK= 0.57101E+01 SP= 0.00E+00 SK= 0.00E+00
   3037 T=   226. E= -.93394406E+03 F= -.93964179E+03 E0= -.93964179E+03  EK= 0.56977E+01 SP= 0.00E+00 SK= 0.00E+00
   3038 T=   228. E= -.93397893E+03 F= -.93972190E+03 E0= -.93972190E+03  EK= 0.57430E+01 SP= 0.00E+00 SK= 0.00E+00
   3039 T=   231. E= -.93405583E+03 F= -.93988452E+03 E0= -.93988452E+03  EK= 0.58287E+01 SP= 0.00E+00 SK= 0.00E+00
   3040 T=   237. E= -.93410682E+03 F= -.94008934E+03 E0= -.94008934E+03  EK= 0.59825E+01 SP= 0.00E+00 SK= 0.00E+00
   3041 T=   247. E= -.93407404E+03 F= -.94030572E+03 E0= -.94030572E+03  EK= 0.62317E+01 SP= 0.00E+00 SK= 0.00E+00
   3042 T=   255. E= -.93402228E+03 F= -.94044767E+03 E0= -.94044767E+03  EK= 0.64254E+01 SP= 0.00E+00 SK= 0.00E+00
   3043 T=   260. E= -.93393468E+03 F= -.94047678E+03 E0= -.94047678E+03  EK= 0.65421E+01 SP= 0.00E+00 SK= 0.00E+00
   3044 T=   258. E= -.93386134E+03 F= -.94036443E+03 E0= -.94036443E+03  EK= 0.65031E+01 SP= 0.00E+00 SK= 0.00E+00
   3045 T=   252. E= -.93387083E+03 F= -.94022335E+03 E0= -.94022335E+03  EK= 0.63525E+01 SP= 0.00E+00 SK= 0.00E+00
   3046 T=   248. E= -.93391103E+03 F= -.94017438E+03 E0= -.94017438E+03  EK= 0.62633E+01 SP= 0.00E+00 SK= 0.00E+00
   3047 T=   248. E= -.93397500E+03 F= -.94022495E+03 E0= -.94022495E+03  EK= 0.62500E+01 SP= 0.00E+00 SK= 0.00E+00
   3048 T=   253. E= -.93397494E+03 F= -.94034682E+03 E0= -.94034682E+03  EK= 0.63719E+01 SP= 0.00E+00 SK= 0.00E+00
   3049 T=   261. E= -.93390334E+03 F= -.94047167E+03 E0= -.94047167E+03  EK= 0.65683E+01 SP= 0.00E+00 SK= 0.00E+00
   3050 T=   265. E= -.93385155E+03 F= -.94053224E+03 E0= -.94053224E+03  EK= 0.66807E+01 SP= 0.00E+00 SK= 0.00E+00
   3051 T=   267. E= -.93377815E+03 F= -.94049655E+03 E0= -.94049655E+03  EK= 0.67184E+01 SP= 0.00E+00 SK= 0.00E+00
   3052 T=   265. E= -.93368466E+03 F= -.94036382E+03 E0= -.94036382E+03  EK= 0.66792E+01 SP= 0.00E+00 SK= 0.00E+00
   3053 T=   262. E= -.93357079E+03 F= -.94018348E+03 E0= -.94018348E+03  EK= 0.66127E+01 SP= 0.00E+00 SK= 0.00E+00
   3054 T=   257. E= -.93354557E+03 F= -.94001633E+03 E0= -.94001633E+03  EK= 0.64708E+01 SP= 0.00E+00 SK= 0.00E+00
   3055 T=   253. E= -.93356833E+03 F= -.93993722E+03 E0= -.93993722E+03  EK= 0.63689E+01 SP= 0.00E+00 SK= 0.00E+00
   3056 T=   249. E= -.93366229E+03 F= -.93994613E+03 E0= -.93994613E+03  EK= 0.62838E+01 SP= 0.00E+00 SK= 0.00E+00
   3057 T=   249. E= -.93372451E+03 F= -.94001101E+03 E0= -.94001101E+03  EK= 0.62865E+01 SP= 0.00E+00 SK= 0.00E+00
   3058 T=   253. E= -.93374313E+03 F= -.94012722E+03 E0= -.94012722E+03  EK= 0.63841E+01 SP= 0.00E+00 SK= 0.00E+00
   3059 T=   254. E= -.93378978E+03 F= -.94018560E+03 E0= -.94018560E+03  EK= 0.63958E+01 SP= 0.00E+00 SK= 0.00E+00
   3060 T=   253. E= -.93379862E+03 F= -.94018145E+03 E0= -.94018145E+03  EK= 0.63828E+01 SP= 0.00E+00 SK= 0.00E+00
   3061 T=   249. E= -.93379116E+03 F= -.94006017E+03 E0= -.94006017E+03  EK= 0.62690E+01 SP= 0.00E+00 SK= 0.00E+00
   3062 T=   247. E= -.93372207E+03 F= -.93993918E+03 E0= -.93993918E+03  EK= 0.62171E+01 SP= 0.00E+00 SK= 0.00E+00
   3063 T=   246. E= -.93367687E+03 F= -.93986924E+03 E0= -.93986924E+03  EK= 0.61924E+01 SP= 0.00E+00 SK= 0.00E+00
   3064 T=   248. E= -.93362797E+03 F= -.93988961E+03 E0= -.93988961E+03  EK= 0.62616E+01 SP= 0.00E+00 SK= 0.00E+00
   3065 T=   256. E= -.93354602E+03 F= -.93998750E+03 E0= -.93998750E+03  EK= 0.64415E+01 SP= 0.00E+00 SK= 0.00E+00
   3066 T=   261. E= -.93351525E+03 F= -.94009971E+03 E0= -.94009971E+03  EK= 0.65845E+01 SP= 0.00E+00 SK= 0.00E+00
   3067 T=   260. E= -.93357847E+03 F= -.94013653E+03 E0= -.94013653E+03  EK= 0.65581E+01 SP= 0.00E+00 SK= 0.00E+00
   3068 T=   257. E= -.93364273E+03 F= -.94011204E+03 E0= -.94011204E+03  EK= 0.64693E+01 SP= 0.00E+00 SK= 0.00E+00
   3069 T=   254. E= -.93370039E+03 F= -.94011086E+03 E0= -.94011086E+03  EK= 0.64105E+01 SP= 0.00E+00 SK= 0.00E+00
   3070 T=   254. E= -.93378594E+03 F= -.94019028E+03 E0= -.94019028E+03  EK= 0.64043E+01 SP= 0.00E+00 SK= 0.00E+00
   3071 T=   256. E= -.93382138E+03 F= -.94028524E+03 E0= -.94028524E+03  EK= 0.64639E+01 SP= 0.00E+00 SK= 0.00E+00
   3072 T=   253. E= -.93393765E+03 F= -.94032098E+03 E0= -.94032098E+03  EK= 0.63833E+01 SP= 0.00E+00 SK= 0.00E+00
   3073 T=   247. E= -.93405432E+03 F= -.94027167E+03 E0= -.94027167E+03  EK= 0.62174E+01 SP= 0.00E+00 SK= 0.00E+00
   3074 T=   247. E= -.93400018E+03 F= -.94021363E+03 E0= -.94021363E+03  EK= 0.62135E+01 SP= 0.00E+00 SK= 0.00E+00
   3075 T=   243. E= -.93398911E+03 F= -.94012541E+03 E0= -.94012541E+03  EK= 0.61363E+01 SP= 0.00E+00 SK= 0.00E+00
   3076 T=   240. E= -.93404767E+03 F= -.94009532E+03 E0= -.94009532E+03  EK= 0.60477E+01 SP= 0.00E+00 SK= 0.00E+00
   3077 T=   244. E= -.93397413E+03 F= -.94013600E+03 E0= -.94013600E+03  EK= 0.61619E+01 SP= 0.00E+00 SK= 0.00E+00
   3078 T=   250. E= -.93392380E+03 F= -.94021502E+03 E0= -.94021502E+03  EK= 0.62912E+01 SP= 0.00E+00 SK= 0.00E+00
   3079 T=   248. E= -.93401505E+03 F= -.94025402E+03 E0= -.94025402E+03  EK= 0.62390E+01 SP= 0.00E+00 SK= 0.00E+00
   3080 T=   246. E= -.93407580E+03 F= -.94028181E+03 E0= -.94028181E+03  EK= 0.62060E+01 SP= 0.00E+00 SK= 0.00E+00
   3081 T=   246. E= -.93403904E+03 F= -.94024413E+03 E0= -.94024413E+03  EK= 0.62051E+01 SP= 0.00E+00 SK= 0.00E+00
   3082 T=   244. E= -.93391173E+03 F= -.94006779E+03 E0= -.94006779E+03  EK= 0.61561E+01 SP= 0.00E+00 SK= 0.00E+00
   3083 T=   242. E= -.93382778E+03 F= -.93992063E+03 E0= -.93992063E+03  EK= 0.60929E+01 SP= 0.00E+00 SK= 0.00E+00
   3084 T=   241. E= -.93384404E+03 F= -.93991359E+03 E0= -.93991359E+03  EK= 0.60695E+01 SP= 0.00E+00 SK= 0.00E+00
   3085 T=   246. E= -.93384614E+03 F= -.94005779E+03 E0= -.94005779E+03  EK= 0.62117E+01 SP= 0.00E+00 SK= 0.00E+00
   3086 T=   261. E= -.93370872E+03 F= -.94028103E+03 E0= -.94028103E+03  EK= 0.65723E+01 SP= 0.00E+00 SK= 0.00E+00
   3087 T=   271. E= -.93358273E+03 F= -.94040569E+03 E0= -.94040569E+03  EK= 0.68230E+01 SP= 0.00E+00 SK= 0.00E+00
   3088 T=   269. E= -.93357801E+03 F= -.94035931E+03 E0= -.94035931E+03  EK= 0.67813E+01 SP= 0.00E+00 SK= 0.00E+00
   3089 T=   266. E= -.93352274E+03 F= -.94021625E+03 E0= -.94021625E+03  EK= 0.66935E+01 SP= 0.00E+00 SK= 0.00E+00
   3090 T=   260. E= -.93349951E+03 F= -.94006487E+03 E0= -.94006487E+03  EK= 0.65654E+01 SP= 0.00E+00 SK= 0.00E+00
   3091 T=   253. E= -.93357573E+03 F= -.93996429E+03 E0= -.93996429E+03  EK= 0.63886E+01 SP= 0.00E+00 SK= 0.00E+00
   3092 T=   257. E= -.93350556E+03 F= -.93997609E+03 E0= -.93997609E+03  EK= 0.64705E+01 SP= 0.00E+00 SK= 0.00E+00
   3093 T=   264. E= -.93342482E+03 F= -.94007195E+03 E0= -.94007195E+03  EK= 0.66471E+01 SP= 0.00E+00 SK= 0.00E+00
   3094 T=   270. E= -.93338666E+03 F= -.94018260E+03 E0= -.94018260E+03  EK= 0.67959E+01 SP= 0.00E+00 SK= 0.00E+00
   3095 T=   276. E= -.93327522E+03 F= -.94023040E+03 E0= -.94023040E+03  EK= 0.69552E+01 SP= 0.00E+00 SK= 0.00E+00
   3096 T=   280. E= -.93319215E+03 F= -.94024027E+03 E0= -.94024027E+03  EK= 0.70481E+01 SP= 0.00E+00 SK= 0.00E+00
   3097 T=   272. E= -.93330086E+03 F= -.94016400E+03 E0= -.94016400E+03  EK= 0.68631E+01 SP= 0.00E+00 SK= 0.00E+00
   3098 T=   266. E= -.93336205E+03 F= -.94007641E+03 E0= -.94007641E+03  EK= 0.67144E+01 SP= 0.00E+00 SK= 0.00E+00
   3099 T=   262. E= -.93339063E+03 F= -.93998961E+03 E0= -.93998961E+03  EK= 0.65990E+01 SP= 0.00E+00 SK= 0.00E+00
   3100 T=   255. E= -.93349192E+03 F= -.93992361E+03 E0= -.93992361E+03  EK= 0.64317E+01 SP= 0.00E+00 SK= 0.00E+00
   3101 T=   253. E= -.93355796E+03 F= -.93993612E+03 E0= -.93993612E+03  EK= 0.63782E+01 SP= 0.00E+00 SK= 0.00E+00
   3102 T=   258. E= -.93351658E+03 F= -.94002844E+03 E0= -.94002844E+03  EK= 0.65119E+01 SP= 0.00E+00 SK= 0.00E+00
   3103 T=   262. E= -.93352955E+03 F= -.94013859E+03 E0= -.94013859E+03  EK= 0.66090E+01 SP= 0.00E+00 SK= 0.00E+00
   3104 T=   262. E= -.93358334E+03 F= -.94019528E+03 E0= -.94019528E+03  EK= 0.66119E+01 SP= 0.00E+00 SK= 0.00E+00
   3105 T=   264. E= -.93355575E+03 F= -.94021422E+03 E0= -.94021422E+03  EK= 0.66585E+01 SP= 0.00E+00 SK= 0.00E+00
   3106 T=   260. E= -.93360291E+03 F= -.94016460E+03 E0= -.94016460E+03  EK= 0.65617E+01 SP= 0.00E+00 SK= 0.00E+00
   3107 T=   258. E= -.93361511E+03 F= -.94012133E+03 E0= -.94012133E+03  EK= 0.65062E+01 SP= 0.00E+00 SK= 0.00E+00
   3108 T=   258. E= -.93361219E+03 F= -.94011409E+03 E0= -.94011409E+03  EK= 0.65019E+01 SP= 0.00E+00 SK= 0.00E+00
   3109 T=   257. E= -.93368621E+03 F= -.94017591E+03 E0= -.94017591E+03  EK= 0.64897E+01 SP= 0.00E+00 SK= 0.00E+00
   3110 T=   259. E= -.93374004E+03 F= -.94027661E+03 E0= -.94027661E+03  EK= 0.65366E+01 SP= 0.00E+00 SK= 0.00E+00
   3111 T=   264. E= -.93371112E+03 F= -.94036321E+03 E0= -.94036321E+03  EK= 0.66521E+01 SP= 0.00E+00 SK= 0.00E+00
   3112 T=   268. E= -.93363331E+03 F= -.94039754E+03 E0= -.94039754E+03  EK= 0.67642E+01 SP= 0.00E+00 SK= 0.00E+00
       N       E                     dE             d eps       ncg     rms          rms(c)
DAV:   1    -0.261740551398E+03    0.66740E+03   -0.56052E+04 16238   0.426E+02
DAV:   2    -0.923183734993E+03   -0.66144E+03   -0.64479E+03 18935   0.128E+02
DAV:   3    -0.944295491558E+03   -0.21112E+02   -0.21083E+02 19116   0.251E+01
DAV:   4    -0.944619021336E+03   -0.32353E+00   -0.32344E+00 19212   0.305E+00    0.376E+01
DAV:   5    -0.928467424977E+03    0.16152E+02   -0.38436E+01 19308   0.132E+01    0.204E+01
DAV:   6    -0.928407215486E+03    0.60209E-01   -0.18411E+01 18428   0.897E+00    0.782E+00
DAV:   7    -0.929197734130E+03   -0.79052E+00   -0.35234E+00 18516   0.441E+00    0.240E+00
DAV:   8    -0.929232375472E+03   -0.34641E-01   -0.39833E-01 19220   0.155E+00    0.114E+00
DAV:   9    -0.929231553930E+03    0.82154E-03   -0.13586E-01 18540   0.864E-01    0.470E-01
DAV:  10    -0.929226841625E+03    0.47123E-02   -0.21063E-02 20220   0.425E-01    0.218E-01
DAV:  11    -0.929225156112E+03    0.16855E-02   -0.13324E-02 18692   0.275E-01    0.133E-01
DAV:  12    -0.929223517074E+03    0.16390E-02   -0.15917E-03 21588   0.181E-01    0.560E-02
DAV:  13    -0.929222440081E+03    0.10770E-02   -0.14654E-03 17908   0.193E-01    0.593E-02
DAV:  14    -0.929222239570E+03    0.20051E-03   -0.12794E-03 19620   0.112E-01    0.421E-02
DAV:  15    -0.929222209228E+03    0.30342E-04   -0.39892E-04 17964   0.436E-02
   3113 T=   270. E= -.93350004E+03 F= -.94030998E+03 E0= -.94030998E+03  EK= 0.68099E+01 SP= 0.00E+00 SK= 0.00E+00
   3114 T=   274. E= -.93352648E+03 F= -.94042247E+03 E0= -.94042247E+03  EK= 0.68960E+01 SP= 0.00E+00 SK= 0.00E+00
   3115 T=   274. E= -.93349932E+03 F= -.94040707E+03 E0= -.94040707E+03  EK= 0.69078E+01 SP= 0.00E+00 SK= 0.00E+00
   3116 T=   272. E= -.93349055E+03 F= -.94034262E+03 E0= -.94034262E+03  EK= 0.68521E+01 SP= 0.00E+00 SK= 0.00E+00
   3117 T=   267. E= -.93355061E+03 F= -.94028267E+03 E0= -.94028267E+03  EK= 0.67321E+01 SP= 0.00E+00 SK= 0.00E+00
   3118 T=   265. E= -.93358614E+03 F= -.94025864E+03 E0= -.94025864E+03  EK= 0.66725E+01 SP= 0.00E+00 SK= 0.00E+00
   3119 T=   269. E= -.93351083E+03 F= -.94029188E+03 E0= -.94029188E+03  EK= 0.67810E+01 SP= 0.00E+00 SK= 0.00E+00
   3120 T=   273. E= -.93345893E+03 F= -.94034657E+03 E0= -.94034657E+03  EK= 0.68876E+01 SP= 0.00E+00 SK= 0.00E+00
   3121 T=   273. E= -.93344881E+03 F= -.94033563E+03 E0= -.94033563E+03  EK= 0.68868E+01 SP= 0.00E+00 SK= 0.00E+00
   3122 T=   270. E= -.93346605E+03 F= -.94027358E+03 E0= -.94027358E+03  EK= 0.68075E+01 SP= 0.00E+00 SK= 0.00E+00
   3123 T=   263. E= -.93351155E+03 F= -.94014177E+03 E0= -.94014177E+03  EK= 0.66302E+01 SP= 0.00E+00 SK= 0.00E+00
   3124 T=   255. E= -.93353612E+03 F= -.93997292E+03 E0= -.93997292E+03  EK= 0.64368E+01 SP= 0.00E+00 SK= 0.00E+00
   3125 T=   255. E= -.93343569E+03 F= -.93985847E+03 E0= -.93985847E+03  EK= 0.64228E+01 SP= 0.00E+00 SK= 0.00E+00
   3126 T=   255. E= -.93335551E+03 F= -.93977405E+03 E0= -.93977405E+03  EK= 0.64185E+01 SP= 0.00E+00 SK= 0.00E+00
   3127 T=   256. E= -.93333533E+03 F= -.93979019E+03 E0= -.93979019E+03  EK= 0.64549E+01 SP= 0.00E+00 SK= 0.00E+00
   3128 T=   260. E= -.93328911E+03 F= -.93983105E+03 E0= -.93983105E+03  EK= 0.65419E+01 SP= 0.00E+00 SK= 0.00E+00
   3129 T=   265. E= -.93324574E+03 F= -.93993638E+03 E0= -.93993638E+03  EK= 0.66906E+01 SP= 0.00E+00 SK= 0.00E+00
   3130 T=   276. E= -.93319860E+03 F= -.94015714E+03 E0= -.94015714E+03  EK= 0.69585E+01 SP= 0.00E+00 SK= 0.00E+00
   3131 T=   282. E= -.93317843E+03 F= -.94028294E+03 E0= -.94028294E+03  EK= 0.71045E+01 SP= 0.00E+00 SK= 0.00E+00
   3132 T=   278. E= -.93326469E+03 F= -.94026459E+03 E0= -.94026459E+03  EK= 0.69999E+01 SP= 0.00E+00 SK= 0.00E+00
   3133 T=   273. E= -.93323593E+03 F= -.94012145E+03 E0= -.94012145E+03  EK= 0.68855E+01 SP= 0.00E+00 SK= 0.00E+00
   3134 T=   268. E= -.93318619E+03 F= -.93994921E+03 E0= -.93994921E+03  EK= 0.67630E+01 SP= 0.00E+00 SK= 0.00E+00
   3135 T=   263. E= -.93324645E+03 F= -.93986354E+03 E0= -.93986354E+03  EK= 0.66171E+01 SP= 0.00E+00 SK= 0.00E+00
   3136 T=   263. E= -.93325044E+03 F= -.93988637E+03 E0= -.93988637E+03  EK= 0.66359E+01 SP= 0.00E+00 SK= 0.00E+00
   3137 T=   267. E= -.93324788E+03 F= -.93998014E+03 E0= -.93998014E+03  EK= 0.67323E+01 SP= 0.00E+00 SK= 0.00E+00
   3138 T=   270. E= -.93326512E+03 F= -.94007020E+03 E0= -.94007020E+03  EK= 0.68051E+01 SP= 0.00E+00 SK= 0.00E+00
   3139 T=   271. E= -.93332995E+03 F= -.94015020E+03 E0= -.94015020E+03  EK= 0.68202E+01 SP= 0.00E+00 SK= 0.00E+00
   3140 T=   266. E= -.93345324E+03 F= -.94015740E+03 E0= -.94015740E+03  EK= 0.67042E+01 SP= 0.00E+00 SK= 0.00E+00
   3141 T=   260. E= -.93351740E+03 F= -.94007482E+03 E0= -.94007482E+03  EK= 0.65574E+01 SP= 0.00E+00 SK= 0.00E+00
   3142 T=   257. E= -.93342973E+03 F= -.93989893E+03 E0= -.93989893E+03  EK= 0.64692E+01 SP= 0.00E+00 SK= 0.00E+00
   3143 T=   253. E= -.93337245E+03 F= -.93973796E+03 E0= -.93973796E+03  EK= 0.63655E+01 SP= 0.00E+00 SK= 0.00E+00
   3144 T=   253. E= -.93336545E+03 F= -.93974023E+03 E0= -.93974023E+03  EK= 0.63748E+01 SP= 0.00E+00 SK= 0.00E+00
   3145 T=   262. E= -.93335311E+03 F= -.93995373E+03 E0= -.93995373E+03  EK= 0.66006E+01 SP= 0.00E+00 SK= 0.00E+00
   3146 T=   275. E= -.93334504E+03 F= -.94026938E+03 E0= -.94026938E+03  EK= 0.69243E+01 SP= 0.00E+00 SK= 0.00E+00
   3147 T=   285. E= -.93324752E+03 F= -.94042618E+03 E0= -.94042618E+03  EK= 0.71787E+01 SP= 0.00E+00 SK= 0.00E+00
   3148 T=   286. E= -.93306952E+03 F= -.94028543E+03 E0= -.94028543E+03  EK= 0.72159E+01 SP= 0.00E+00 SK= 0.00E+00
   3149 T=   273. E= -.93306966E+03 F= -.93994765E+03 E0= -.93994765E+03  EK= 0.68780E+01 SP= 0.00E+00 SK= 0.00E+00
   3150 T=   259. E= -.93311848E+03 F= -.93965471E+03 E0= -.93965471E+03  EK= 0.65362E+01 SP= 0.00E+00 SK= 0.00E+00
   3151 T=   256. E= -.93309500E+03 F= -.93955746E+03 E0= -.93955746E+03  EK= 0.64625E+01 SP= 0.00E+00 SK= 0.00E+00
   3152 T=   258. E= -.93311342E+03 F= -.93961135E+03 E0= -.93961135E+03  EK= 0.64979E+01 SP= 0.00E+00 SK= 0.00E+00
   3153 T=   257. E= -.93322813E+03 F= -.93969633E+03 E0= -.93969633E+03  EK= 0.64682E+01 SP= 0.00E+00 SK= 0.00E+00
   3154 T=   252. E= -.93340481E+03 F= -.93976618E+03 E0= -.93976618E+03  EK= 0.63614E+01 SP= 0.00E+00 SK= 0.00E+00
   3155 T=   253. E= -.93348432E+03 F= -.93987262E+03 E0= -.93987262E+03  EK= 0.63883E+01 SP= 0.00E+00 SK= 0.00E+00
   3156 T=   260. E= -.93343710E+03 F= -.93998484E+03 E0= -.93998484E+03  EK= 0.65477E+01 SP= 0.00E+00 SK= 0.00E+00
   3157 T=   267. E= -.93333438E+03 F= -.94006384E+03 E0= -.94006384E+03  EK= 0.67295E+01 SP= 0.00E+00 SK= 0.00E+00
   3158 T=   265. E= -.93330933E+03 F= -.93999627E+03 E0= -.93999627E+03  EK= 0.66869E+01 SP= 0.00E+00 SK= 0.00E+00
   3159 T=   259. E= -.93327480E+03 F= -.93980826E+03 E0= -.93980826E+03  EK= 0.65335E+01 SP= 0.00E+00 SK= 0.00E+00
   3160 T=   252. E= -.93326935E+03 F= -.93962427E+03 E0= -.93962427E+03  EK= 0.63549E+01 SP= 0.00E+00 SK= 0.00E+00
   3161 T=   251. E= -.93327854E+03 F= -.93960084E+03 E0= -.93960084E+03  EK= 0.63223E+01 SP= 0.00E+00 SK= 0.00E+00
   3162 T=   258. E= -.93329219E+03 F= -.93979286E+03 E0= -.93979286E+03  EK= 0.65007E+01 SP= 0.00E+00 SK= 0.00E+00
   3163 T=   265. E= -.93338466E+03 F= -.94007423E+03 E0= -.94007423E+03  EK= 0.66896E+01 SP= 0.00E+00 SK= 0.00E+00
   3164 T=   274. E= -.93340234E+03 F= -.94031941E+03 E0= -.94031941E+03  EK= 0.69171E+01 SP= 0.00E+00 SK= 0.00E+00
   3165 T=   277. E= -.93339543E+03 F= -.94036621E+03 E0= -.94036621E+03  EK= 0.69708E+01 SP= 0.00E+00 SK= 0.00E+00
   3166 T=   272. E= -.93340340E+03 F= -.94025932E+03 E0= -.94025932E+03  EK= 0.68559E+01 SP= 0.00E+00 SK= 0.00E+00
   3167 T=   265. E= -.93336167E+03 F= -.94005335E+03 E0= -.94005335E+03  EK= 0.66917E+01 SP= 0.00E+00 SK= 0.00E+00
   3168 T=   260. E= -.93330457E+03 F= -.93986278E+03 E0= -.93986278E+03  EK= 0.65582E+01 SP= 0.00E+00 SK= 0.00E+00
       N       E                     dE             d eps       ncg     rms          rms(c)
DAV:   1    -0.742327366179E+03    0.18689E+03   -0.25744E+04 16238   0.300E+02
DAV:   2    -0.930865728498E+03   -0.18854E+03   -0.18822E+03 18660   0.720E+01
DAV:   3    -0.933755989696E+03   -0.28903E+01   -0.28896E+01 19460   0.994E+00
DAV:   4    -0.933808544769E+03   -0.52555E-01   -0.52551E-01 18900   0.131E+00    0.267E+01
DAV:   5    -0.928808845732E+03    0.49997E+01   -0.91833E+00 18316   0.699E+00    0.153E+01
DAV:   6    -0.928533200425E+03    0.27565E+00   -0.10837E+01 19508   0.724E+00    0.329E+00
DAV:   7    -0.928726924029E+03   -0.19372E+00   -0.18679E+00 18676   0.295E+00    0.168E+00
DAV:   8    -0.928722895896E+03    0.40281E-02   -0.14668E-01 18724   0.866E-01    0.767E-01
DAV:   9    -0.928719661379E+03    0.32345E-02   -0.41891E-02 18964   0.535E-01    0.318E-01
DAV:  10    -0.928717445088E+03    0.22163E-02   -0.94091E-03 20620   0.310E-01    0.112E-01
DAV:  11    -0.928716897524E+03    0.54756E-03   -0.45108E-03 19508   0.163E-01    0.858E-02
DAV:  12    -0.928716154916E+03    0.74261E-03   -0.71238E-04 18332   0.107E-01    0.365E-02
DAV:  13    -0.928715750464E+03    0.40445E-03   -0.46809E-04 17556   0.108E-01    0.478E-02
DAV:  14    -0.928715640708E+03    0.10976E-03   -0.59693E-04 18436   0.819E-02    0.221E-02
DAV:  15    -0.928715644913E+03   -0.42050E-05   -0.19354E-04 13836   0.292E-02
   3169 T=   263. E= -.93315722E+03 F= -.93978813E+03 E0= -.93978813E+03  EK= 0.66309E+01 SP= 0.00E+00 SK= 0.00E+00
   3170 T=   272. E= -.93307294E+03 F= -.93993288E+03 E0= -.93993288E+03  EK= 0.68599E+01 SP= 0.00E+00 SK= 0.00E+00
   3171 T=   280. E= -.93307229E+03 F= -.94012213E+03 E0= -.94012213E+03  EK= 0.70498E+01 SP= 0.00E+00 SK= 0.00E+00
   3172 T=   286. E= -.93306338E+03 F= -.94027743E+03 E0= -.94027743E+03  EK= 0.72140E+01 SP= 0.00E+00 SK= 0.00E+00
   3173 T=   289. E= -.93304248E+03 F= -.94032732E+03 E0= -.94032732E+03  EK= 0.72848E+01 SP= 0.00E+00 SK= 0.00E+00
   3174 T=   287. E= -.93304042E+03 F= -.94026257E+03 E0= -.94026257E+03  EK= 0.72221E+01 SP= 0.00E+00 SK= 0.00E+00
   3175 T=   279. E= -.93308060E+03 F= -.94010555E+03 E0= -.94010555E+03  EK= 0.70249E+01 SP= 0.00E+00 SK= 0.00E+00
   3176 T=   269. E= -.93314738E+03 F= -.93994030E+03 E0= -.93994030E+03  EK= 0.67929E+01 SP= 0.00E+00 SK= 0.00E+00
   3177 T=   273. E= -.93303578E+03 F= -.93991582E+03 E0= -.93991582E+03  EK= 0.68800E+01 SP= 0.00E+00 SK= 0.00E+00
   3178 T=   281. E= -.93299758E+03 F= -.94007647E+03 E0= -.94007647E+03  EK= 0.70789E+01 SP= 0.00E+00 SK= 0.00E+00
   3179 T=   286. E= -.93305258E+03 F= -.94024908E+03 E0= -.94024908E+03  EK= 0.71965E+01 SP= 0.00E+00 SK= 0.00E+00
   3180 T=   289. E= -.93301095E+03 F= -.94028676E+03 E0= -.94028676E+03  EK= 0.72758E+01 SP= 0.00E+00 SK= 0.00E+00
   3181 T=   283. E= -.93301007E+03 F= -.94014905E+03 E0= -.94014905E+03  EK= 0.71390E+01 SP= 0.00E+00 SK= 0.00E+00
   3182 T=   273. E= -.93303300E+03 F= -.93990922E+03 E0= -.93990922E+03  EK= 0.68762E+01 SP= 0.00E+00 SK= 0.00E+00
   3183 T=   266. E= -.93303079E+03 F= -.93972304E+03 E0= -.93972304E+03  EK= 0.66922E+01 SP= 0.00E+00 SK= 0.00E+00
   3184 T=   265. E= -.93301540E+03 F= -.93969038E+03 E0= -.93969038E+03  EK= 0.66750E+01 SP= 0.00E+00 SK= 0.00E+00
   3185 T=   272. E= -.93291744E+03 F= -.93978110E+03 E0= -.93978110E+03  EK= 0.68637E+01 SP= 0.00E+00 SK= 0.00E+00
   3186 T=   283. E= -.93272148E+03 F= -.93986262E+03 E0= -.93986262E+03  EK= 0.71411E+01 SP= 0.00E+00 SK= 0.00E+00
   3187 T=   286. E= -.93262062E+03 F= -.93982566E+03 E0= -.93982566E+03  EK= 0.72050E+01 SP= 0.00E+00 SK= 0.00E+00
   3188 T=   280. E= -.93263550E+03 F= -.93970186E+03 E0= -.93970186E+03  EK= 0.70664E+01 SP= 0.00E+00 SK= 0.00E+00
   3189 T=   277. E= -.93257294E+03 F= -.93956672E+03 E0= -.93956672E+03  EK= 0.69938E+01 SP= 0.00E+00 SK= 0.00E+00
   3190 T=   276. E= -.93252348E+03 F= -.93949231E+03 E0= -.93949231E+03  EK= 0.69688E+01 SP= 0.00E+00 SK= 0.00E+00
   3191 T=   272. E= -.93261913E+03 F= -.93948478E+03 E0= -.93948478E+03  EK= 0.68657E+01 SP= 0.00E+00 SK= 0.00E+00
   3192 T=   274. E= -.93262435E+03 F= -.93952774E+03 E0= -.93952774E+03  EK= 0.69034E+01 SP= 0.00E+00 SK= 0.00E+00
   3193 T=   279. E= -.93256978E+03 F= -.93959437E+03 E0= -.93959437E+03  EK= 0.70246E+01 SP= 0.00E+00 SK= 0.00E+00
   3194 T=   282. E= -.93251775E+03 F= -.93963170E+03 E0= -.93963170E+03  EK= 0.71140E+01 SP= 0.00E+00 SK= 0.00E+00
   3195 T=   284. E= -.93247005E+03 F= -.93962227E+03 E0= -.93962227E+03  EK= 0.71522E+01 SP= 0.00E+00 SK= 0.00E+00
   3196 T=   285. E= -.93239360E+03 F= -.93957578E+03 E0= -.93957578E+03  EK= 0.71822E+01 SP= 0.00E+00 SK= 0.00E+00
   3197 T=   288. E= -.93232009E+03 F= -.93957129E+03 E0= -.93957129E+03  EK= 0.72512E+01 SP= 0.00E+00 SK= 0.00E+00
   3198 T=   288. E= -.93236297E+03 F= -.93961211E+03 E0= -.93961211E+03  EK= 0.72491E+01 SP= 0.00E+00 SK= 0.00E+00
   3199 T=   288. E= -.93239605E+03 F= -.93965018E+03 E0= -.93965018E+03  EK= 0.72541E+01 SP= 0.00E+00 SK= 0.00E+00
   3200 T=   286. E= -.93242991E+03 F= -.93964733E+03 E0= -.93964733E+03  EK= 0.72174E+01 SP= 0.00E+00 SK= 0.00E+00
   3201 T=   281. E= -.93248260E+03 F= -.93956306E+03 E0= -.93956306E+03  EK= 0.70805E+01 SP= 0.00E+00 SK= 0.00E+00
   3202 T=   275. E= -.93252248E+03 F= -.93945902E+03 E0= -.93945902E+03  EK= 0.69365E+01 SP= 0.00E+00 SK= 0.00E+00
   3203 T=   271. E= -.93250554E+03 F= -.93934245E+03 E0= -.93934245E+03  EK= 0.68369E+01 SP= 0.00E+00 SK= 0.00E+00
   3204 T=   268. E= -.93251483E+03 F= -.93927539E+03 E0= -.93927539E+03  EK= 0.67606E+01 SP= 0.00E+00 SK= 0.00E+00
   3205 T=   264. E= -.93250818E+03 F= -.93916684E+03 E0= -.93916684E+03  EK= 0.66587E+01 SP= 0.00E+00 SK= 0.00E+00
   3206 T=   264. E= -.93245661E+03 F= -.93911794E+03 E0= -.93911794E+03  EK= 0.66613E+01 SP= 0.00E+00 SK= 0.00E+00
   3207 T=   266. E= -.93248104E+03 F= -.93919029E+03 E0= -.93919029E+03  EK= 0.67092E+01 SP= 0.00E+00 SK= 0.00E+00
   3208 T=   272. E= -.93245658E+03 F= -.93930569E+03 E0= -.93930569E+03  EK= 0.68491E+01 SP= 0.00E+00 SK= 0.00E+00
   3209 T=   275. E= -.93247751E+03 F= -.93940615E+03 E0= -.93940615E+03  EK= 0.69286E+01 SP= 0.00E+00 SK= 0.00E+00
   3210 T=   273. E= -.93255442E+03 F= -.93944526E+03 E0= -.93944526E+03  EK= 0.68908E+01 SP= 0.00E+00 SK= 0.00E+00
   3211 T=   271. E= -.93259686E+03 F= -.93941632E+03 E0= -.93941632E+03  EK= 0.68195E+01 SP= 0.00E+00 SK= 0.00E+00
   3212 T=   264. E= -.93272324E+03 F= -.93938138E+03 E0= -.93938138E+03  EK= 0.66581E+01 SP= 0.00E+00 SK= 0.00E+00
   3213 T=   262. E= -.93278795E+03 F= -.93938222E+03 E0= -.93938222E+03  EK= 0.65943E+01 SP= 0.00E+00 SK= 0.00E+00
   3214 T=   262. E= -.93279320E+03 F= -.93940085E+03 E0= -.93940085E+03  EK= 0.66076E+01 SP= 0.00E+00 SK= 0.00E+00
   3215 T=   262. E= -.93286056E+03 F= -.93947555E+03 E0= -.93947555E+03  EK= 0.66150E+01 SP= 0.00E+00 SK= 0.00E+00
   3216 T=   264. E= -.93290813E+03 F= -.93956451E+03 E0= -.93956451E+03  EK= 0.66564E+01 SP= 0.00E+00 SK= 0.00E+00
   3217 T=   271. E= -.93284632E+03 F= -.93968621E+03 E0= -.93968621E+03  EK= 0.68399E+01 SP= 0.00E+00 SK= 0.00E+00
   3218 T=   280. E= -.93274779E+03 F= -.93981326E+03 E0= -.93981326E+03  EK= 0.70655E+01 SP= 0.00E+00 SK= 0.00E+00
   3219 T=   284. E= -.93273858E+03 F= -.93989744E+03 E0= -.93989744E+03  EK= 0.71589E+01 SP= 0.00E+00 SK= 0.00E+00
   3220 T=   281. E= -.93283784E+03 F= -.93992013E+03 E0= -.93992013E+03  EK= 0.70823E+01 SP= 0.00E+00 SK= 0.00E+00
   3221 T=   278. E= -.93296781E+03 F= -.93997282E+03 E0= -.93997282E+03  EK= 0.70050E+01 SP= 0.00E+00 SK= 0.00E+00
   3222 T=   280. E= -.93298122E+03 F= -.94004622E+03 E0= -.94004622E+03  EK= 0.70650E+01 SP= 0.00E+00 SK= 0.00E+00
   3223 T=   284. E= -.93297572E+03 F= -.94013533E+03 E0= -.94013533E+03  EK= 0.71596E+01 SP= 0.00E+00 SK= 0.00E+00
   3224 T=   286. E= -.93298947E+03 F= -.94018677E+03 E0= -.94018677E+03  EK= 0.71973E+01 SP= 0.00E+00 SK= 0.00E+00
   3225 T=   285. E= -.93305254E+03 F= -.94024545E+03 E0= -.94024545E+03  EK= 0.71929E+01 SP= 0.00E+00 SK= 0.00E+00
   3226 T=   287. E= -.93310799E+03 F= -.94034853E+03 E0= -.94034853E+03  EK= 0.72405E+01 SP= 0.00E+00 SK= 0.00E+00
   3227 T=   291. E= -.93308434E+03 F= -.94042721E+03 E0= -.94042721E+03  EK= 0.73429E+01 SP= 0.00E+00 SK= 0.00E+00
   3228 T=   292. E= -.93314630E+03 F= -.94049539E+03 E0= -.94049539E+03  EK= 0.73491E+01 SP= 0.00E+00 SK= 0.00E+00
   3229 T=   285. E= -.93325987E+03 F= -.94044887E+03 E0= -.94044887E+03  EK= 0.71890E+01 SP= 0.00E+00 SK= 0.00E+00
   3230 T=   273. E= -.93342375E+03 F= -.94030461E+03 E0= -.94030461E+03  EK= 0.68809E+01 SP= 0.00E+00 SK= 0.00E+00
   3231 T=   264. E= -.93350563E+03 F= -.94015224E+03 E0= -.94015224E+03  EK= 0.66466E+01 SP= 0.00E+00 SK= 0.00E+00
   3232 T=   257. E= -.93358775E+03 F= -.94005364E+03 E0= -.94005364E+03  EK= 0.64659E+01 SP= 0.00E+00 SK= 0.00E+00
   3233 T=   253. E= -.93363282E+03 F= -.94000081E+03 E0= -.94000081E+03  EK= 0.63680E+01 SP= 0.00E+00 SK= 0.00E+00
   3234 T=   253. E= -.93360378E+03 F= -.93996969E+03 E0= -.93996969E+03  EK= 0.63659E+01 SP= 0.00E+00 SK= 0.00E+00
   3235 T=   249. E= -.93368249E+03 F= -.93995557E+03 E0= -.93995557E+03  EK= 0.62731E+01 SP= 0.00E+00 SK= 0.00E+00
   3236 T=   245. E= -.93374208E+03 F= -.93992622E+03 E0= -.93992622E+03  EK= 0.61841E+01 SP= 0.00E+00 SK= 0.00E+00
   3237 T=   243. E= -.93379439E+03 F= -.93992099E+03 E0= -.93992099E+03  EK= 0.61266E+01 SP= 0.00E+00 SK= 0.00E+00
   3238 T=   241. E= -.93376318E+03 F= -.93984630E+03 E0= -.93984630E+03  EK= 0.60831E+01 SP= 0.00E+00 SK= 0.00E+00
   3239 T=   238. E= -.93376935E+03 F= -.93976888E+03 E0= -.93976888E+03  EK= 0.59995E+01 SP= 0.00E+00 SK= 0.00E+00
   3240 T=   235. E= -.93381756E+03 F= -.93974371E+03 E0= -.93974371E+03  EK= 0.59262E+01 SP= 0.00E+00 SK= 0.00E+00
   3241 T=   242. E= -.93370539E+03 F= -.93980161E+03 E0= -.93980161E+03  EK= 0.60962E+01 SP= 0.00E+00 SK= 0.00E+00
   3242 T=   254. E= -.93356348E+03 F= -.93995701E+03 E0= -.93995701E+03  EK= 0.63935E+01 SP= 0.00E+00 SK= 0.00E+00
   3243 T=   261. E= -.93353739E+03 F= -.94012545E+03 E0= -.94012545E+03  EK= 0.65881E+01 SP= 0.00E+00 SK= 0.00E+00
   3244 T=   268. E= -.93355997E+03 F= -.94030259E+03 E0= -.94030259E+03  EK= 0.67426E+01 SP= 0.00E+00 SK= 0.00E+00
   3245 T=   278. E= -.93343179E+03 F= -.94042889E+03 E0= -.94042889E+03  EK= 0.69971E+01 SP= 0.00E+00 SK= 0.00E+00
   3246 T=   282. E= -.93338304E+03 F= -.94048902E+03 E0= -.94048902E+03  EK= 0.71060E+01 SP= 0.00E+00 SK= 0.00E+00
   3247 T=   279. E= -.93347298E+03 F= -.94051468E+03 E0= -.94051468E+03  EK= 0.70417E+01 SP= 0.00E+00 SK= 0.00E+00
   3248 T=   278. E= -.93347296E+03 F= -.94046931E+03 E0= -.94046931E+03  EK= 0.69964E+01 SP= 0.00E+00 SK= 0.00E+00
   3249 T=   275. E= -.93344499E+03 F= -.94038695E+03 E0= -.94038695E+03  EK= 0.69420E+01 SP= 0.00E+00 SK= 0.00E+00
   3250 T=   274. E= -.93340980E+03 F= -.94031941E+03 E0= -.94031941E+03  EK= 0.69096E+01 SP= 0.00E+00 SK= 0.00E+00
   3251 T=   273. E= -.93334276E+03 F= -.94023491E+03 E0= -.94023491E+03  EK= 0.68922E+01 SP= 0.00E+00 SK= 0.00E+00
   3252 T=   275. E= -.93325138E+03 F= -.94018055E+03 E0= -.94018055E+03  EK= 0.69292E+01 SP= 0.00E+00 SK= 0.00E+00
   3253 T=   278. E= -.93319823E+03 F= -.94021653E+03 E0= -.94021653E+03  EK= 0.70183E+01 SP= 0.00E+00 SK= 0.00E+00
   3254 T=   280. E= -.93318671E+03 F= -.94024201E+03 E0= -.94024201E+03  EK= 0.70553E+01 SP= 0.00E+00 SK= 0.00E+00
   3255 T=   279. E= -.93318992E+03 F= -.94021076E+03 E0= -.94021076E+03  EK= 0.70208E+01 SP= 0.00E+00 SK= 0.00E+00
   3256 T=   275. E= -.93316564E+03 F= -.94009948E+03 E0= -.94009948E+03  EK= 0.69338E+01 SP= 0.00E+00 SK= 0.00E+00
   3257 T=   271. E= -.93310408E+03 F= -.93994007E+03 E0= -.93994007E+03  EK= 0.68360E+01 SP= 0.00E+00 SK= 0.00E+00
   3258 T=   264. E= -.93313862E+03 F= -.93978053E+03 E0= -.93978053E+03  EK= 0.66419E+01 SP= 0.00E+00 SK= 0.00E+00
   3259 T=   262. E= -.93313045E+03 F= -.93972550E+03 E0= -.93972550E+03  EK= 0.65951E+01 SP= 0.00E+00 SK= 0.00E+00
   3260 T=   266. E= -.93309310E+03 F= -.93979660E+03 E0= -.93979660E+03  EK= 0.67035E+01 SP= 0.00E+00 SK= 0.00E+00
   3261 T=   269. E= -.93311901E+03 F= -.93989727E+03 E0= -.93989727E+03  EK= 0.67783E+01 SP= 0.00E+00 SK= 0.00E+00
   3262 T=   276. E= -.93305489E+03 F= -.94000633E+03 E0= -.94000633E+03  EK= 0.69514E+01 SP= 0.00E+00 SK= 0.00E+00
   3263 T=   280. E= -.93301352E+03 F= -.94007405E+03 E0= -.94007405E+03  EK= 0.70605E+01 SP= 0.00E+00 SK= 0.00E+00
   3264 T=   279. E= -.93301624E+03 F= -.94004882E+03 E0= -.94004882E+03  EK= 0.70326E+01 SP= 0.00E+00 SK= 0.00E+00
   3265 T=   276. E= -.93300028E+03 F= -.93995718E+03 E0= -.93995718E+03  EK= 0.69569E+01 SP= 0.00E+00 SK= 0.00E+00
   3266 T=   276. E= -.93285802E+03 F= -.93981789E+03 E0= -.93981789E+03  EK= 0.69599E+01 SP= 0.00E+00 SK= 0.00E+00
   3267 T=   271. E= -.93277369E+03 F= -.93959745E+03 E0= -.93959745E+03  EK= 0.68238E+01 SP= 0.00E+00 SK= 0.00E+00
   3268 T=   261. E= -.93286218E+03 F= -.93944383E+03 E0= -.93944383E+03  EK= 0.65816E+01 SP= 0.00E+00 SK= 0.00E+00
   3269 T=   256. E= -.93294318E+03 F= -.93939828E+03 E0= -.93939828E+03  EK= 0.64551E+01 SP= 0.00E+00 SK= 0.00E+00
   3270 T=   258. E= -.93303920E+03 F= -.93953944E+03 E0= -.93953944E+03  EK= 0.65002E+01 SP= 0.00E+00 SK= 0.00E+00
   3271 T=   262. E= -.93309847E+03 F= -.93970646E+03 E0= -.93970646E+03  EK= 0.66080E+01 SP= 0.00E+00 SK= 0.00E+00
   3272 T=   262. E= -.93318760E+03 F= -.93978961E+03 E0= -.93978961E+03  EK= 0.66020E+01 SP= 0.00E+00 SK= 0.00E+00
   3273 T=   260. E= -.93323484E+03 F= -.93977678E+03 E0= -.93977678E+03  EK= 0.65419E+01 SP= 0.00E+00 SK= 0.00E+00
   3274 T=   257. E= -.93317832E+03 F= -.93965940E+03 E0= -.93965940E+03  EK= 0.64811E+01 SP= 0.00E+00 SK= 0.00E+00
   3275 T=   256. E= -.93312382E+03 F= -.93958683E+03 E0= -.93958683E+03  EK= 0.64630E+01 SP= 0.00E+00 SK= 0.00E+00
   3276 T=   262. E= -.93302446E+03 F= -.93962060E+03 E0= -.93962060E+03  EK= 0.65961E+01 SP= 0.00E+00 SK= 0.00E+00
   3277 T=   271. E= -.93294915E+03 F= -.93977512E+03 E0= -.93977512E+03  EK= 0.68260E+01 SP= 0.00E+00 SK= 0.00E+00
   3278 T=   279. E= -.93293253E+03 F= -.93996400E+03 E0= -.93996400E+03  EK= 0.70315E+01 SP= 0.00E+00 SK= 0.00E+00
   3279 T=   283. E= -.93294917E+03 F= -.94009257E+03 E0= -.94009257E+03  EK= 0.71434E+01 SP= 0.00E+00 SK= 0.00E+00
   3280 T=   285. E= -.93296662E+03 F= -.94014365E+03 E0= -.94014365E+03  EK= 0.71770E+01 SP= 0.00E+00 SK= 0.00E+00
   3281 T=   279. E= -.93304155E+03 F= -.94006789E+03 E0= -.94006789E+03  EK= 0.70263E+01 SP= 0.00E+00 SK= 0.00E+00
   3282 T=   269. E= -.93315588E+03 F= -.93994714E+03 E0= -.93994714E+03  EK= 0.67913E+01 SP= 0.00E+00 SK= 0.00E+00
   3283 T=   263. E= -.93320443E+03 F= -.93982389E+03 E0= -.93982389E+03  EK= 0.66195E+01 SP= 0.00E+00 SK= 0.00E+00
   3284 T=   263. E= -.93313572E+03 F= -.93975404E+03 E0= -.93975404E+03  EK= 0.66183E+01 SP= 0.00E+00 SK= 0.00E+00
   3285 T=   269. E= -.93297373E+03 F= -.93975485E+03 E0= -.93975485E+03  EK= 0.67811E+01 SP= 0.00E+00 SK= 0.00E+00
   3286 T=   278. E= -.93277232E+03 F= -.93978235E+03 E0= -.93978235E+03  EK= 0.70100E+01 SP= 0.00E+00 SK= 0.00E+00
   3287 T=   282. E= -.93263830E+03 F= -.93975381E+03 E0= -.93975381E+03  EK= 0.71155E+01 SP= 0.00E+00 SK= 0.00E+00
   3288 T=   281. E= -.93261032E+03 F= -.93969707E+03 E0= -.93969707E+03  EK= 0.70868E+01 SP= 0.00E+00 SK= 0.00E+00
   3289 T=   281. E= -.93256121E+03 F= -.93963340E+03 E0= -.93963340E+03  EK= 0.70722E+01 SP= 0.00E+00 SK= 0.00E+00
   3290 T=   280. E= -.93256413E+03 F= -.93962646E+03 E0= -.93962646E+03  EK= 0.70623E+01 SP= 0.00E+00 SK= 0.00E+00
   3291 T=   280. E= -.93259286E+03 F= -.93964992E+03 E0= -.93964992E+03  EK= 0.70571E+01 SP= 0.00E+00 SK= 0.00E+00
   3292 T=   285. E= -.93255847E+03 F= -.93973601E+03 E0= -.93973601E+03  EK= 0.71775E+01 SP= 0.00E+00 SK= 0.00E+00
   3293 T=   287. E= -.93261787E+03 F= -.93984717E+03 E0= -.93984717E+03  EK= 0.72293E+01 SP= 0.00E+00 SK= 0.00E+00
   3294 T=   285. E= -.93276559E+03 F= -.93995699E+03 E0= -.93995699E+03  EK= 0.71914E+01 SP= 0.00E+00 SK= 0.00E+00
   3295 T=   284. E= -.93289518E+03 F= -.94004304E+03 E0= -.94004304E+03  EK= 0.71479E+01 SP= 0.00E+00 SK= 0.00E+00
   3296 T=   281. E= -.93295585E+03 F= -.94005066E+03 E0= -.94005066E+03  EK= 0.70948E+01 SP= 0.00E+00 SK= 0.00E+00
   3297 T=   277. E= -.93292331E+03 F= -.93990184E+03 E0= -.93990184E+03  EK= 0.69785E+01 SP= 0.00E+00 SK= 0.00E+00
   3298 T=   270. E= -.93287063E+03 F= -.93968011E+03 E0= -.93968011E+03  EK= 0.68095E+01 SP= 0.00E+00 SK= 0.00E+00
   3299 T=   269. E= -.93276294E+03 F= -.93953595E+03 E0= -.93953595E+03  EK= 0.67730E+01 SP= 0.00E+00 SK= 0.00E+00
   3300 T=   268. E= -.93277902E+03 F= -.93952508E+03 E0= -.93952508E+03  EK= 0.67461E+01 SP= 0.00E+00 SK= 0.00E+00
   3301 T=   270. E= -.93280569E+03 F= -.93961364E+03 E0= -.93961364E+03  EK= 0.68080E+01 SP= 0.00E+00 SK= 0.00E+00
   3302 T=   274. E= -.93270805E+03 F= -.93961555E+03 E0= -.93961555E+03  EK= 0.69075E+01 SP= 0.00E+00 SK= 0.00E+00
   3303 T=   269. E= -.93266851E+03 F= -.93945623E+03 E0= -.93945623E+03  EK= 0.67877E+01 SP= 0.00E+00 SK= 0.00E+00
   3304 T=   257. E= -.93271127E+03 F= -.93918421E+03 E0= -.93918421E+03  EK= 0.64729E+01 SP= 0.00E+00 SK= 0.00E+00
   3305 T=   245. E= -.93279517E+03 F= -.93898301E+03 E0= -.93898301E+03  EK= 0.61878E+01 SP= 0.00E+00 SK= 0.00E+00
   3306 T=   243. E= -.93283369E+03 F= -.93896181E+03 E0= -.93896181E+03  EK= 0.61281E+01 SP= 0.00E+00 SK= 0.00E+00
   3307 T=   245. E= -.93293321E+03 F= -.93911041E+03 E0= -.93911041E+03  EK= 0.61772E+01 SP= 0.00E+00 SK= 0.00E+00
   3308 T=   247. E= -.93304445E+03 F= -.93927012E+03 E0= -.93927012E+03  EK= 0.62257E+01 SP= 0.00E+00 SK= 0.00E+00
   3309 T=   252. E= -.93306049E+03 F= -.93940583E+03 E0= -.93940583E+03  EK= 0.63453E+01 SP= 0.00E+00 SK= 0.00E+00
   3310 T=   255. E= -.93303434E+03 F= -.93947123E+03 E0= -.93947123E+03  EK= 0.64369E+01 SP= 0.00E+00 SK= 0.00E+00
   3311 T=   256. E= -.93302231E+03 F= -.93947686E+03 E0= -.93947686E+03  EK= 0.64545E+01 SP= 0.00E+00 SK= 0.00E+00
   3312 T=   252. E= -.93309513E+03 F= -.93945883E+03 E0= -.93945883E+03  EK= 0.63637E+01 SP= 0.00E+00 SK= 0.00E+00
   3313 T=   250. E= -.93316675E+03 F= -.93945982E+03 E0= -.93945982E+03  EK= 0.62931E+01 SP= 0.00E+00 SK= 0.00E+00
   3314 T=   253. E= -.93319308E+03 F= -.93956372E+03 E0= -.93956372E+03  EK= 0.63706E+01 SP= 0.00E+00 SK= 0.00E+00
   3315 T=   263. E= -.93318774E+03 F= -.93980511E+03 E0= -.93980511E+03  EK= 0.66174E+01 SP= 0.00E+00 SK= 0.00E+00
   3316 T=   277. E= -.93317237E+03 F= -.94014350E+03 E0= -.94014350E+03  EK= 0.69711E+01 SP= 0.00E+00 SK= 0.00E+00
   3317 T=   284. E= -.93321934E+03 F= -.94038944E+03 E0= -.94038944E+03  EK= 0.71701E+01 SP= 0.00E+00 SK= 0.00E+00
   3318 T=   285. E= -.93327620E+03 F= -.94045444E+03 E0= -.94045444E+03  EK= 0.71782E+01 SP= 0.00E+00 SK= 0.00E+00
   3319 T=   280. E= -.93326733E+03 F= -.94032383E+03 E0= -.94032383E+03  EK= 0.70565E+01 SP= 0.00E+00 SK= 0.00E+00
   3320 T=   268. E= -.93332719E+03 F= -.94008135E+03 E0= -.94008135E+03  EK= 0.67542E+01 SP= 0.00E+00 SK= 0.00E+00
   3321 T=   256. E= -.93345982E+03 F= -.93991858E+03 E0= -.93991858E+03  EK= 0.64588E+01 SP= 0.00E+00 SK= 0.00E+00
   3322 T=   254. E= -.93353575E+03 F= -.93993511E+03 E0= -.93993511E+03  EK= 0.63994E+01 SP= 0.00E+00 SK= 0.00E+00
   3323 T=   258. E= -.93358781E+03 F= -.94008433E+03 E0= -.94008433E+03  EK= 0.64965E+01 SP= 0.00E+00 SK= 0.00E+00
   3324 T=   266. E= -.93360003E+03 F= -.94029757E+03 E0= -.94029757E+03  EK= 0.66975E+01 SP= 0.00E+00 SK= 0.00E+00
   3325 T=   272. E= -.93357463E+03 F= -.94043816E+03 E0= -.94043816E+03  EK= 0.68635E+01 SP= 0.00E+00 SK= 0.00E+00
   3326 T=   275. E= -.93353466E+03 F= -.94045402E+03 E0= -.94045402E+03  EK= 0.69194E+01 SP= 0.00E+00 SK= 0.00E+00
   3327 T=   274. E= -.93347236E+03 F= -.94038334E+03 E0= -.94038334E+03  EK= 0.69110E+01 SP= 0.00E+00 SK= 0.00E+00
   3328 T=   274. E= -.93335178E+03 F= -.94026111E+03 E0= -.94026111E+03  EK= 0.69093E+01 SP= 0.00E+00 SK= 0.00E+00
   3329 T=   271. E= -.93328106E+03 F= -.94010010E+03 E0= -.94010010E+03  EK= 0.68190E+01 SP= 0.00E+00 SK= 0.00E+00
   3330 T=   265. E= -.93331642E+03 F= -.93998342E+03 E0= -.93998342E+03  EK= 0.66670E+01 SP= 0.00E+00 SK= 0.00E+00
   3331 T=   261. E= -.93337965E+03 F= -.93996190E+03 E0= -.93996190E+03  EK= 0.65822E+01 SP= 0.00E+00 SK= 0.00E+00
   3332 T=   266. E= -.93337432E+03 F= -.94007136E+03 E0= -.94007136E+03  EK= 0.66970E+01 SP= 0.00E+00 SK= 0.00E+00
   3333 T=   275. E= -.93327814E+03 F= -.94020826E+03 E0= -.94020826E+03  EK= 0.69301E+01 SP= 0.00E+00 SK= 0.00E+00
   3334 T=   280. E= -.93319497E+03 F= -.94024223E+03 E0= -.94024223E+03  EK= 0.70473E+01 SP= 0.00E+00 SK= 0.00E+00
   3335 T=   275. E= -.93319154E+03 F= -.94011058E+03 E0= -.94011058E+03  EK= 0.69190E+01 SP= 0.00E+00 SK= 0.00E+00
   3336 T=   263. E= -.93328317E+03 F= -.93991017E+03 E0= -.93991017E+03  EK= 0.66270E+01 SP= 0.00E+00 SK= 0.00E+00
   3337 T=   253. E= -.93336476E+03 F= -.93974960E+03 E0= -.93974960E+03  EK= 0.63848E+01 SP= 0.00E+00 SK= 0.00E+00
   3338 T=   252. E= -.93336579E+03 F= -.93971622E+03 E0= -.93971622E+03  EK= 0.63504E+01 SP= 0.00E+00 SK= 0.00E+00
   3339 T=   260. E= -.93327789E+03 F= -.93983602E+03 E0= -.93983602E+03  EK= 0.65581E+01 SP= 0.00E+00 SK= 0.00E+00
   3340 T=   272. E= -.93315916E+03 F= -.94001725E+03 E0= -.94001725E+03  EK= 0.68581E+01 SP= 0.00E+00 SK= 0.00E+00
   3341 T=   283. E= -.93301847E+03 F= -.94014095E+03 E0= -.94014095E+03  EK= 0.71225E+01 SP= 0.00E+00 SK= 0.00E+00
   3342 T=   286. E= -.93290916E+03 F= -.94012989E+03 E0= -.94012989E+03  EK= 0.72207E+01 SP= 0.00E+00 SK= 0.00E+00
   3343 T=   286. E= -.93282010E+03 F= -.94002984E+03 E0= -.94002984E+03  EK= 0.72097E+01 SP= 0.00E+00 SK= 0.00E+00
   3344 T=   284. E= -.93274755E+03 F= -.93989775E+03 E0= -.93989775E+03  EK= 0.71502E+01 SP= 0.00E+00 SK= 0.00E+00
   3345 T=   280. E= -.93273997E+03 F= -.93980454E+03 E0= -.93980454E+03  EK= 0.70646E+01 SP= 0.00E+00 SK= 0.00E+00
   3346 T=   283. E= -.93273478E+03 F= -.93985637E+03 E0= -.93985637E+03  EK= 0.71216E+01 SP= 0.00E+00 SK= 0.00E+00
   3347 T=   289. E= -.93270908E+03 F= -.93998486E+03 E0= -.93998486E+03  EK= 0.72758E+01 SP= 0.00E+00 SK= 0.00E+00
   3348 T=   289. E= -.93279599E+03 F= -.94008312E+03 E0= -.94008312E+03  EK= 0.72871E+01 SP= 0.00E+00 SK= 0.00E+00
   3349 T=   286. E= -.93283989E+03 F= -.94005072E+03 E0= -.94005072E+03  EK= 0.72108E+01 SP= 0.00E+00 SK= 0.00E+00
   3350 T=   283. E= -.93273080E+03 F= -.93987449E+03 E0= -.93987449E+03  EK= 0.71437E+01 SP= 0.00E+00 SK= 0.00E+00
   3351 T=   278. E= -.93267715E+03 F= -.93967353E+03 E0= -.93967353E+03  EK= 0.69964E+01 SP= 0.00E+00 SK= 0.00E+00
   3352 T=   274. E= -.93266265E+03 F= -.93955822E+03 E0= -.93955822E+03  EK= 0.68956E+01 SP= 0.00E+00 SK= 0.00E+00
   3353 T=   276. E= -.93267989E+03 F= -.93963663E+03 E0= -.93963663E+03  EK= 0.69567E+01 SP= 0.00E+00 SK= 0.00E+00
   3354 T=   279. E= -.93278005E+03 F= -.93979991E+03 E0= -.93979991E+03  EK= 0.70199E+01 SP= 0.00E+00 SK= 0.00E+00
   3355 T=   280. E= -.93287928E+03 F= -.93994287E+03 E0= -.93994287E+03  EK= 0.70636E+01 SP= 0.00E+00 SK= 0.00E+00
   3356 T=   280. E= -.93291340E+03 F= -.93996230E+03 E0= -.93996230E+03  EK= 0.70489E+01 SP= 0.00E+00 SK= 0.00E+00
   3357 T=   281. E= -.93282948E+03 F= -.93990797E+03 E0= -.93990797E+03  EK= 0.70785E+01 SP= 0.00E+00 SK= 0.00E+00
   3358 T=   277. E= -.93280360E+03 F= -.93978216E+03 E0= -.93978216E+03  EK= 0.69786E+01 SP= 0.00E+00 SK= 0.00E+00
   3359 T=   274. E= -.93272512E+03 F= -.93964395E+03 E0= -.93964395E+03  EK= 0.69188E+01 SP= 0.00E+00 SK= 0.00E+00
   3360 T=   273. E= -.93263223E+03 F= -.93951134E+03 E0= -.93951134E+03  EK= 0.68791E+01 SP= 0.00E+00 SK= 0.00E+00
   3361 T=   263. E= -.93279349E+03 F= -.93942038E+03 E0= -.93942038E+03  EK= 0.66269E+01 SP= 0.00E+00 SK= 0.00E+00
   3362 T=   258. E= -.93289275E+03 F= -.93940123E+03 E0= -.93940123E+03  EK= 0.65085E+01 SP= 0.00E+00 SK= 0.00E+00
   3363 T=   259. E= -.93292191E+03 F= -.93945591E+03 E0= -.93945591E+03  EK= 0.65340E+01 SP= 0.00E+00 SK= 0.00E+00
   3364 T=   260. E= -.93299493E+03 F= -.93955720E+03 E0= -.93955720E+03  EK= 0.65623E+01 SP= 0.00E+00 SK= 0.00E+00
   3365 T=   261. E= -.93304923E+03 F= -.93963790E+03 E0= -.93963790E+03  EK= 0.65887E+01 SP= 0.00E+00 SK= 0.00E+00
   3366 T=   260. E= -.93309352E+03 F= -.93964744E+03 E0= -.93964744E+03  EK= 0.65539E+01 SP= 0.00E+00 SK= 0.00E+00
   3367 T=   262. E= -.93299755E+03 F= -.93960331E+03 E0= -.93960331E+03  EK= 0.66058E+01 SP= 0.00E+00 SK= 0.00E+00
   3368 T=   260. E= -.93300606E+03 F= -.93955096E+03 E0= -.93955096E+03  EK= 0.65449E+01 SP= 0.00E+00 SK= 0.00E+00
   3369 T=   252. E= -.93315381E+03 F= -.93950579E+03 E0= -.93950579E+03  EK= 0.63520E+01 SP= 0.00E+00 SK= 0.00E+00
   3370 T=   254. E= -.93320655E+03 F= -.93961145E+03 E0= -.93961145E+03  EK= 0.64049E+01 SP= 0.00E+00 SK= 0.00E+00
   3371 T=   261. E= -.93326585E+03 F= -.93983429E+03 E0= -.93983429E+03  EK= 0.65684E+01 SP= 0.00E+00 SK= 0.00E+00
   3372 T=   269. E= -.93332723E+03 F= -.94011181E+03 E0= -.94011181E+03  EK= 0.67846E+01 SP= 0.00E+00 SK= 0.00E+00
   3373 T=   273. E= -.93338464E+03 F= -.94026538E+03 E0= -.94026538E+03  EK= 0.68807E+01 SP= 0.00E+00 SK= 0.00E+00
   3374 T=   270. E= -.93340692E+03 F= -.94020378E+03 E0= -.94020378E+03  EK= 0.67969E+01 SP= 0.00E+00 SK= 0.00E+00
   3375 T=   260. E= -.93343628E+03 F= -.93999339E+03 E0= -.93999339E+03  EK= 0.65571E+01 SP= 0.00E+00 SK= 0.00E+00
   3376 T=   248. E= -.93350439E+03 F= -.93976241E+03 E0= -.93976241E+03  EK= 0.62580E+01 SP= 0.00E+00 SK= 0.00E+00
   3377 T=   246. E= -.93344972E+03 F= -.93964729E+03 E0= -.93964729E+03  EK= 0.61976E+01 SP= 0.00E+00 SK= 0.00E+00
   3378 T=   251. E= -.93338969E+03 F= -.93971926E+03 E0= -.93971926E+03  EK= 0.63296E+01 SP= 0.00E+00 SK= 0.00E+00
   3379 T=   257. E= -.93343127E+03 F= -.93990845E+03 E0= -.93990845E+03  EK= 0.64772E+01 SP= 0.00E+00 SK= 0.00E+00
   3380 T=   265. E= -.93339993E+03 F= -.94008601E+03 E0= -.94008601E+03  EK= 0.66861E+01 SP= 0.00E+00 SK= 0.00E+00
   3381 T=   268. E= -.93337201E+03 F= -.94011686E+03 E0= -.94011686E+03  EK= 0.67448E+01 SP= 0.00E+00 SK= 0.00E+00
   3382 T=   263. E= -.93340309E+03 F= -.94002472E+03 E0= -.94002472E+03  EK= 0.66216E+01 SP= 0.00E+00 SK= 0.00E+00
   3383 T=   252. E= -.93348588E+03 F= -.93984620E+03 E0= -.93984620E+03  EK= 0.63603E+01 SP= 0.00E+00 SK= 0.00E+00
   3384 T=   242. E= -.93357524E+03 F= -.93967539E+03 E0= -.93967539E+03  EK= 0.61002E+01 SP= 0.00E+00 SK= 0.00E+00
   3385 T=   240. E= -.93358266E+03 F= -.93962858E+03 E0= -.93962858E+03  EK= 0.60459E+01 SP= 0.00E+00 SK= 0.00E+00
   3386 T=   243. E= -.93360515E+03 F= -.93972477E+03 E0= -.93972477E+03  EK= 0.61196E+01 SP= 0.00E+00 SK= 0.00E+00
   3387 T=   248. E= -.93368290E+03 F= -.93992184E+03 E0= -.93992184E+03  EK= 0.62389E+01 SP= 0.00E+00 SK= 0.00E+00
   3388 T=   255. E= -.93371921E+03 F= -.94014591E+03 E0= -.94014591E+03  EK= 0.64267E+01 SP= 0.00E+00 SK= 0.00E+00
   3389 T=   263. E= -.93370703E+03 F= -.94032952E+03 E0= -.94032952E+03  EK= 0.66225E+01 SP= 0.00E+00 SK= 0.00E+00
   3390 T=   264. E= -.93370759E+03 F= -.94036505E+03 E0= -.94036505E+03  EK= 0.66575E+01 SP= 0.00E+00 SK= 0.00E+00
   3391 T=   261. E= -.93371106E+03 F= -.94029385E+03 E0= -.94029385E+03  EK= 0.65828E+01 SP= 0.00E+00 SK= 0.00E+00
   3392 T=   262. E= -.93365207E+03 F= -.94024794E+03 E0= -.94024794E+03  EK= 0.65959E+01 SP= 0.00E+00 SK= 0.00E+00
   3393 T=   266. E= -.93366893E+03 F= -.94037046E+03 E0= -.94037046E+03  EK= 0.67015E+01 SP= 0.00E+00 SK= 0.00E+00
   3394 T=   271. E= -.93380777E+03 F= -.94064504E+03 E0= -.94064504E+03  EK= 0.68373E+01 SP= 0.00E+00 SK= 0.00E+00
   3395 T=   281. E= -.93383505E+03 F= -.94092682E+03 E0= -.94092682E+03  EK= 0.70918E+01 SP= 0.00E+00 SK= 0.00E+00
   3396 T=   287. E= -.93379474E+03 F= -.94102222E+03 E0= -.94102222E+03  EK= 0.72275E+01 SP= 0.00E+00 SK= 0.00E+00
   3397 T=   280. E= -.93381967E+03 F= -.94088789E+03 E0= -.94088789E+03  EK= 0.70682E+01 SP= 0.00E+00 SK= 0.00E+00
   3398 T=   271. E= -.93380024E+03 F= -.94062247E+03 E0= -.94062247E+03  EK= 0.68222E+01 SP= 0.00E+00 SK= 0.00E+00
   3399 T=   263. E= -.93375000E+03 F= -.94037379E+03 E0= -.94037379E+03  EK= 0.66238E+01 SP= 0.00E+00 SK= 0.00E+00
   3400 T=   258. E= -.93374493E+03 F= -.94024921E+03 E0= -.94024921E+03  EK= 0.65043E+01 SP= 0.00E+00 SK= 0.00E+00
   3401 T=   258. E= -.93377158E+03 F= -.94027094E+03 E0= -.94027094E+03  EK= 0.64994E+01 SP= 0.00E+00 SK= 0.00E+00
   3402 T=   262. E= -.93379672E+03 F= -.94039625E+03 E0= -.94039625E+03  EK= 0.65995E+01 SP= 0.00E+00 SK= 0.00E+00
   3403 T=   268. E= -.93375759E+03 F= -.94051386E+03 E0= -.94051386E+03  EK= 0.67563E+01 SP= 0.00E+00 SK= 0.00E+00
   3404 T=   272. E= -.93367204E+03 F= -.94053803E+03 E0= -.94053803E+03  EK= 0.68660E+01 SP= 0.00E+00 SK= 0.00E+00
   3405 T=   267. E= -.93368266E+03 F= -.94041997E+03 E0= -.94041997E+03  EK= 0.67373E+01 SP= 0.00E+00 SK= 0.00E+00
   3406 T=   256. E= -.93378107E+03 F= -.94022399E+03 E0= -.94022399E+03  EK= 0.64429E+01 SP= 0.00E+00 SK= 0.00E+00
   3407 T=   245. E= -.93383938E+03 F= -.94001837E+03 E0= -.94001837E+03  EK= 0.61790E+01 SP= 0.00E+00 SK= 0.00E+00
   3408 T=   242. E= -.93378737E+03 F= -.93987870E+03 E0= -.93987870E+03  EK= 0.60913E+01 SP= 0.00E+00 SK= 0.00E+00
   3409 T=   245. E= -.93373994E+03 F= -.93990357E+03 E0= -.93990357E+03  EK= 0.61636E+01 SP= 0.00E+00 SK= 0.00E+00
   3410 T=   252. E= -.93369710E+03 F= -.94006056E+03 E0= -.94006056E+03  EK= 0.63635E+01 SP= 0.00E+00 SK= 0.00E+00
   3411 T=   258. E= -.93364908E+03 F= -.94015557E+03 E0= -.94015557E+03  EK= 0.65065E+01 SP= 0.00E+00 SK= 0.00E+00
   3412 T=   258. E= -.93363324E+03 F= -.94013194E+03 E0= -.94013194E+03  EK= 0.64987E+01 SP= 0.00E+00 SK= 0.00E+00
   3413 T=   250. E= -.93365525E+03 F= -.93996004E+03 E0= -.93996004E+03  EK= 0.63048E+01 SP= 0.00E+00 SK= 0.00E+00
   3414 T=   240. E= -.93367688E+03 F= -.93973542E+03 E0= -.93973542E+03  EK= 0.60585E+01 SP= 0.00E+00 SK= 0.00E+00
   3415 T=   233. E= -.93368457E+03 F= -.93955601E+03 E0= -.93955601E+03  EK= 0.58714E+01 SP= 0.00E+00 SK= 0.00E+00
   3416 T=   232. E= -.93362525E+03 F= -.93947061E+03 E0= -.93947061E+03  EK= 0.58454E+01 SP= 0.00E+00 SK= 0.00E+00
   3417 T=   234. E= -.93356660E+03 F= -.93947030E+03 E0= -.93947030E+03  EK= 0.59037E+01 SP= 0.00E+00 SK= 0.00E+00
   3418 T=   233. E= -.93359256E+03 F= -.93947072E+03 E0= -.93947072E+03  EK= 0.58782E+01 SP= 0.00E+00 SK= 0.00E+00
   3419 T=   234. E= -.93359411E+03 F= -.93948367E+03 E0= -.93948367E+03  EK= 0.58896E+01 SP= 0.00E+00 SK= 0.00E+00
   3420 T=   234. E= -.93358516E+03 F= -.93948054E+03 E0= -.93948054E+03  EK= 0.58954E+01 SP= 0.00E+00 SK= 0.00E+00
       N       E                     dE             d eps       ncg     rms          rms(c)
DAV:   1    -0.162346025624E+03    0.76637E+03   -0.60133E+04 16422   0.437E+02
DAV:   2    -0.921045344763E+03   -0.75870E+03   -0.74219E+03 18606   0.136E+02
DAV:   3    -0.947157095529E+03   -0.26112E+02   -0.26064E+02 19052   0.287E+01
DAV:   4    -0.947552967122E+03   -0.39587E+00   -0.39571E+00 19356   0.336E+00    0.396E+01
DAV:   5    -0.926990859198E+03    0.20562E+02   -0.51689E+01 19364   0.155E+01    0.210E+01
DAV:   6    -0.927182291226E+03   -0.19143E+00   -0.20074E+01 18412   0.918E+00    0.897E+00
DAV:   7    -0.928279969356E+03   -0.10977E+01   -0.42928E+00 18492   0.516E+00    0.263E+00
DAV:   8    -0.928338066297E+03   -0.58097E-01   -0.56392E-01 19044   0.195E+00    0.131E+00
DAV:   9    -0.928355717508E+03   -0.17651E-01   -0.24762E-01 18764   0.107E+00    0.725E-01
DAV:  10    -0.928347198544E+03    0.85190E-02   -0.34749E-02 23036   0.552E-01    0.251E-01
DAV:  11    -0.928346220162E+03    0.97838E-03   -0.18046E-02 18852   0.304E-01    0.145E-01
DAV:  12    -0.928345109889E+03    0.11103E-02   -0.18369E-03 20100   0.140E-01    0.615E-02
DAV:  13    -0.928344441334E+03    0.66855E-03   -0.11353E-03 17940   0.122E-01    0.405E-02
DAV:  14    -0.928344259784E+03    0.18155E-03   -0.54182E-04 19364   0.788E-02    0.370E-02
DAV:  15    -0.928344225436E+03    0.34348E-04   -0.21082E-04 15548   0.329E-02
   3421 T=   232. E= -.93360977E+03 F= -.93945428E+03 E0= -.93945428E+03  EK= 0.58445E+01 SP= 0.00E+00 SK= 0.00E+00
   3422 T=   232. E= -.93367346E+03 F= -.93952919E+03 E0= -.93952919E+03  EK= 0.58557E+01 SP= 0.00E+00 SK= 0.00E+00
   3423 T=   235. E= -.93367922E+03 F= -.93961508E+03 E0= -.93961508E+03  EK= 0.59359E+01 SP= 0.00E+00 SK= 0.00E+00
   3424 T=   236. E= -.93377339E+03 F= -.93972864E+03 E0= -.93972864E+03  EK= 0.59552E+01 SP= 0.00E+00 SK= 0.00E+00
   3425 T=   241. E= -.93380870E+03 F= -.93988074E+03 E0= -.93988074E+03  EK= 0.60720E+01 SP= 0.00E+00 SK= 0.00E+00
   3426 T=   253. E= -.93365320E+03 F= -.94002634E+03 E0= -.94002634E+03  EK= 0.63731E+01 SP= 0.00E+00 SK= 0.00E+00
   3427 T=   257. E= -.93361582E+03 F= -.94008290E+03 E0= -.94008290E+03  EK= 0.64671E+01 SP= 0.00E+00 SK= 0.00E+00
   3428 T=   253. E= -.93366718E+03 F= -.94005225E+03 E0= -.94005225E+03  EK= 0.63851E+01 SP= 0.00E+00 SK= 0.00E+00
   3429 T=   255. E= -.93357479E+03 F= -.94000431E+03 E0= -.94000431E+03  EK= 0.64295E+01 SP= 0.00E+00 SK= 0.00E+00
   3430 T=   258. E= -.93351142E+03 F= -.94002136E+03 E0= -.94002136E+03  EK= 0.65099E+01 SP= 0.00E+00 SK= 0.00E+00
   3431 T=   260. E= -.93354508E+03 F= -.94008828E+03 E0= -.94008828E+03  EK= 0.65432E+01 SP= 0.00E+00 SK= 0.00E+00
   3432 T=   260. E= -.93359670E+03 F= -.94014801E+03 E0= -.94014801E+03  EK= 0.65513E+01 SP= 0.00E+00 SK= 0.00E+00
   3433 T=   259. E= -.93358792E+03 F= -.94011743E+03 E0= -.94011743E+03  EK= 0.65295E+01 SP= 0.00E+00 SK= 0.00E+00
   3434 T=   256. E= -.93354727E+03 F= -.94000996E+03 E0= -.94000996E+03  EK= 0.64627E+01 SP= 0.00E+00 SK= 0.00E+00
   3435 T=   253. E= -.93352617E+03 F= -.93989968E+03 E0= -.93989968E+03  EK= 0.63735E+01 SP= 0.00E+00 SK= 0.00E+00
   3436 T=   253. E= -.93347061E+03 F= -.93983735E+03 E0= -.93983735E+03  EK= 0.63667E+01 SP= 0.00E+00 SK= 0.00E+00
   3437 T=   253. E= -.93345446E+03 F= -.93982506E+03 E0= -.93982506E+03  EK= 0.63706E+01 SP= 0.00E+00 SK= 0.00E+00
   3438 T=   254. E= -.93345356E+03 F= -.93985763E+03 E0= -.93985763E+03  EK= 0.64041E+01 SP= 0.00E+00 SK= 0.00E+00
   3439 T=   260. E= -.93341763E+03 F= -.93997981E+03 E0= -.93997981E+03  EK= 0.65622E+01 SP= 0.00E+00 SK= 0.00E+00
   3440 T=   266. E= -.93343461E+03 F= -.94013477E+03 E0= -.94013477E+03  EK= 0.67002E+01 SP= 0.00E+00 SK= 0.00E+00
   3441 T=   270. E= -.93344421E+03 F= -.94026116E+03 E0= -.94026116E+03  EK= 0.68170E+01 SP= 0.00E+00 SK= 0.00E+00
   3442 T=   271. E= -.93349060E+03 F= -.94031607E+03 E0= -.94031607E+03  EK= 0.68255E+01 SP= 0.00E+00 SK= 0.00E+00
   3443 T=   268. E= -.93353570E+03 F= -.94029138E+03 E0= -.94029138E+03  EK= 0.67557E+01 SP= 0.00E+00 SK= 0.00E+00
   3444 T=   265. E= -.93356277E+03 F= -.94025061E+03 E0= -.94025061E+03  EK= 0.66878E+01 SP= 0.00E+00 SK= 0.00E+00
   3445 T=   263. E= -.93365165E+03 F= -.94028962E+03 E0= -.94028962E+03  EK= 0.66380E+01 SP= 0.00E+00 SK= 0.00E+00
   3446 T=   266. E= -.93366971E+03 F= -.94036805E+03 E0= -.94036805E+03  EK= 0.66983E+01 SP= 0.00E+00 SK= 0.00E+00
   3447 T=   269. E= -.93367585E+03 F= -.94046382E+03 E0= -.94046382E+03  EK= 0.67880E+01 SP= 0.00E+00 SK= 0.00E+00
   3448 T=   269. E= -.93366999E+03 F= -.94044624E+03 E0= -.94044624E+03  EK= 0.67762E+01 SP= 0.00E+00 SK= 0.00E+00
   3449 T=   267. E= -.93361853E+03 F= -.94033922E+03 E0= -.94033922E+03  EK= 0.67207E+01 SP= 0.00E+00 SK= 0.00E+00
   3450 T=   262. E= -.93359036E+03 F= -.94019770E+03 E0= -.94019770E+03  EK= 0.66073E+01 SP= 0.00E+00 SK= 0.00E+00
   3451 T=   249. E= -.93374758E+03 F= -.94003360E+03 E0= -.94003360E+03  EK= 0.62860E+01 SP= 0.00E+00 SK= 0.00E+00
   3452 T=   241. E= -.93386532E+03 F= -.93993714E+03 E0= -.93993714E+03  EK= 0.60718E+01 SP= 0.00E+00 SK= 0.00E+00
   3453 T=   242. E= -.93382576E+03 F= -.93992359E+03 E0= -.93992359E+03  EK= 0.60978E+01 SP= 0.00E+00 SK= 0.00E+00
   3454 T=   244. E= -.93380934E+03 F= -.93995182E+03 E0= -.93995182E+03  EK= 0.61425E+01 SP= 0.00E+00 SK= 0.00E+00
   3455 T=   244. E= -.93383562E+03 F= -.93998990E+03 E0= -.93998990E+03  EK= 0.61543E+01 SP= 0.00E+00 SK= 0.00E+00
   3456 T=   245. E= -.93380060E+03 F= -.93998124E+03 E0= -.93998124E+03  EK= 0.61806E+01 SP= 0.00E+00 SK= 0.00E+00
   3457 T=   246. E= -.93373545E+03 F= -.93994282E+03 E0= -.93994282E+03  EK= 0.62074E+01 SP= 0.00E+00 SK= 0.00E+00
   3458 T=   246. E= -.93376422E+03 F= -.93995240E+03 E0= -.93995240E+03  EK= 0.61882E+01 SP= 0.00E+00 SK= 0.00E+00
   3459 T=   245. E= -.93381844E+03 F= -.93999829E+03 E0= -.93999829E+03  EK= 0.61798E+01 SP= 0.00E+00 SK= 0.00E+00
   3460 T=   250. E= -.93376287E+03 F= -.94006859E+03 E0= -.94006859E+03  EK= 0.63057E+01 SP= 0.00E+00 SK= 0.00E+00
   3461 T=   257. E= -.93365367E+03 F= -.94011923E+03 E0= -.94011923E+03  EK= 0.64656E+01 SP= 0.00E+00 SK= 0.00E+00
   3462 T=   259. E= -.93363017E+03 F= -.94015978E+03 E0= -.94015978E+03  EK= 0.65296E+01 SP= 0.00E+00 SK= 0.00E+00
   3463 T=   259. E= -.93361536E+03 F= -.94015545E+03 E0= -.94015545E+03  EK= 0.65401E+01 SP= 0.00E+00 SK= 0.00E+00
   3464 T=   260. E= -.93359539E+03 F= -.94014848E+03 E0= -.94014848E+03  EK= 0.65531E+01 SP= 0.00E+00 SK= 0.00E+00
   3465 T=   267. E= -.93340709E+03 F= -.94013501E+03 E0= -.94013501E+03  EK= 0.67279E+01 SP= 0.00E+00 SK= 0.00E+00
   3466 T=   268. E= -.93328195E+03 F= -.94004623E+03 E0= -.94004623E+03  EK= 0.67643E+01 SP= 0.00E+00 SK= 0.00E+00
   3467 T=   260. E= -.93335391E+03 F= -.93989725E+03 E0= -.93989725E+03  EK= 0.65433E+01 SP= 0.00E+00 SK= 0.00E+00
   3468 T=   253. E= -.93336015E+03 F= -.93974196E+03 E0= -.93974196E+03  EK= 0.63818E+01 SP= 0.00E+00 SK= 0.00E+00
   3469 T=   250. E= -.93333600E+03 F= -.93964912E+03 E0= -.93964912E+03  EK= 0.63131E+01 SP= 0.00E+00 SK= 0.00E+00
   3470 T=   249. E= -.93336040E+03 F= -.93964431E+03 E0= -.93964431E+03  EK= 0.62839E+01 SP= 0.00E+00 SK= 0.00E+00
   3471 T=   247. E= -.93342332E+03 F= -.93964076E+03 E0= -.93964076E+03  EK= 0.62174E+01 SP= 0.00E+00 SK= 0.00E+00
   3472 T=   248. E= -.93345088E+03 F= -.93969950E+03 E0= -.93969950E+03  EK= 0.62486E+01 SP= 0.00E+00 SK= 0.00E+00
   3473 T=   251. E= -.93340942E+03 F= -.93974380E+03 E0= -.93974380E+03  EK= 0.63344E+01 SP= 0.00E+00 SK= 0.00E+00
   3474 T=   253. E= -.93333387E+03 F= -.93971083E+03 E0= -.93971083E+03  EK= 0.63770E+01 SP= 0.00E+00 SK= 0.00E+00
   3475 T=   252. E= -.93327166E+03 F= -.93963003E+03 E0= -.93963003E+03  EK= 0.63584E+01 SP= 0.00E+00 SK= 0.00E+00
   3476 T=   249. E= -.93328459E+03 F= -.93956424E+03 E0= -.93956424E+03  EK= 0.62797E+01 SP= 0.00E+00 SK= 0.00E+00
   3477 T=   251. E= -.93331520E+03 F= -.93963513E+03 E0= -.93963513E+03  EK= 0.63199E+01 SP= 0.00E+00 SK= 0.00E+00
   3478 T=   255. E= -.93336147E+03 F= -.93979867E+03 E0= -.93979867E+03  EK= 0.64372E+01 SP= 0.00E+00 SK= 0.00E+00
   3479 T=   261. E= -.93337857E+03 F= -.93996073E+03 E0= -.93996073E+03  EK= 0.65822E+01 SP= 0.00E+00 SK= 0.00E+00
   3480 T=   261. E= -.93340698E+03 F= -.93998195E+03 E0= -.93998195E+03  EK= 0.65750E+01 SP= 0.00E+00 SK= 0.00E+00
   3481 T=   255. E= -.93346405E+03 F= -.93988654E+03 E0= -.93988654E+03  EK= 0.64225E+01 SP= 0.00E+00 SK= 0.00E+00
   3482 T=   251. E= -.93341513E+03 F= -.93974400E+03 E0= -.93974400E+03  EK= 0.63289E+01 SP= 0.00E+00 SK= 0.00E+00
   3483 T=   251. E= -.93334686E+03 F= -.93967826E+03 E0= -.93967826E+03  EK= 0.63314E+01 SP= 0.00E+00 SK= 0.00E+00
   3484 T=   252. E= -.93329520E+03 F= -.93965032E+03 E0= -.93965032E+03  EK= 0.63551E+01 SP= 0.00E+00 SK= 0.00E+00
   3485 T=   255. E= -.93325277E+03 F= -.93966865E+03 E0= -.93966865E+03  EK= 0.64159E+01 SP= 0.00E+00 SK= 0.00E+00
   3486 T=   260. E= -.93319400E+03 F= -.93973736E+03 E0= -.93973736E+03  EK= 0.65434E+01 SP= 0.00E+00 SK= 0.00E+00
   3487 T=   267. E= -.93312858E+03 F= -.93986763E+03 E0= -.93986763E+03  EK= 0.67390E+01 SP= 0.00E+00 SK= 0.00E+00
   3488 T=   269. E= -.93317038E+03 F= -.93996003E+03 E0= -.93996003E+03  EK= 0.67897E+01 SP= 0.00E+00 SK= 0.00E+00
   3489 T=   263. E= -.93334104E+03 F= -.93997242E+03 E0= -.93997242E+03  EK= 0.66314E+01 SP= 0.00E+00 SK= 0.00E+00
   3490 T=   256. E= -.93348747E+03 F= -.93992760E+03 E0= -.93992760E+03  EK= 0.64401E+01 SP= 0.00E+00 SK= 0.00E+00
   3491 T=   253. E= -.93349141E+03 F= -.93987412E+03 E0= -.93987412E+03  EK= 0.63827E+01 SP= 0.00E+00 SK= 0.00E+00
   3492 T=   260. E= -.93335520E+03 F= -.93990596E+03 E0= -.93990596E+03  EK= 0.65508E+01 SP= 0.00E+00 SK= 0.00E+00
   3493 T=   268. E= -.93327604E+03 F= -.94003419E+03 E0= -.94003419E+03  EK= 0.67582E+01 SP= 0.00E+00 SK= 0.00E+00
   3494 T=   270. E= -.93339057E+03 F= -.94019719E+03 E0= -.94019719E+03  EK= 0.68066E+01 SP= 0.00E+00 SK= 0.00E+00
   3495 T=   269. E= -.93353410E+03 F= -.94031417E+03 E0= -.94031417E+03  EK= 0.67801E+01 SP= 0.00E+00 SK= 0.00E+00
   3496 T=   270. E= -.93359794E+03 F= -.94040420E+03 E0= -.94040420E+03  EK= 0.68063E+01 SP= 0.00E+00 SK= 0.00E+00
   3497 T=   270. E= -.93370633E+03 F= -.94050850E+03 E0= -.94050850E+03  EK= 0.68022E+01 SP= 0.00E+00 SK= 0.00E+00
   3498 T=   266. E= -.93386581E+03 F= -.94057132E+03 E0= -.94057132E+03  EK= 0.67055E+01 SP= 0.00E+00 SK= 0.00E+00
   3499 T=   263. E= -.93393842E+03 F= -.94056031E+03 E0= -.94056031E+03  EK= 0.66219E+01 SP= 0.00E+00 SK= 0.00E+00
   3500 T=   255. E= -.93402402E+03 F= -.94044399E+03 E0= -.94044399E+03  EK= 0.64200E+01 SP= 0.00E+00 SK= 0.00E+00
   3501 T=   250. E= -.93398384E+03 F= -.94028931E+03 E0= -.94028931E+03  EK= 0.63055E+01 SP= 0.00E+00 SK= 0.00E+00
   3502 T=   246. E= -.93396229E+03 F= -.94016962E+03 E0= -.94016962E+03  EK= 0.62073E+01 SP= 0.00E+00 SK= 0.00E+00
   3503 T=   244. E= -.93400743E+03 F= -.94016196E+03 E0= -.94016196E+03  EK= 0.61545E+01 SP= 0.00E+00 SK= 0.00E+00
   3504 T=   252. E= -.93394279E+03 F= -.94030322E+03 E0= -.94030322E+03  EK= 0.63604E+01 SP= 0.00E+00 SK= 0.00E+00
   3505 T=   262. E= -.93387726E+03 F= -.94048039E+03 E0= -.94048039E+03  EK= 0.66031E+01 SP= 0.00E+00 SK= 0.00E+00
   3506 T=   264. E= -.93390922E+03 F= -.94056197E+03 E0= -.94056197E+03  EK= 0.66527E+01 SP= 0.00E+00 SK= 0.00E+00
   3507 T=   261. E= -.93395049E+03 F= -.94051776E+03 E0= -.94051776E+03  EK= 0.65673E+01 SP= 0.00E+00 SK= 0.00E+00
   3508 T=   257. E= -.93399640E+03 F= -.94048417E+03 E0= -.94048417E+03  EK= 0.64878E+01 SP= 0.00E+00 SK= 0.00E+00
   3509 T=   255. E= -.93408201E+03 F= -.94052042E+03 E0= -.94052042E+03  EK= 0.64384E+01 SP= 0.00E+00 SK= 0.00E+00
   3510 T=   258. E= -.93410556E+03 F= -.94061368E+03 E0= -.94061368E+03  EK= 0.65081E+01 SP= 0.00E+00 SK= 0.00E+00
   3511 T=   261. E= -.93412008E+03 F= -.94071013E+03 E0= -.94071013E+03  EK= 0.65900E+01 SP= 0.00E+00 SK= 0.00E+00
   3512 T=   265. E= -.93411339E+03 F= -.94078477E+03 E0= -.94078477E+03  EK= 0.66714E+01 SP= 0.00E+00 SK= 0.00E+00
   3513 T=   268. E= -.93406278E+03 F= -.94082783E+03 E0= -.94082783E+03  EK= 0.67651E+01 SP= 0.00E+00 SK= 0.00E+00
   3514 T=   269. E= -.93404199E+03 F= -.94081111E+03 E0= -.94081111E+03  EK= 0.67691E+01 SP= 0.00E+00 SK= 0.00E+00
   3515 T=   267. E= -.93400357E+03 F= -.94072498E+03 E0= -.94072498E+03  EK= 0.67214E+01 SP= 0.00E+00 SK= 0.00E+00
   3516 T=   262. E= -.93400941E+03 F= -.94062215E+03 E0= -.94062215E+03  EK= 0.66127E+01 SP= 0.00E+00 SK= 0.00E+00
   3517 T=   259. E= -.93399836E+03 F= -.94053669E+03 E0= -.94053669E+03  EK= 0.65383E+01 SP= 0.00E+00 SK= 0.00E+00
   3518 T=   259. E= -.93401947E+03 F= -.94054629E+03 E0= -.94054629E+03  EK= 0.65268E+01 SP= 0.00E+00 SK= 0.00E+00
   3519 T=   260. E= -.93405235E+03 F= -.94061625E+03 E0= -.94061625E+03  EK= 0.65639E+01 SP= 0.00E+00 SK= 0.00E+00
   3520 T=   263. E= -.93403999E+03 F= -.94068124E+03 E0= -.94068124E+03  EK= 0.66413E+01 SP= 0.00E+00 SK= 0.00E+00
   3521 T=   262. E= -.93399288E+03 F= -.94060292E+03 E0= -.94060292E+03  EK= 0.66100E+01 SP= 0.00E+00 SK= 0.00E+00
   3522 T=   260. E= -.93389917E+03 F= -.94045844E+03 E0= -.94045844E+03  EK= 0.65593E+01 SP= 0.00E+00 SK= 0.00E+00
   3523 T=   254. E= -.93390109E+03 F= -.94030872E+03 E0= -.94030872E+03  EK= 0.64076E+01 SP= 0.00E+00 SK= 0.00E+00
   3524 T=   250. E= -.93392585E+03 F= -.94022866E+03 E0= -.94022866E+03  EK= 0.63028E+01 SP= 0.00E+00 SK= 0.00E+00
   3525 T=   250. E= -.93390034E+03 F= -.94020678E+03 E0= -.94020678E+03  EK= 0.63064E+01 SP= 0.00E+00 SK= 0.00E+00
   3526 T=   255. E= -.93382158E+03 F= -.94024192E+03 E0= -.94024192E+03  EK= 0.64203E+01 SP= 0.00E+00 SK= 0.00E+00
   3527 T=   259. E= -.93376899E+03 F= -.94030929E+03 E0= -.94030929E+03  EK= 0.65403E+01 SP= 0.00E+00 SK= 0.00E+00
   3528 T=   260. E= -.93384756E+03 F= -.94039828E+03 E0= -.94039828E+03  EK= 0.65507E+01 SP= 0.00E+00 SK= 0.00E+00
   3529 T=   260. E= -.93389887E+03 F= -.94044904E+03 E0= -.94044904E+03  EK= 0.65502E+01 SP= 0.00E+00 SK= 0.00E+00
   3530 T=   264. E= -.93384643E+03 F= -.94049525E+03 E0= -.94049525E+03  EK= 0.66488E+01 SP= 0.00E+00 SK= 0.00E+00
   3531 T=   268. E= -.93381067E+03 F= -.94057655E+03 E0= -.94057655E+03  EK= 0.67659E+01 SP= 0.00E+00 SK= 0.00E+00
   3532 T=   269. E= -.93386302E+03 F= -.94063420E+03 E0= -.94063420E+03  EK= 0.67712E+01 SP= 0.00E+00 SK= 0.00E+00
   3533 T=   268. E= -.93383621E+03 F= -.94059959E+03 E0= -.94059959E+03  EK= 0.67634E+01 SP= 0.00E+00 SK= 0.00E+00
   3534 T=   266. E= -.93379315E+03 F= -.94049890E+03 E0= -.94049890E+03  EK= 0.67057E+01 SP= 0.00E+00 SK= 0.00E+00
   3535 T=   260. E= -.93382134E+03 F= -.94036525E+03 E0= -.94036525E+03  EK= 0.65439E+01 SP= 0.00E+00 SK= 0.00E+00
   3536 T=   259. E= -.93376117E+03 F= -.94029494E+03 E0= -.94029494E+03  EK= 0.65338E+01 SP= 0.00E+00 SK= 0.00E+00
   3537 T=   264. E= -.93369402E+03 F= -.94035873E+03 E0= -.94035873E+03  EK= 0.66647E+01 SP= 0.00E+00 SK= 0.00E+00
   3538 T=   267. E= -.93368586E+03 F= -.94040949E+03 E0= -.94040949E+03  EK= 0.67236E+01 SP= 0.00E+00 SK= 0.00E+00
   3539 T=   268. E= -.93366407E+03 F= -.94040774E+03 E0= -.94040774E+03  EK= 0.67437E+01 SP= 0.00E+00 SK= 0.00E+00
   3540 T=   268. E= -.93361016E+03 F= -.94036326E+03 E0= -.94036326E+03  EK= 0.67531E+01 SP= 0.00E+00 SK= 0.00E+00
   3541 T=   261. E= -.93366790E+03 F= -.94024203E+03 E0= -.94024203E+03  EK= 0.65741E+01 SP= 0.00E+00 SK= 0.00E+00
   3542 T=   253. E= -.93377763E+03 F= -.94014392E+03 E0= -.94014392E+03  EK= 0.63663E+01 SP= 0.00E+00 SK= 0.00E+00
   3543 T=   252. E= -.93379063E+03 F= -.94014665E+03 E0= -.94014665E+03  EK= 0.63560E+01 SP= 0.00E+00 SK= 0.00E+00
   3544 T=   252. E= -.93386202E+03 F= -.94021799E+03 E0= -.94021799E+03  EK= 0.63560E+01 SP= 0.00E+00 SK= 0.00E+00
   3545 T=   257. E= -.93386345E+03 F= -.94034219E+03 E0= -.94034219E+03  EK= 0.64787E+01 SP= 0.00E+00 SK= 0.00E+00
   3546 T=   260. E= -.93391115E+03 F= -.94046159E+03 E0= -.94046159E+03  EK= 0.65504E+01 SP= 0.00E+00 SK= 0.00E+00
   3547 T=   258. E= -.93399304E+03 F= -.94050699E+03 E0= -.94050699E+03  EK= 0.65140E+01 SP= 0.00E+00 SK= 0.00E+00
   3548 T=   259. E= -.93399533E+03 F= -.94051298E+03 E0= -.94051298E+03  EK= 0.65176E+01 SP= 0.00E+00 SK= 0.00E+00
   3549 T=   261. E= -.93390557E+03 F= -.94047687E+03 E0= -.94047687E+03  EK= 0.65713E+01 SP= 0.00E+00 SK= 0.00E+00
   3550 T=   264. E= -.93374308E+03 F= -.94038884E+03 E0= -.94038884E+03  EK= 0.66458E+01 SP= 0.00E+00 SK= 0.00E+00
   3551 T=   257. E= -.93376435E+03 F= -.94024580E+03 E0= -.94024580E+03  EK= 0.64814E+01 SP= 0.00E+00 SK= 0.00E+00
   3552 T=   247. E= -.93387182E+03 F= -.94009608E+03 E0= -.94009608E+03  EK= 0.62243E+01 SP= 0.00E+00 SK= 0.00E+00
   3553 T=   240. E= -.93394606E+03 F= -.93999702E+03 E0= -.93999702E+03  EK= 0.60510E+01 SP= 0.00E+00 SK= 0.00E+00
   3554 T=   240. E= -.93394071E+03 F= -.93998487E+03 E0= -.93998487E+03  EK= 0.60442E+01 SP= 0.00E+00 SK= 0.00E+00
   3555 T=   247. E= -.93381411E+03 F= -.94004530E+03 E0= -.94004530E+03  EK= 0.62312E+01 SP= 0.00E+00 SK= 0.00E+00
   3556 T=   256. E= -.93367679E+03 F= -.94012557E+03 E0= -.94012557E+03  EK= 0.64488E+01 SP= 0.00E+00 SK= 0.00E+00
   3557 T=   257. E= -.93363567E+03 F= -.94012035E+03 E0= -.94012035E+03  EK= 0.64847E+01 SP= 0.00E+00 SK= 0.00E+00
   3558 T=   252. E= -.93360549E+03 F= -.93996812E+03 E0= -.93996812E+03  EK= 0.63626E+01 SP= 0.00E+00 SK= 0.00E+00
   3559 T=   246. E= -.93353616E+03 F= -.93974820E+03 E0= -.93974820E+03  EK= 0.62120E+01 SP= 0.00E+00 SK= 0.00E+00
   3560 T=   241. E= -.93340504E+03 F= -.93947574E+03 E0= -.93947574E+03  EK= 0.60707E+01 SP= 0.00E+00 SK= 0.00E+00
   3561 T=   236. E= -.93337753E+03 F= -.93932605E+03 E0= -.93932605E+03  EK= 0.59485E+01 SP= 0.00E+00 SK= 0.00E+00
   3562 T=   236. E= -.93341421E+03 F= -.93935377E+03 E0= -.93935377E+03  EK= 0.59396E+01 SP= 0.00E+00 SK= 0.00E+00
   3563 T=   241. E= -.93340937E+03 F= -.93949075E+03 E0= -.93949075E+03  EK= 0.60814E+01 SP= 0.00E+00 SK= 0.00E+00
   3564 T=   246. E= -.93345419E+03 F= -.93964373E+03 E0= -.93964373E+03  EK= 0.61895E+01 SP= 0.00E+00 SK= 0.00E+00
   3565 T=   247. E= -.93351791E+03 F= -.93973584E+03 E0= -.93973584E+03  EK= 0.62179E+01 SP= 0.00E+00 SK= 0.00E+00
   3566 T=   248. E= -.93351909E+03 F= -.93976014E+03 E0= -.93976014E+03  EK= 0.62411E+01 SP= 0.00E+00 SK= 0.00E+00
   3567 T=   247. E= -.93356280E+03 F= -.93978257E+03 E0= -.93978257E+03  EK= 0.62198E+01 SP= 0.00E+00 SK= 0.00E+00
   3568 T=   238. E= -.93372927E+03 F= -.93971679E+03 E0= -.93971679E+03  EK= 0.59875E+01 SP= 0.00E+00 SK= 0.00E+00
   3569 T=   232. E= -.93379354E+03 F= -.93962901E+03 E0= -.93962901E+03  EK= 0.58355E+01 SP= 0.00E+00 SK= 0.00E+00
       N       E                     dE             d eps       ncg     rms          rms(c)
DAV:   1    -0.194257460123E+03    0.73409E+03   -0.59413E+04 16238   0.437E+02
DAV:   2    -0.921906454084E+03   -0.72765E+03   -0.71368E+03 18790   0.134E+02
DAV:   3    -0.945396410872E+03   -0.23490E+02   -0.23452E+02 19060   0.275E+01
DAV:   4    -0.945764968321E+03   -0.36856E+00   -0.36841E+00 19532   0.327E+00    0.385E+01
DAV:   5    -0.927355140600E+03    0.18410E+02   -0.45950E+01 19212   0.142E+01    0.206E+01
DAV:   6    -0.927378503483E+03   -0.23363E-01   -0.17783E+01 18420   0.855E+00    0.849E+00
DAV:   7    -0.928338067798E+03   -0.95956E+00   -0.38911E+00 18796   0.497E+00    0.247E+00
DAV:   8    -0.928384018755E+03   -0.45951E-01   -0.55470E-01 18620   0.177E+00    0.127E+00
DAV:   9    -0.928391063337E+03   -0.70446E-02   -0.18902E-01 18540   0.933E-01    0.593E-01
DAV:  10    -0.928384853552E+03    0.62098E-02   -0.23593E-02 22660   0.483E-01    0.245E-01
DAV:  11    -0.928383429514E+03    0.14240E-02   -0.17723E-02 19076   0.331E-01    0.147E-01
DAV:  12    -0.928382175482E+03    0.12540E-02   -0.23808E-03 19564   0.161E-01    0.610E-02
DAV:  13    -0.928381359511E+03    0.81597E-03   -0.11003E-03 17732   0.143E-01    0.440E-02
DAV:  14    -0.928381159603E+03    0.19991E-03   -0.73726E-04 19756   0.965E-02    0.382E-02
DAV:  15    -0.928381138165E+03    0.21438E-04   -0.36098E-04 17596   0.424E-02
   3570 T=   229. E= -.93373452E+03 F= -.93949970E+03 E0= -.93949970E+03  EK= 0.57652E+01 SP= 0.00E+00 SK= 0.00E+00
   3571 T=   232. E= -.93379164E+03 F= -.93964869E+03 E0= -.93964869E+03  EK= 0.58570E+01 SP= 0.00E+00 SK= 0.00E+00
   3572 T=   242. E= -.93382005E+03 F= -.93993173E+03 E0= -.93993173E+03  EK= 0.61117E+01 SP= 0.00E+00 SK= 0.00E+00
   3573 T=   251. E= -.93390141E+03 F= -.94023750E+03 E0= -.94023750E+03  EK= 0.63361E+01 SP= 0.00E+00 SK= 0.00E+00
   3574 T=   260. E= -.93387631E+03 F= -.94042196E+03 E0= -.94042196E+03  EK= 0.65457E+01 SP= 0.00E+00 SK= 0.00E+00
   3575 T=   264. E= -.93377609E+03 F= -.94043111E+03 E0= -.94043111E+03  EK= 0.66550E+01 SP= 0.00E+00 SK= 0.00E+00
   3576 T=   263. E= -.93365178E+03 F= -.94027452E+03 E0= -.94027452E+03  EK= 0.66227E+01 SP= 0.00E+00 SK= 0.00E+00
   3577 T=   260. E= -.93349347E+03 F= -.94005759E+03 E0= -.94005759E+03  EK= 0.65641E+01 SP= 0.00E+00 SK= 0.00E+00
   3578 T=   261. E= -.93338867E+03 F= -.93995951E+03 E0= -.93995951E+03  EK= 0.65708E+01 SP= 0.00E+00 SK= 0.00E+00
   3579 T=   262. E= -.93338870E+03 F= -.93998109E+03 E0= -.93998109E+03  EK= 0.65924E+01 SP= 0.00E+00 SK= 0.00E+00
       N       E                     dE             d eps       ncg     rms          rms(c)
DAV:   1    -0.922281151401E+03    0.61000E+01   -0.28205E+03 16238   0.104E+02
DAV:   2    -0.929918081611E+03   -0.76369E+01   -0.76351E+01 19172   0.155E+01
DAV:   3    -0.929995690323E+03   -0.77609E-01   -0.77604E-01 19508   0.163E+00
DAV:   4    -0.929997393341E+03   -0.17030E-02   -0.17030E-02 19236   0.232E-01    0.105E+01
DAV:   5    -0.928965806369E+03    0.10316E+01   -0.20030E+00 20108   0.371E+00    0.575E+00
DAV:   6    -0.928889013353E+03    0.76793E-01   -0.16672E+00 19524   0.283E+00    0.167E+00
DAV:   7    -0.928908921469E+03   -0.19908E-01   -0.31323E-01 18660   0.147E+00    0.621E-01
DAV:   8    -0.928906932006E+03    0.19895E-02   -0.37823E-02 18660   0.480E-01    0.332E-01
DAV:   9    -0.928905360663E+03    0.15713E-02   -0.17366E-02 18404   0.294E-01    0.209E-01
DAV:  10    -0.928903774610E+03    0.15861E-02   -0.37519E-03 23100   0.212E-01    0.555E-02
DAV:  11    -0.928903542880E+03    0.23173E-03   -0.16307E-03 18932   0.973E-02    0.480E-02
DAV:  12    -0.928903296084E+03    0.24680E-03   -0.16651E-04 13212   0.535E-02    0.209E-02
DAV:  13    -0.928903189813E+03    0.10627E-03   -0.23518E-04 14940   0.566E-02    0.240E-02
DAV:  14    -0.928903168003E+03    0.21810E-04   -0.12547E-04 13692   0.358E-02
   3580 T=   265. E= -.93335307E+03 F= -.94002281E+03 E0= -.94002281E+03  EK= 0.66697E+01 SP= 0.00E+00 SK= 0.00E+00
   3581 T=   269. E= -.93337860E+03 F= -.94015316E+03 E0= -.94015316E+03  EK= 0.67746E+01 SP= 0.00E+00 SK= 0.00E+00
   3582 T=   264. E= -.93345675E+03 F= -.94012248E+03 E0= -.94012248E+03  EK= 0.66657E+01 SP= 0.00E+00 SK= 0.00E+00
   3583 T=   255. E= -.93357687E+03 F= -.93999455E+03 E0= -.93999455E+03  EK= 0.64177E+01 SP= 0.00E+00 SK= 0.00E+00
   3584 T=   250. E= -.93358984E+03 F= -.93988384E+03 E0= -.93988384E+03  EK= 0.62940E+01 SP= 0.00E+00 SK= 0.00E+00
   3585 T=   247. E= -.93363349E+03 F= -.93984702E+03 E0= -.93984702E+03  EK= 0.62135E+01 SP= 0.00E+00 SK= 0.00E+00
   3586 T=   248. E= -.93364880E+03 F= -.93988791E+03 E0= -.93988791E+03  EK= 0.62391E+01 SP= 0.00E+00 SK= 0.00E+00
   3587 T=   251. E= -.93355958E+03 F= -.93988987E+03 E0= -.93988987E+03  EK= 0.63303E+01 SP= 0.00E+00 SK= 0.00E+00
   3588 T=   251. E= -.93351349E+03 F= -.93983563E+03 E0= -.93983563E+03  EK= 0.63221E+01 SP= 0.00E+00 SK= 0.00E+00
   3589 T=   245. E= -.93351392E+03 F= -.93968519E+03 E0= -.93968519E+03  EK= 0.61713E+01 SP= 0.00E+00 SK= 0.00E+00
       N       E                     dE             d eps       ncg     rms          rms(c)
DAV:   1    -0.921126850931E+03    0.77763E+01   -0.30347E+03 16238   0.107E+02
DAV:   2    -0.929626943634E+03   -0.85001E+01   -0.84978E+01 19140   0.163E+01
DAV:   3    -0.929714220219E+03   -0.87277E-01   -0.87272E-01 19524   0.172E+00
DAV:   4    -0.929716121078E+03   -0.19009E-02   -0.19008E-02 19148   0.246E-01    0.106E+01
DAV:   5    -0.928469716720E+03    0.12464E+01   -0.22640E+00 20332   0.402E+00    0.573E+00
DAV:   6    -0.928326660273E+03    0.14306E+00   -0.18697E+00 19596   0.316E+00    0.170E+00
DAV:   7    -0.928346210680E+03   -0.19550E-01   -0.34048E-01 18732   0.143E+00    0.664E-01
DAV:   8    -0.928342132825E+03    0.40779E-02   -0.33118E-02 19012   0.434E-01    0.334E-01
DAV:   9    -0.928338566430E+03    0.35664E-02   -0.11849E-02 18708   0.310E-01    0.169E-01
DAV:  10    -0.928336561811E+03    0.20046E-02   -0.31306E-03 21260   0.209E-01    0.608E-02
DAV:  11    -0.928335986082E+03    0.57573E-03   -0.17102E-03 19060   0.119E-01    0.538E-02
DAV:  12    -0.928335459565E+03    0.52652E-03   -0.33359E-04 15828   0.102E-01    0.227E-02
DAV:  13    -0.928335301901E+03    0.15766E-03   -0.40545E-04 17316   0.876E-02    0.345E-02
DAV:  14    -0.928335282865E+03    0.19037E-04   -0.37526E-04 18860   0.511E-02
   3590 T=   237. E= -.93347497E+03 F= -.93944196E+03 E0= -.93944196E+03  EK= 0.59670E+01 SP= 0.00E+00 SK= 0.00E+00
   3591 T=   231. E= -.93355388E+03 F= -.93938491E+03 E0= -.93938491E+03  EK= 0.58310E+01 SP= 0.00E+00 SK= 0.00E+00
   3592 T=   231. E= -.93352050E+03 F= -.93935020E+03 E0= -.93935020E+03  EK= 0.58297E+01 SP= 0.00E+00 SK= 0.00E+00
   3593 T=   236. E= -.93355711E+03 F= -.93950163E+03 E0= -.93950163E+03  EK= 0.59445E+01 SP= 0.00E+00 SK= 0.00E+00
   3594 T=   243. E= -.93356170E+03 F= -.93969073E+03 E0= -.93969073E+03  EK= 0.61290E+01 SP= 0.00E+00 SK= 0.00E+00
   3595 T=   249. E= -.93348916E+03 F= -.93976169E+03 E0= -.93976169E+03  EK= 0.62725E+01 SP= 0.00E+00 SK= 0.00E+00
   3596 T=   248. E= -.93341161E+03 F= -.93966622E+03 E0= -.93966622E+03  EK= 0.62546E+01 SP= 0.00E+00 SK= 0.00E+00
   3597 T=   240. E= -.93341053E+03 F= -.93945427E+03 E0= -.93945427E+03  EK= 0.60437E+01 SP= 0.00E+00 SK= 0.00E+00
   3598 T=   235. E= -.93336420E+03 F= -.93928949E+03 E0= -.93928949E+03  EK= 0.59253E+01 SP= 0.00E+00 SK= 0.00E+00
   3599 T=   236. E= -.93330299E+03 F= -.93926106E+03 E0= -.93926106E+03  EK= 0.59581E+01 SP= 0.00E+00 SK= 0.00E+00
       N       E                     dE             d eps       ncg     rms          rms(c)
DAV:   1    -0.922542712681E+03    0.57926E+01   -0.24617E+03 16238   0.970E+01
DAV:   2    -0.929186431006E+03   -0.66437E+01   -0.66422E+01 19204   0.145E+01
DAV:   3    -0.929253228973E+03   -0.66798E-01   -0.66794E-01 19532   0.149E+00
DAV:   4    -0.929254708278E+03   -0.14793E-02   -0.14793E-02 19228   0.216E-01    0.989E+00
DAV:   5    -0.928300867945E+03    0.95384E+00   -0.19686E+00 20332   0.374E+00    0.536E+00
DAV:   6    -0.928219035121E+03    0.81833E-01   -0.14162E+00 19460   0.278E+00    0.166E+00
DAV:   7    -0.928238341066E+03   -0.19306E-01   -0.30402E-01 19628   0.142E+00    0.645E-01
DAV:   8    -0.928234606651E+03    0.37344E-02   -0.33552E-02 18620   0.442E-01    0.341E-01
DAV:   9    -0.928231327557E+03    0.32791E-02   -0.15129E-02 18676   0.286E-01    0.182E-01
DAV:  10    -0.928229465230E+03    0.18623E-02   -0.29119E-03 22100   0.211E-01    0.674E-02
DAV:  11    -0.928228942991E+03    0.52224E-03   -0.23029E-03 19108   0.137E-01    0.659E-02
DAV:  12    -0.928228529707E+03    0.41328E-03   -0.52728E-04 18948   0.851E-02    0.271E-02
DAV:  13    -0.928228325223E+03    0.20448E-03   -0.18772E-04 13820   0.733E-02    0.283E-02
DAV:  14    -0.928228287306E+03    0.37918E-04   -0.22386E-04 14868   0.502E-02
   3600 T=   243. E= -.93321536E+03 F= -.93934134E+03 E0= -.93934134E+03  EK= 0.61260E+01 SP= 0.00E+00 SK= 0.00E+00
   3601 T=   254. E= -.93319754E+03 F= -.93961136E+03 E0= -.93961136E+03  EK= 0.64138E+01 SP= 0.00E+00 SK= 0.00E+00
   3602 T=   263. E= -.93314990E+03 F= -.93979077E+03 E0= -.93979077E+03  EK= 0.66409E+01 SP= 0.00E+00 SK= 0.00E+00
   3603 T=   271. E= -.93305156E+03 F= -.93988969E+03 E0= -.93988969E+03  EK= 0.68381E+01 SP= 0.00E+00 SK= 0.00E+00
   3604 T=   274. E= -.93292775E+03 F= -.93982642E+03 E0= -.93982642E+03  EK= 0.68987E+01 SP= 0.00E+00 SK= 0.00E+00
   3605 T=   265. E= -.93294765E+03 F= -.93962606E+03 E0= -.93962606E+03  EK= 0.66784E+01 SP= 0.00E+00 SK= 0.00E+00
   3606 T=   254. E= -.93301363E+03 F= -.93941713E+03 E0= -.93941713E+03  EK= 0.64035E+01 SP= 0.00E+00 SK= 0.00E+00
   3607 T=   249. E= -.93310781E+03 F= -.93937505E+03 E0= -.93937505E+03  EK= 0.62672E+01 SP= 0.00E+00 SK= 0.00E+00
   3608 T=   254. E= -.93312858E+03 F= -.93953288E+03 E0= -.93953288E+03  EK= 0.64043E+01 SP= 0.00E+00 SK= 0.00E+00
   3609 T=   267. E= -.93306790E+03 F= -.93979007E+03 E0= -.93979007E+03  EK= 0.67222E+01 SP= 0.00E+00 SK= 0.00E+00
       N       E                     dE             d eps       ncg     rms          rms(c)
DAV:   1    -0.921196708992E+03    0.70316E+01   -0.31404E+03 16238   0.109E+02
DAV:   2    -0.929966441931E+03   -0.87697E+01   -0.87675E+01 19196   0.165E+01
DAV:   3    -0.930053655519E+03   -0.87214E-01   -0.87208E-01 19492   0.171E+00
DAV:   4    -0.930055545370E+03   -0.18899E-02   -0.18898E-02 19204   0.244E-01    0.106E+01
DAV:   5    -0.928875938189E+03    0.11796E+01   -0.21123E+00 20812   0.402E+00    0.574E+00
DAV:   6    -0.928746955444E+03    0.12898E+00   -0.18216E+00 19564   0.312E+00    0.169E+00
DAV:   7    -0.928762485947E+03   -0.15531E-01   -0.34309E-01 18572   0.143E+00    0.646E-01
DAV:   8    -0.928758715676E+03    0.37703E-02   -0.30882E-02 18788   0.417E-01    0.364E-01
DAV:   9    -0.928755361932E+03    0.33537E-02   -0.19864E-02 18300   0.353E-01    0.222E-01
DAV:  10    -0.928753440081E+03    0.19219E-02   -0.39876E-03 21172   0.201E-01    0.891E-02
DAV:  11    -0.928752934422E+03    0.50566E-03   -0.25511E-03 18572   0.122E-01    0.562E-02
DAV:  12    -0.928752570207E+03    0.36422E-03   -0.44922E-04 17596   0.798E-02    0.256E-02
DAV:  13    -0.928752437562E+03    0.13264E-03   -0.19830E-04 13316   0.470E-02    0.186E-02
DAV:  14    -0.928752401223E+03    0.36339E-04   -0.73313E-05 13364   0.311E-02
   3610 T=   275. E= -.93291056E+03 F= -.93983877E+03 E0= -.93983877E+03  EK= 0.69282E+01 SP= 0.00E+00 SK= 0.00E+00
   3611 T=   276. E= -.93297362E+03 F= -.93994117E+03 E0= -.93994117E+03  EK= 0.69675E+01 SP= 0.00E+00 SK= 0.00E+00
   3612 T=   266. E= -.93302979E+03 F= -.93972987E+03 E0= -.93972987E+03  EK= 0.67001E+01 SP= 0.00E+00 SK= 0.00E+00
   3613 T=   253. E= -.93311919E+03 F= -.93949721E+03 E0= -.93949721E+03  EK= 0.63780E+01 SP= 0.00E+00 SK= 0.00E+00
   3614 T=   247. E= -.93302547E+03 F= -.93924240E+03 E0= -.93924240E+03  EK= 0.62169E+01 SP= 0.00E+00 SK= 0.00E+00
   3615 T=   244. E= -.93291805E+03 F= -.93907837E+03 E0= -.93907837E+03  EK= 0.61603E+01 SP= 0.00E+00 SK= 0.00E+00
   3616 T=   247. E= -.93281086E+03 F= -.93902920E+03 E0= -.93902920E+03  EK= 0.62183E+01 SP= 0.00E+00 SK= 0.00E+00
   3617 T=   254. E= -.93269062E+03 F= -.93909043E+03 E0= -.93909043E+03  EK= 0.63998E+01 SP= 0.00E+00 SK= 0.00E+00
   3618 T=   260. E= -.93261054E+03 F= -.93915595E+03 E0= -.93915595E+03  EK= 0.65454E+01 SP= 0.00E+00 SK= 0.00E+00
   3619 T=   267. E= -.93244016E+03 F= -.93916678E+03 E0= -.93916678E+03  EK= 0.67266E+01 SP= 0.00E+00 SK= 0.00E+00
       N       E                     dE             d eps       ncg     rms          rms(c)
DAV:   1    -0.921987365578E+03    0.67651E+01   -0.26075E+03 16238   0.997E+01
DAV:   2    -0.928808870454E+03   -0.68215E+01   -0.68198E+01 19188   0.147E+01
DAV:   3    -0.928878061885E+03   -0.69191E-01   -0.69188E-01 19500   0.152E+00
DAV:   4    -0.928879607359E+03   -0.15455E-02   -0.15454E-02 19228   0.219E-01    0.994E+00
DAV:   5    -0.927943031817E+03    0.93658E+00   -0.18988E+00 19924   0.366E+00    0.545E+00
DAV:   6    -0.927887069763E+03    0.55962E-01   -0.14855E+00 19516   0.275E+00    0.165E+00
DAV:   7    -0.927908811506E+03   -0.21742E-01   -0.29241E-01 18948   0.139E+00    0.611E-01
DAV:   8    -0.927905278680E+03    0.35328E-02   -0.33261E-02 18732   0.474E-01    0.300E-01
DAV:   9    -0.927903374642E+03    0.19040E-02   -0.14235E-02 18484   0.262E-01    0.182E-01
DAV:  10    -0.927901921876E+03    0.14528E-02   -0.33723E-03 22860   0.201E-01    0.509E-02
DAV:  11    -0.927901614832E+03    0.30704E-03   -0.13434E-03 18804   0.948E-02    0.513E-02
DAV:  12    -0.927901320217E+03    0.29462E-03   -0.20555E-04 14148   0.616E-02    0.204E-02
DAV:  13    -0.927901189610E+03    0.13061E-03   -0.24149E-04 14996   0.649E-02    0.274E-02
DAV:  14    -0.927901171106E+03    0.18504E-04   -0.18280E-04 14012   0.387E-02
   3620 T=   265. E= -.93230337E+03 F= -.93898886E+03 E0= -.93898886E+03  EK= 0.66855E+01 SP= 0.00E+00 SK= 0.00E+00
   3621 T=   256. E= -.93238469E+03 F= -.93884768E+03 E0= -.93884768E+03  EK= 0.64630E+01 SP= 0.00E+00 SK= 0.00E+00
   3622 T=   251. E= -.93234653E+03 F= -.93866879E+03 E0= -.93866879E+03  EK= 0.63223E+01 SP= 0.00E+00 SK= 0.00E+00
   3623 T=   251. E= -.93233838E+03 F= -.93865954E+03 E0= -.93865954E+03  EK= 0.63212E+01 SP= 0.00E+00 SK= 0.00E+00
   3624 T=   256. E= -.93232793E+03 F= -.93878304E+03 E0= -.93878304E+03  EK= 0.64551E+01 SP= 0.00E+00 SK= 0.00E+00
   3625 T=   266. E= -.93232619E+03 F= -.93902597E+03 E0= -.93902597E+03  EK= 0.66998E+01 SP= 0.00E+00 SK= 0.00E+00
   3626 T=   274. E= -.93236181E+03 F= -.93927654E+03 E0= -.93927654E+03  EK= 0.69147E+01 SP= 0.00E+00 SK= 0.00E+00
   3627 T=   274. E= -.93249418E+03 F= -.93938827E+03 E0= -.93938827E+03  EK= 0.68941E+01 SP= 0.00E+00 SK= 0.00E+00
   3628 T=   274. E= -.93248796E+03 F= -.93939180E+03 E0= -.93939180E+03  EK= 0.69038E+01 SP= 0.00E+00 SK= 0.00E+00
   3629 T=   275. E= -.93235382E+03 F= -.93927951E+03 E0= -.93927951E+03  EK= 0.69257E+01 SP= 0.00E+00 SK= 0.00E+00
   3630 T=   270. E= -.93230100E+03 F= -.93910412E+03 E0= -.93910412E+03  EK= 0.68031E+01 SP= 0.00E+00 SK= 0.00E+00
   3631 T=   264. E= -.93229148E+03 F= -.93894718E+03 E0= -.93894718E+03  EK= 0.66557E+01 SP= 0.00E+00 SK= 0.00E+00
   3632 T=   264. E= -.93224428E+03 F= -.93888781E+03 E0= -.93888781E+03  EK= 0.66435E+01 SP= 0.00E+00 SK= 0.00E+00
   3633 T=   271. E= -.93212962E+03 F= -.93894893E+03 E0= -.93894893E+03  EK= 0.68193E+01 SP= 0.00E+00 SK= 0.00E+00
   3634 T=   280. E= -.93204011E+03 F= -.93909285E+03 E0= -.93909285E+03  EK= 0.70527E+01 SP= 0.00E+00 SK= 0.00E+00
   3635 T=   286. E= -.93197925E+03 F= -.93919064E+03 E0= -.93919064E+03  EK= 0.72114E+01 SP= 0.00E+00 SK= 0.00E+00
   3636 T=   287. E= -.93195500E+03 F= -.93918804E+03 E0= -.93918804E+03  EK= 0.72330E+01 SP= 0.00E+00 SK= 0.00E+00
   3637 T=   277. E= -.93204823E+03 F= -.93903850E+03 E0= -.93903850E+03  EK= 0.69903E+01 SP= 0.00E+00 SK= 0.00E+00
   3638 T=   264. E= -.93216963E+03 F= -.93881959E+03 E0= -.93881959E+03  EK= 0.66500E+01 SP= 0.00E+00 SK= 0.00E+00
   3639 T=   259. E= -.93222740E+03 F= -.93875527E+03 E0= -.93875527E+03  EK= 0.65279E+01 SP= 0.00E+00 SK= 0.00E+00
   3640 T=   262. E= -.93227383E+03 F= -.93887425E+03 E0= -.93887425E+03  EK= 0.66004E+01 SP= 0.00E+00 SK= 0.00E+00
   3641 T=   269. E= -.93232321E+03 F= -.93911583E+03 E0= -.93911583E+03  EK= 0.67926E+01 SP= 0.00E+00 SK= 0.00E+00
   3642 T=   278. E= -.93233532E+03 F= -.93934389E+03 E0= -.93934389E+03  EK= 0.70086E+01 SP= 0.00E+00 SK= 0.00E+00
   3643 T=   279. E= -.93238182E+03 F= -.93941826E+03 E0= -.93941826E+03  EK= 0.70364E+01 SP= 0.00E+00 SK= 0.00E+00
   3644 T=   278. E= -.93232264E+03 F= -.93933514E+03 E0= -.93933514E+03  EK= 0.70125E+01 SP= 0.00E+00 SK= 0.00E+00
   3645 T=   276. E= -.93229752E+03 F= -.93926193E+03 E0= -.93926193E+03  EK= 0.69644E+01 SP= 0.00E+00 SK= 0.00E+00
   3646 T=   271. E= -.93239619E+03 F= -.93921943E+03 E0= -.93921943E+03  EK= 0.68232E+01 SP= 0.00E+00 SK= 0.00E+00
   3647 T=   267. E= -.93240138E+03 F= -.93913321E+03 E0= -.93913321E+03  EK= 0.67318E+01 SP= 0.00E+00 SK= 0.00E+00
   3648 T=   256. E= -.93249176E+03 F= -.93895678E+03 E0= -.93895678E+03  EK= 0.64650E+01 SP= 0.00E+00 SK= 0.00E+00
   3649 T=   251. E= -.93249240E+03 F= -.93881896E+03 E0= -.93881896E+03  EK= 0.63266E+01 SP= 0.00E+00 SK= 0.00E+00
   3650 T=   252. E= -.93239490E+03 F= -.93874125E+03 E0= -.93874125E+03  EK= 0.63464E+01 SP= 0.00E+00 SK= 0.00E+00
   3651 T=   253. E= -.93240995E+03 F= -.93878946E+03 E0= -.93878946E+03  EK= 0.63795E+01 SP= 0.00E+00 SK= 0.00E+00
   3652 T=   253. E= -.93251031E+03 F= -.93889575E+03 E0= -.93889575E+03  EK= 0.63854E+01 SP= 0.00E+00 SK= 0.00E+00
   3653 T=   253. E= -.93260892E+03 F= -.93897813E+03 E0= -.93897813E+03  EK= 0.63692E+01 SP= 0.00E+00 SK= 0.00E+00
   3654 T=   254. E= -.93261012E+03 F= -.93900651E+03 E0= -.93900651E+03  EK= 0.63964E+01 SP= 0.00E+00 SK= 0.00E+00
   3655 T=   254. E= -.93264413E+03 F= -.93904758E+03 E0= -.93904758E+03  EK= 0.64035E+01 SP= 0.00E+00 SK= 0.00E+00
   3656 T=   254. E= -.93271187E+03 F= -.93912628E+03 E0= -.93912628E+03  EK= 0.64144E+01 SP= 0.00E+00 SK= 0.00E+00
   3657 T=   254. E= -.93278211E+03 F= -.93918494E+03 E0= -.93918494E+03  EK= 0.64028E+01 SP= 0.00E+00 SK= 0.00E+00
   3658 T=   254. E= -.93276320E+03 F= -.93917511E+03 E0= -.93917511E+03  EK= 0.64119E+01 SP= 0.00E+00 SK= 0.00E+00
   3659 T=   254. E= -.93269688E+03 F= -.93909803E+03 E0= -.93909803E+03  EK= 0.64012E+01 SP= 0.00E+00 SK= 0.00E+00
   3660 T=   254. E= -.93262973E+03 F= -.93902763E+03 E0= -.93902763E+03  EK= 0.63979E+01 SP= 0.00E+00 SK= 0.00E+00
   3661 T=   252. E= -.93262460E+03 F= -.93898194E+03 E0= -.93898194E+03  EK= 0.63573E+01 SP= 0.00E+00 SK= 0.00E+00
   3662 T=   251. E= -.93267221E+03 F= -.93898722E+03 E0= -.93898722E+03  EK= 0.63150E+01 SP= 0.00E+00 SK= 0.00E+00
   3663 T=   253. E= -.93269517E+03 F= -.93906492E+03 E0= -.93906492E+03  EK= 0.63697E+01 SP= 0.00E+00 SK= 0.00E+00
   3664 T=   255. E= -.93271068E+03 F= -.93914797E+03 E0= -.93914797E+03  EK= 0.64373E+01 SP= 0.00E+00 SK= 0.00E+00
   3665 T=   254. E= -.93279020E+03 F= -.93918156E+03 E0= -.93918156E+03  EK= 0.63914E+01 SP= 0.00E+00 SK= 0.00E+00
       N       E                     dE             d eps       ncg     rms          rms(c)
DAV:   1    -0.824744649435E+03    0.10316E+03   -0.18642E+04 16238   0.258E+02
DAV:   2    -0.930339058821E+03   -0.10559E+03   -0.10549E+03 18932   0.550E+01
DAV:   3    -0.931698536351E+03   -0.13595E+01   -0.13592E+01 19428   0.681E+00
DAV:   4    -0.931723686624E+03   -0.25150E-01   -0.25148E-01 19132   0.913E-01    0.237E+01
DAV:   5    -0.928159325602E+03    0.35644E+01   -0.68446E+00 18908   0.645E+00    0.135E+01
DAV:   6    -0.927958181503E+03    0.20114E+00   -0.80988E+00 19564   0.655E+00    0.286E+00
DAV:   7    -0.928083201352E+03   -0.12502E+00   -0.14123E+00 18596   0.270E+00    0.140E+00
DAV:   8    -0.928076322907E+03    0.68784E-02   -0.14914E-01 18964   0.806E-01    0.750E-01
DAV:   9    -0.928067782954E+03    0.85400E-02   -0.42252E-02 18708   0.575E-01    0.358E-01
DAV:  10    -0.928062125781E+03    0.56572E-02   -0.98530E-03 18780   0.356E-01    0.151E-01
DAV:  11    -0.928060745105E+03    0.13807E-02   -0.94170E-03 19492   0.255E-01    0.119E-01
DAV:  12    -0.928059604945E+03    0.11402E-02   -0.17855E-03 18700   0.131E-01    0.470E-02
DAV:  13    -0.928058754545E+03    0.85040E-03   -0.72274E-04 17572   0.133E-01    0.487E-02
DAV:  14    -0.928058556517E+03    0.19803E-03   -0.67545E-04 18692   0.103E-01    0.356E-02
DAV:  15    -0.928058567935E+03   -0.11417E-04   -0.61864E-04 19484   0.538E-02
   3666 T=   249. E= -.93291298E+03 F= -.93917954E+03 E0= -.93917954E+03  EK= 0.62666E+01 SP= 0.00E+00 SK= 0.00E+00
   3667 T=   250. E= -.93297359E+03 F= -.93927669E+03 E0= -.93927669E+03  EK= 0.63031E+01 SP= 0.00E+00 SK= 0.00E+00
   3668 T=   257. E= -.93293310E+03 F= -.93939850E+03 E0= -.93939850E+03  EK= 0.64654E+01 SP= 0.00E+00 SK= 0.00E+00
   3669 T=   263. E= -.93290869E+03 F= -.93955013E+03 E0= -.93955013E+03  EK= 0.66414E+01 SP= 0.00E+00 SK= 0.00E+00
   3670 T=   269. E= -.93285480E+03 F= -.93963337E+03 E0= -.93963337E+03  EK= 0.67786E+01 SP= 0.00E+00 SK= 0.00E+00
   3671 T=   269. E= -.93285473E+03 F= -.93963449E+03 E0= -.93963449E+03  EK= 0.67798E+01 SP= 0.00E+00 SK= 0.00E+00
   3672 T=   267. E= -.93286855E+03 F= -.93960264E+03 E0= -.93960264E+03  EK= 0.67341E+01 SP= 0.00E+00 SK= 0.00E+00
   3673 T=   266. E= -.93289526E+03 F= -.93960862E+03 E0= -.93960862E+03  EK= 0.67134E+01 SP= 0.00E+00 SK= 0.00E+00
   3674 T=   265. E= -.93303191E+03 F= -.93971857E+03 E0= -.93971857E+03  EK= 0.66867E+01 SP= 0.00E+00 SK= 0.00E+00
   3675 T=   274. E= -.93303849E+03 F= -.93994866E+03 E0= -.93994866E+03  EK= 0.69102E+01 SP= 0.00E+00 SK= 0.00E+00
   3676 T=   285. E= -.93299041E+03 F= -.94018380E+03 E0= -.94018380E+03  EK= 0.71934E+01 SP= 0.00E+00 SK= 0.00E+00
   3677 T=   288. E= -.93303011E+03 F= -.94028894E+03 E0= -.94028894E+03  EK= 0.72588E+01 SP= 0.00E+00 SK= 0.00E+00
   3678 T=   288. E= -.93303001E+03 F= -.94029729E+03 E0= -.94029729E+03  EK= 0.72673E+01 SP= 0.00E+00 SK= 0.00E+00
   3679 T=   283. E= -.93302708E+03 F= -.94015394E+03 E0= -.94015394E+03  EK= 0.71269E+01 SP= 0.00E+00 SK= 0.00E+00
   3680 T=   275. E= -.93300120E+03 F= -.93993912E+03 E0= -.93993912E+03  EK= 0.69379E+01 SP= 0.00E+00 SK= 0.00E+00
   3681 T=   269. E= -.93293491E+03 F= -.93972516E+03 E0= -.93972516E+03  EK= 0.67902E+01 SP= 0.00E+00 SK= 0.00E+00
   3682 T=   267. E= -.93289259E+03 F= -.93961559E+03 E0= -.93961559E+03  EK= 0.67230E+01 SP= 0.00E+00 SK= 0.00E+00
   3683 T=   275. E= -.93277120E+03 F= -.93969066E+03 E0= -.93969066E+03  EK= 0.69195E+01 SP= 0.00E+00 SK= 0.00E+00
   3684 T=   282. E= -.93267760E+03 F= -.93978980E+03 E0= -.93978980E+03  EK= 0.71122E+01 SP= 0.00E+00 SK= 0.00E+00
   3685 T=   281. E= -.93277695E+03 F= -.93986621E+03 E0= -.93986621E+03  EK= 0.70893E+01 SP= 0.00E+00 SK= 0.00E+00
   3686 T=   277. E= -.93287156E+03 F= -.93985549E+03 E0= -.93985549E+03  EK= 0.69839E+01 SP= 0.00E+00 SK= 0.00E+00
   3687 T=   272. E= -.93288774E+03 F= -.93974457E+03 E0= -.93974457E+03  EK= 0.68568E+01 SP= 0.00E+00 SK= 0.00E+00
   3688 T=   265. E= -.93292625E+03 F= -.93959696E+03 E0= -.93959696E+03  EK= 0.66707E+01 SP= 0.00E+00 SK= 0.00E+00
   3689 T=   265. E= -.93288126E+03 F= -.93955719E+03 E0= -.93955719E+03  EK= 0.66759E+01 SP= 0.00E+00 SK= 0.00E+00
   3690 T=   269. E= -.93282943E+03 F= -.93960693E+03 E0= -.93960693E+03  EK= 0.67775E+01 SP= 0.00E+00 SK= 0.00E+00
   3691 T=   276. E= -.93283760E+03 F= -.93978910E+03 E0= -.93978910E+03  EK= 0.69515E+01 SP= 0.00E+00 SK= 0.00E+00
   3692 T=   289. E= -.93276079E+03 F= -.94003930E+03 E0= -.94003930E+03  EK= 0.72785E+01 SP= 0.00E+00 SK= 0.00E+00
       N       E                     dE             d eps       ncg     rms          rms(c)
DAV:   1    -0.878231198965E+03    0.49827E+02   -0.11931E+04 16238   0.210E+02
DAV:   2    -0.931415062745E+03   -0.53184E+02   -0.53147E+02 19212   0.391E+01
DAV:   3    -0.932022550139E+03   -0.60749E+00   -0.60738E+00 19436   0.453E+00
DAV:   4    -0.932034639492E+03   -0.12089E-01   -0.12088E-01 19164   0.619E-01    0.197E+01
DAV:   5    -0.929346334885E+03    0.26883E+01   -0.50428E+00 18740   0.565E+00    0.113E+01
DAV:   6    -0.929121176511E+03    0.22516E+00   -0.58132E+00 19580   0.566E+00    0.248E+00
DAV:   7    -0.929195939908E+03   -0.74763E-01   -0.10867E+00 18756   0.239E+00    0.121E+00
DAV:   8    -0.929184694222E+03    0.11246E-01   -0.11037E-01 19268   0.687E-01    0.689E-01
DAV:   9    -0.929173906490E+03    0.10788E-01   -0.41041E-02 18756   0.579E-01    0.338E-01
DAV:  10    -0.929167209706E+03    0.66968E-02   -0.98273E-03 19284   0.361E-01    0.164E-01
DAV:  11    -0.929165396880E+03    0.18128E-02   -0.10503E-02 19588   0.277E-01    0.128E-01
DAV:  12    -0.929163726306E+03    0.16706E-02   -0.26423E-03 19564   0.185E-01    0.513E-02
DAV:  13    -0.929163002284E+03    0.72402E-03   -0.86107E-04 19180   0.141E-01    0.540E-02
DAV:  14    -0.929162791871E+03    0.21041E-03   -0.84289E-04 19612   0.109E-01    0.245E-02
DAV:  15    -0.929162809047E+03   -0.17176E-04   -0.46970E-04 17900   0.437E-02
   3693 T=   297. E= -.93277778E+03 F= -.94027156E+03 E0= -.94027156E+03  EK= 0.74938E+01 SP= 0.00E+00 SK= 0.00E+00
   3694 T=   299. E= -.93283501E+03 F= -.94035929E+03 E0= -.94035929E+03  EK= 0.75243E+01 SP= 0.00E+00 SK= 0.00E+00
   3695 T=   292. E= -.93290887E+03 F= -.94027175E+03 E0= -.94027175E+03  EK= 0.73629E+01 SP= 0.00E+00 SK= 0.00E+00
   3696 T=   282. E= -.93301591E+03 F= -.94011595E+03 E0= -.94011595E+03  EK= 0.71000E+01 SP= 0.00E+00 SK= 0.00E+00
   3697 T=   275. E= -.93310555E+03 F= -.94003073E+03 E0= -.94003073E+03  EK= 0.69252E+01 SP= 0.00E+00 SK= 0.00E+00
   3698 T=   271. E= -.93323146E+03 F= -.94006735E+03 E0= -.94006735E+03  EK= 0.68359E+01 SP= 0.00E+00 SK= 0.00E+00
   3699 T=   269. E= -.93335047E+03 F= -.94012889E+03 E0= -.94012889E+03  EK= 0.67784E+01 SP= 0.00E+00 SK= 0.00E+00
   3700 T=   266. E= -.93346705E+03 F= -.94017118E+03 E0= -.94017118E+03  EK= 0.67041E+01 SP= 0.00E+00 SK= 0.00E+00
   3701 T=   261. E= -.93355040E+03 F= -.94014086E+03 E0= -.94014086E+03  EK= 0.65905E+01 SP= 0.00E+00 SK= 0.00E+00
   3702 T=   253. E= -.93362546E+03 F= -.94001360E+03 E0= -.94001360E+03  EK= 0.63881E+01 SP= 0.00E+00 SK= 0.00E+00
       N       E                     dE             d eps       ncg     rms          rms(c)
DAV:   1    -0.920269950131E+03    0.88928E+01   -0.34217E+03 16238   0.114E+02
DAV:   2    -0.929909519820E+03   -0.96396E+01   -0.96367E+01 19108   0.172E+01
DAV:   3    -0.930009060391E+03   -0.99541E-01   -0.99533E-01 19516   0.182E+00
DAV:   4    -0.930011267393E+03   -0.22070E-02   -0.22069E-02 19220   0.260E-01    0.107E+01
DAV:   5    -0.928838782422E+03    0.11725E+01   -0.21477E+00 20516   0.403E+00    0.586E+00
DAV:   6    -0.928707477931E+03    0.13130E+00   -0.18443E+00 19588   0.317E+00    0.174E+00
DAV:   7    -0.928717007006E+03   -0.95291E-02   -0.38475E-01 18788   0.167E+00    0.671E-01
DAV:   8    -0.928710119845E+03    0.68872E-02   -0.48810E-02 18860   0.553E-01    0.374E-01
DAV:   9    -0.928704323589E+03    0.57963E-02   -0.22177E-02 18492   0.363E-01    0.228E-01
DAV:  10    -0.928701191883E+03    0.31317E-02   -0.43708E-03 21908   0.272E-01    0.856E-02
DAV:  11    -0.928700275878E+03    0.91601E-03   -0.37055E-03 18988   0.187E-01    0.776E-02
DAV:  12    -0.928699488080E+03    0.78780E-03   -0.79483E-04 19364   0.142E-01    0.312E-02
DAV:  13    -0.928699212828E+03    0.27525E-03   -0.56548E-04 18700   0.112E-01    0.406E-02
DAV:  14    -0.928699157405E+03    0.55423E-04   -0.47152E-04 19268   0.733E-02
   3703 T=   244. E= -.93368255E+03 F= -.93984333E+03 E0= -.93984333E+03  EK= 0.61608E+01 SP= 0.00E+00 SK= 0.00E+00
   3704 T=   236. E= -.93371685E+03 F= -.93966552E+03 E0= -.93966552E+03  EK= 0.59487E+01 SP= 0.00E+00 SK= 0.00E+00
   3705 T=   228. E= -.93373432E+03 F= -.93949362E+03 E0= -.93949362E+03  EK= 0.57593E+01 SP= 0.00E+00 SK= 0.00E+00
   3706 T=   223. E= -.93374559E+03 F= -.93937615E+03 E0= -.93937615E+03  EK= 0.56306E+01 SP= 0.00E+00 SK= 0.00E+00
   3707 T=   220. E= -.93378669E+03 F= -.93933645E+03 E0= -.93933645E+03  EK= 0.55498E+01 SP= 0.00E+00 SK= 0.00E+00
   3708 T=   225. E= -.93369481E+03 F= -.93936795E+03 E0= -.93936795E+03  EK= 0.56731E+01 SP= 0.00E+00 SK= 0.00E+00
   3709 T=   234. E= -.93355958E+03 F= -.93947024E+03 E0= -.93947024E+03  EK= 0.59107E+01 SP= 0.00E+00 SK= 0.00E+00
   3710 T=   242. E= -.93345726E+03 F= -.93955644E+03 E0= -.93955644E+03  EK= 0.60992E+01 SP= 0.00E+00 SK= 0.00E+00
   3711 T=   250. E= -.93332119E+03 F= -.93961066E+03 E0= -.93961066E+03  EK= 0.62895E+01 SP= 0.00E+00 SK= 0.00E+00
   3712 T=   254. E= -.93321187E+03 F= -.93960946E+03 E0= -.93960946E+03  EK= 0.63976E+01 SP= 0.00E+00 SK= 0.00E+00
       N       E                     dE             d eps       ncg     rms          rms(c)
DAV:   1    -0.923310629863E+03    0.53886E+01   -0.22948E+03 16238   0.940E+01
DAV:   2    -0.929171281629E+03   -0.58607E+01   -0.58593E+01 19196   0.136E+01
DAV:   3    -0.929230996336E+03   -0.59715E-01   -0.59711E-01 19500   0.141E+00
DAV:   4    -0.929232316808E+03   -0.13205E-02   -0.13204E-02 19204   0.204E-01    0.955E+00
DAV:   5    -0.928476049274E+03    0.75627E+00   -0.14350E+00 20028   0.329E+00    0.533E+00
DAV:   6    -0.928437237704E+03    0.38812E-01   -0.14210E+00 19388   0.275E+00    0.142E+00
DAV:   7    -0.928452749682E+03   -0.15512E-01   -0.26509E-01 18860   0.134E+00    0.566E-01
DAV:   8    -0.928450145751E+03    0.26039E-02   -0.31199E-02 19076   0.432E-01    0.296E-01
DAV:   9    -0.928447937429E+03    0.22083E-02   -0.12188E-02 18636   0.273E-01    0.178E-01
DAV:  10    -0.928446229394E+03    0.17080E-02   -0.30186E-03 22748   0.212E-01    0.531E-02
DAV:  11    -0.928445791136E+03    0.43826E-03   -0.15739E-03 19268   0.113E-01    0.514E-02
DAV:  12    -0.928445355669E+03    0.43547E-03   -0.24459E-04 14692   0.830E-02    0.203E-02
DAV:  13    -0.928445216097E+03    0.13957E-03   -0.35236E-04 17524   0.797E-02    0.333E-02
DAV:  14    -0.928445198835E+03    0.17262E-04   -0.33500E-04 18060   0.503E-02
   3713 T=   257. E= -.93313494E+03 F= -.93960653E+03 E0= -.93960653E+03  EK= 0.64716E+01 SP= 0.00E+00 SK= 0.00E+00
   3714 T=   261. E= -.93307590E+03 F= -.93964329E+03 E0= -.93964329E+03  EK= 0.65674E+01 SP= 0.00E+00 SK= 0.00E+00
   3715 T=   262. E= -.93306698E+03 F= -.93967221E+03 E0= -.93967221E+03  EK= 0.66052E+01 SP= 0.00E+00 SK= 0.00E+00
   3716 T=   264. E= -.93301850E+03 F= -.93966459E+03 E0= -.93966459E+03  EK= 0.66461E+01 SP= 0.00E+00 SK= 0.00E+00
   3717 T=   262. E= -.93302556E+03 F= -.93963911E+03 E0= -.93963911E+03  EK= 0.66136E+01 SP= 0.00E+00 SK= 0.00E+00
   3718 T=   263. E= -.93300334E+03 F= -.93962207E+03 E0= -.93962207E+03  EK= 0.66187E+01 SP= 0.00E+00 SK= 0.00E+00
   3719 T=   264. E= -.93294882E+03 F= -.93959497E+03 E0= -.93959497E+03  EK= 0.66461E+01 SP= 0.00E+00 SK= 0.00E+00
   3720 T=   259. E= -.93301207E+03 F= -.93953171E+03 E0= -.93953171E+03  EK= 0.65196E+01 SP= 0.00E+00 SK= 0.00E+00
   3721 T=   258. E= -.93296492E+03 F= -.93946696E+03 E0= -.93946696E+03  EK= 0.65020E+01 SP= 0.00E+00 SK= 0.00E+00
   3722 T=   256. E= -.93294527E+03 F= -.93940249E+03 E0= -.93940249E+03  EK= 0.64572E+01 SP= 0.00E+00 SK= 0.00E+00
       N       E                     dE             d eps       ncg     rms          rms(c)
DAV:   1    -0.922521967515E+03    0.59232E+01   -0.25249E+03 16238   0.984E+01
DAV:   2    -0.928977594858E+03   -0.64556E+01   -0.64539E+01 19204   0.142E+01
DAV:   3    -0.929044446963E+03   -0.66852E-01   -0.66848E-01 19492   0.149E+00
DAV:   4    -0.929045937180E+03   -0.14902E-02   -0.14902E-02 19260   0.216E-01    0.103E+01
DAV:   5    -0.928169045997E+03    0.87689E+00   -0.18351E+00 20236   0.351E+00    0.566E+00
DAV:   6    -0.928135619700E+03    0.33426E-01   -0.15354E+00 19452   0.275E+00    0.157E+00
DAV:   7    -0.928164174638E+03   -0.28555E-01   -0.28296E-01 18828   0.131E+00    0.609E-01
DAV:   8    -0.928162366913E+03    0.18077E-02   -0.28015E-02 18444   0.420E-01    0.309E-01
DAV:   9    -0.928161331830E+03    0.10351E-02   -0.12536E-02 18556   0.265E-01    0.169E-01
DAV:  10    -0.928160296357E+03    0.10355E-02   -0.30623E-03 22108   0.185E-01    0.461E-02
DAV:  11    -0.928160113719E+03    0.18264E-03   -0.10404E-03 19052   0.799E-02    0.423E-02
DAV:  12    -0.928159885238E+03    0.22848E-03   -0.14136E-04 13340   0.608E-02    0.167E-02
DAV:  13    -0.928159807379E+03    0.77860E-04   -0.23723E-04 15388   0.574E-02
   3723 T=   253. E= -.93293337E+03 F= -.93930661E+03 E0= -.93930661E+03  EK= 0.63732E+01 SP= 0.00E+00 SK= 0.00E+00
   3724 T=   253. E= -.93294140E+03 F= -.93932486E+03 E0= -.93932486E+03  EK= 0.63835E+01 SP= 0.00E+00 SK= 0.00E+00
   3725 T=   254. E= -.93293560E+03 F= -.93932561E+03 E0= -.93932561E+03  EK= 0.63900E+01 SP= 0.00E+00 SK= 0.00E+00
   3726 T=   258. E= -.93286286E+03 F= -.93937094E+03 E0= -.93937094E+03  EK= 0.65081E+01 SP= 0.00E+00 SK= 0.00E+00
   3727 T=   265. E= -.93279052E+03 F= -.93947941E+03 E0= -.93947941E+03  EK= 0.66889E+01 SP= 0.00E+00 SK= 0.00E+00
   3728 T=   270. E= -.93279939E+03 F= -.93960830E+03 E0= -.93960830E+03  EK= 0.68089E+01 SP= 0.00E+00 SK= 0.00E+00
   3729 T=   271. E= -.93290077E+03 F= -.93972594E+03 E0= -.93972594E+03  EK= 0.68252E+01 SP= 0.00E+00 SK= 0.00E+00
   3730 T=   273. E= -.93291806E+03 F= -.93980226E+03 E0= -.93980226E+03  EK= 0.68842E+01 SP= 0.00E+00 SK= 0.00E+00
   3731 T=   275. E= -.93290614E+03 F= -.93984741E+03 E0= -.93984741E+03  EK= 0.69413E+01 SP= 0.00E+00 SK= 0.00E+00
   3732 T=   274. E= -.93290157E+03 F= -.93980507E+03 E0= -.93980507E+03  EK= 0.69035E+01 SP= 0.00E+00 SK= 0.00E+00
       N       E                     dE             d eps       ncg     rms          rms(c)
DAV:   1    -0.921362029394E+03    0.67979E+01   -0.30353E+03 16238   0.107E+02
DAV:   2    -0.929664418835E+03   -0.83024E+01   -0.82999E+01 19092   0.161E+01
DAV:   3    -0.929747921471E+03   -0.83503E-01   -0.83497E-01 19556   0.167E+00
DAV:   4    -0.929749770134E+03   -0.18487E-02   -0.18486E-02 19164   0.239E-01    0.106E+01
DAV:   5    -0.928599866620E+03    0.11499E+01   -0.22251E+00 20012   0.387E+00    0.570E+00
DAV:   6    -0.928477031658E+03    0.12283E+00   -0.16558E+00 19508   0.294E+00    0.173E+00
DAV:   7    -0.928496504768E+03   -0.19473E-01   -0.35160E-01 19172   0.155E+00    0.667E-01
DAV:   8    -0.928491489821E+03    0.50149E-02   -0.41980E-02 18972   0.516E-01    0.359E-01
DAV:   9    -0.928487369724E+03    0.41201E-02   -0.17737E-02 18596   0.321E-01    0.196E-01
DAV:  10    -0.928485181419E+03    0.21883E-02   -0.35189E-03 22092   0.240E-01    0.768E-02
DAV:  11    -0.928484530602E+03    0.65082E-03   -0.30016E-03 19140   0.164E-01    0.777E-02
DAV:  12    -0.928483935988E+03    0.59461E-03   -0.67475E-04 19212   0.114E-01    0.299E-02
DAV:  13    -0.928483623646E+03    0.31234E-03   -0.27010E-04 15412   0.108E-01    0.308E-02
DAV:  14    -0.928483593225E+03    0.30421E-04   -0.46064E-04 19332   0.688E-02
   3733 T=   267. E= -.93290454E+03 F= -.93962438E+03 E0= -.93962438E+03  EK= 0.67198E+01 SP= 0.00E+00 SK= 0.00E+00
   3734 T=   261. E= -.93289201E+03 F= -.93947768E+03 E0= -.93947768E+03  EK= 0.65857E+01 SP= 0.00E+00 SK= 0.00E+00
   3735 T=   257. E= -.93289021E+03 F= -.93936249E+03 E0= -.93936249E+03  EK= 0.64723E+01 SP= 0.00E+00 SK= 0.00E+00
   3736 T=   256. E= -.93291240E+03 F= -.93935292E+03 E0= -.93935292E+03  EK= 0.64405E+01 SP= 0.00E+00 SK= 0.00E+00
   3737 T=   263. E= -.93280218E+03 F= -.93942680E+03 E0= -.93942680E+03  EK= 0.66246E+01 SP= 0.00E+00 SK= 0.00E+00
   3738 T=   265. E= -.93279008E+03 F= -.93947293E+03 E0= -.93947293E+03  EK= 0.66828E+01 SP= 0.00E+00 SK= 0.00E+00
   3739 T=   264. E= -.93278083E+03 F= -.93943437E+03 E0= -.93943437E+03  EK= 0.66535E+01 SP= 0.00E+00 SK= 0.00E+00
   3740 T=   263. E= -.93273076E+03 F= -.93936117E+03 E0= -.93936117E+03  EK= 0.66304E+01 SP= 0.00E+00 SK= 0.00E+00
   3741 T=   263. E= -.93270062E+03 F= -.93931770E+03 E0= -.93931770E+03  EK= 0.66171E+01 SP= 0.00E+00 SK= 0.00E+00
   3742 T=   268. E= -.93262562E+03 F= -.93938065E+03 E0= -.93938065E+03  EK= 0.67550E+01 SP= 0.00E+00 SK= 0.00E+00
       N       E                     dE             d eps       ncg     rms          rms(c)
DAV:   1    -0.922895163277E+03    0.55885E+01   -0.24575E+03 16238   0.970E+01
DAV:   2    -0.929283820414E+03   -0.63887E+01   -0.63867E+01 19420   0.142E+01
DAV:   3    -0.929351400552E+03   -0.67580E-01   -0.67575E-01 19532   0.150E+00
DAV:   4    -0.929352989693E+03   -0.15891E-02   -0.15891E-02 19388   0.219E-01    0.101E+01
DAV:   5    -0.928416562113E+03    0.93643E+00   -0.19648E+00 19876   0.358E+00    0.552E+00
DAV:   6    -0.928353442265E+03    0.63120E-01   -0.14173E+00 19444   0.267E+00    0.169E+00
DAV:   7    -0.928374653702E+03   -0.21211E-01   -0.29216E-01 18996   0.141E+00    0.665E-01
DAV:   8    -0.928372081906E+03    0.25718E-02   -0.38628E-02 18932   0.444E-01    0.369E-01
DAV:   9    -0.928368433312E+03    0.36486E-02   -0.13619E-02 18516   0.278E-01    0.179E-01
DAV:  10    -0.928366116867E+03    0.23164E-02   -0.26006E-03 22188   0.224E-01    0.707E-02
DAV:  11    -0.928365622009E+03    0.49486E-03   -0.29864E-03 19556   0.146E-01    0.735E-02
DAV:  12    -0.928365155033E+03    0.46698E-03   -0.85038E-04 18540   0.861E-02    0.328E-02
DAV:  13    -0.928364944054E+03    0.21098E-03   -0.18552E-04 14116   0.708E-02    0.386E-02
DAV:  14    -0.928364871046E+03    0.73007E-04   -0.31034E-04 16988   0.658E-02
   3743 T=   273. E= -.93259566E+03 F= -.93948901E+03 E0= -.93948901E+03  EK= 0.68934E+01 SP= 0.00E+00 SK= 0.00E+00
   3744 T=   282. E= -.93253779E+03 F= -.93965704E+03 E0= -.93965704E+03  EK= 0.71193E+01 SP= 0.00E+00 SK= 0.00E+00
   3745 T=   291. E= -.93245119E+03 F= -.93978168E+03 E0= -.93978168E+03  EK= 0.73305E+01 SP= 0.00E+00 SK= 0.00E+00
   3746 T=   292. E= -.93244331E+03 F= -.93980697E+03 E0= -.93980697E+03  EK= 0.73637E+01 SP= 0.00E+00 SK= 0.00E+00
   3747 T=   289. E= -.93246886E+03 F= -.93976313E+03 E0= -.93976313E+03  EK= 0.72943E+01 SP= 0.00E+00 SK= 0.00E+00
   3748 T=   283. E= -.93257551E+03 F= -.93970132E+03 E0= -.93970132E+03  EK= 0.71258E+01 SP= 0.00E+00 SK= 0.00E+00
   3749 T=   280. E= -.93267046E+03 F= -.93971975E+03 E0= -.93971975E+03  EK= 0.70493E+01 SP= 0.00E+00 SK= 0.00E+00
   3750 T=   282. E= -.93268530E+03 F= -.93979921E+03 E0= -.93979921E+03  EK= 0.71139E+01 SP= 0.00E+00 SK= 0.00E+00
   3751 T=   285. E= -.93271790E+03 F= -.93991037E+03 E0= -.93991037E+03  EK= 0.71925E+01 SP= 0.00E+00 SK= 0.00E+00
   3752 T=   285. E= -.93274127E+03 F= -.93992333E+03 E0= -.93992333E+03  EK= 0.71821E+01 SP= 0.00E+00 SK= 0.00E+00
       N       E                     dE             d eps       ncg     rms          rms(c)
DAV:   1    -0.920888336051E+03    0.74766E+01   -0.33435E+03 16238   0.113E+02
DAV:   2    -0.929999149539E+03   -0.91108E+01   -0.91081E+01 19140   0.169E+01
DAV:   3    -0.930091550727E+03   -0.92401E-01   -0.92394E-01 19532   0.177E+00
DAV:   4    -0.930093558948E+03   -0.20082E-02   -0.20081E-02 19156   0.251E-01    0.109E+01
DAV:   5    -0.928843970138E+03    0.12496E+01   -0.23759E+00 19956   0.394E+00    0.590E+00
DAV:   6    -0.928701872040E+03    0.14210E+00   -0.18924E+00 19628   0.311E+00    0.175E+00
DAV:   7    -0.928716345258E+03   -0.14473E-01   -0.39639E-01 19420   0.166E+00    0.700E-01
DAV:   8    -0.928710006388E+03    0.63389E-02   -0.49621E-02 18668   0.556E-01    0.355E-01
DAV:   9    -0.928704818867E+03    0.51875E-02   -0.15788E-02 18564   0.297E-01    0.185E-01
DAV:  10    -0.928702181616E+03    0.26373E-02   -0.33314E-03 22148   0.235E-01    0.734E-02
DAV:  11    -0.928701440647E+03    0.74097E-03   -0.29572E-03 19244   0.157E-01    0.769E-02
DAV:  12    -0.928700841648E+03    0.59900E-03   -0.72435E-04 18868   0.983E-02    0.292E-02
DAV:  13    -0.928700562940E+03    0.27871E-03   -0.26550E-04 15588   0.991E-02    0.362E-02
DAV:  14    -0.928700536656E+03    0.26284E-04   -0.46143E-04 19236   0.602E-02
   3753 T=   279. E= -.93280323E+03 F= -.93983460E+03 E0= -.93983460E+03  EK= 0.70314E+01 SP= 0.00E+00 SK= 0.00E+00
   3754 T=   270. E= -.93280514E+03 F= -.93962146E+03 E0= -.93962146E+03  EK= 0.68163E+01 SP= 0.00E+00 SK= 0.00E+00
   3755 T=   263. E= -.93276076E+03 F= -.93938632E+03 E0= -.93938632E+03  EK= 0.66256E+01 SP= 0.00E+00 SK= 0.00E+00
   3756 T=   259. E= -.93268580E+03 F= -.93922289E+03 E0= -.93922289E+03  EK= 0.65371E+01 SP= 0.00E+00 SK= 0.00E+00
   3757 T=   259. E= -.93263809E+03 F= -.93915879E+03 E0= -.93915879E+03  EK= 0.65207E+01 SP= 0.00E+00 SK= 0.00E+00
   3758 T=   263. E= -.93260972E+03 F= -.93924864E+03 E0= -.93924864E+03  EK= 0.66389E+01 SP= 0.00E+00 SK= 0.00E+00
   3759 T=   271. E= -.93252560E+03 F= -.93935648E+03 E0= -.93935648E+03  EK= 0.68309E+01 SP= 0.00E+00 SK= 0.00E+00
   3760 T=   274. E= -.93254881E+03 F= -.93946261E+03 E0= -.93946261E+03  EK= 0.69138E+01 SP= 0.00E+00 SK= 0.00E+00
   3761 T=   275. E= -.93255648E+03 F= -.93948770E+03 E0= -.93948770E+03  EK= 0.69312E+01 SP= 0.00E+00 SK= 0.00E+00
   3762 T=   274. E= -.93247605E+03 F= -.93937242E+03 E0= -.93937242E+03  EK= 0.68964E+01 SP= 0.00E+00 SK= 0.00E+00
       N       E                     dE             d eps       ncg     rms          rms(c)
DAV:   1    -0.921916864549E+03    0.67837E+01   -0.26774E+03 16238   0.101E+02
DAV:   2    -0.928954356324E+03   -0.70375E+01   -0.70355E+01 19068   0.148E+01
DAV:   3    -0.929028173798E+03   -0.73817E-01   -0.73813E-01 19532   0.156E+00
DAV:   4    -0.929029835019E+03   -0.16612E-02   -0.16612E-02 19204   0.225E-01    0.104E+01
DAV:   5    -0.928105312550E+03    0.92452E+00   -0.18797E+00 20596   0.373E+00    0.573E+00
DAV:   6    -0.928041637365E+03    0.63675E-01   -0.15275E+00 19500   0.291E+00    0.167E+00
DAV:   7    -0.928056507891E+03   -0.14871E-01   -0.31234E-01 19172   0.140E+00    0.639E-01
DAV:   8    -0.928050064951E+03    0.64429E-02   -0.32110E-02 19228   0.460E-01    0.306E-01
DAV:   9    -0.928045335831E+03    0.47291E-02   -0.11828E-02 18540   0.287E-01    0.161E-01
DAV:  10    -0.928042868040E+03    0.24678E-02   -0.36054E-03 21716   0.221E-01    0.616E-02
DAV:  11    -0.928042095751E+03    0.77229E-03   -0.17178E-03 19196   0.120E-01    0.615E-02
DAV:  12    -0.928041443850E+03    0.65190E-03   -0.44880E-04 16804   0.966E-02    0.264E-02
DAV:  13    -0.928041243082E+03    0.20077E-03   -0.43394E-04 17748   0.854E-02    0.368E-02
DAV:  14    -0.928041225672E+03    0.17410E-04   -0.36994E-04 18932   0.470E-02
   3763 T=   266. E= -.93244015E+03 F= -.93914548E+03 E0= -.93914548E+03  EK= 0.67053E+01 SP= 0.00E+00 SK= 0.00E+00
   3764 T=   259. E= -.93248182E+03 F= -.93900615E+03 E0= -.93900615E+03  EK= 0.65243E+01 SP= 0.00E+00 SK= 0.00E+00
   3765 T=   259. E= -.93245502E+03 F= -.93898543E+03 E0= -.93898543E+03  EK= 0.65304E+01 SP= 0.00E+00 SK= 0.00E+00
   3766 T=   264. E= -.93245510E+03 F= -.93911925E+03 E0= -.93911925E+03  EK= 0.66642E+01 SP= 0.00E+00 SK= 0.00E+00
   3767 T=   269. E= -.93252311E+03 F= -.93930726E+03 E0= -.93930726E+03  EK= 0.67842E+01 SP= 0.00E+00 SK= 0.00E+00
   3768 T=   273. E= -.93257836E+03 F= -.93945233E+03 E0= -.93945233E+03  EK= 0.68740E+01 SP= 0.00E+00 SK= 0.00E+00
   3769 T=   271. E= -.93263360E+03 F= -.93946912E+03 E0= -.93946912E+03  EK= 0.68355E+01 SP= 0.00E+00 SK= 0.00E+00
   3770 T=   266. E= -.93266825E+03 F= -.93936212E+03 E0= -.93936212E+03  EK= 0.66939E+01 SP= 0.00E+00 SK= 0.00E+00
   3771 T=   255. E= -.93274190E+03 F= -.93917397E+03 E0= -.93917397E+03  EK= 0.64321E+01 SP= 0.00E+00 SK= 0.00E+00
   3772 T=   247. E= -.93276950E+03 F= -.93900494E+03 E0= -.93900494E+03  EK= 0.62354E+01 SP= 0.00E+00 SK= 0.00E+00
       N       E                     dE             d eps       ncg     rms          rms(c)
DAV:   1    -0.921267417121E+03    0.67738E+01   -0.27842E+03 16238   0.103E+02
DAV:   2    -0.928782088015E+03   -0.75147E+01   -0.75127E+01 19220   0.153E+01
DAV:   3    -0.928860775824E+03   -0.78688E-01   -0.78683E-01 19516   0.161E+00
DAV:   4    -0.928862565047E+03   -0.17892E-02   -0.17892E-02 19220   0.232E-01    0.104E+01
DAV:   5    -0.927875745134E+03    0.98682E+00   -0.21162E+00 19828   0.380E+00    0.564E+00
DAV:   6    -0.927814388836E+03    0.61356E-01   -0.14948E+00 19380   0.272E+00    0.176E+00
DAV:   7    -0.927832814738E+03   -0.18426E-01   -0.29296E-01 18644   0.138E+00    0.643E-01
DAV:   8    -0.927828800124E+03    0.40146E-02   -0.34391E-02 18860   0.462E-01    0.313E-01
DAV:   9    -0.927825588782E+03    0.32113E-02   -0.12013E-02 18364   0.257E-01    0.157E-01
DAV:  10    -0.927824033478E+03    0.15553E-02   -0.26004E-03 22180   0.186E-01    0.547E-02
DAV:  11    -0.927823601365E+03    0.43211E-03   -0.13595E-03 18956   0.986E-02    0.518E-02
DAV:  12    -0.927823192040E+03    0.40932E-03   -0.22162E-04 14316   0.772E-02    0.187E-02
DAV:  13    -0.927823041339E+03    0.15070E-03   -0.30809E-04 16492   0.748E-02    0.291E-02
DAV:  14    -0.927823022565E+03    0.18774E-04   -0.27566E-04 16380   0.463E-02
   3773 T=   247. E= -.93267469E+03 F= -.93890421E+03 E0= -.93890421E+03  EK= 0.62295E+01 SP= 0.00E+00 SK= 0.00E+00
   3774 T=   246. E= -.93268988E+03 F= -.93888198E+03 E0= -.93888198E+03  EK= 0.61921E+01 SP= 0.00E+00 SK= 0.00E+00
   3775 T=   242. E= -.93283434E+03 F= -.93892584E+03 E0= -.93892584E+03  EK= 0.60915E+01 SP= 0.00E+00 SK= 0.00E+00
   3776 T=   239. E= -.93295216E+03 F= -.93896620E+03 E0= -.93896620E+03  EK= 0.60140E+01 SP= 0.00E+00 SK= 0.00E+00
   3777 T=   239. E= -.93299790E+03 F= -.93901654E+03 E0= -.93901654E+03  EK= 0.60186E+01 SP= 0.00E+00 SK= 0.00E+00
   3778 T=   242. E= -.93296589E+03 F= -.93905590E+03 E0= -.93905590E+03  EK= 0.60900E+01 SP= 0.00E+00 SK= 0.00E+00
   3779 T=   243. E= -.93291208E+03 F= -.93904753E+03 E0= -.93904753E+03  EK= 0.61355E+01 SP= 0.00E+00 SK= 0.00E+00
   3780 T=   247. E= -.93287850E+03 F= -.93909323E+03 E0= -.93909323E+03  EK= 0.62147E+01 SP= 0.00E+00 SK= 0.00E+00
   3781 T=   251. E= -.93281504E+03 F= -.93914818E+03 E0= -.93914818E+03  EK= 0.63331E+01 SP= 0.00E+00 SK= 0.00E+00
   3782 T=   258. E= -.93276540E+03 F= -.93927909E+03 E0= -.93927909E+03  EK= 0.65137E+01 SP= 0.00E+00 SK= 0.00E+00
       N       E                     dE             d eps       ncg     rms          rms(c)
DAV:   1    -0.922271257236E+03    0.55518E+01   -0.26969E+03 16238   0.102E+02
DAV:   2    -0.929474497139E+03   -0.72032E+01   -0.72014E+01 19100   0.150E+01
DAV:   3    -0.929548962954E+03   -0.74466E-01   -0.74460E-01 19548   0.157E+00
DAV:   4    -0.929550681498E+03   -0.17185E-02   -0.17185E-02 19132   0.226E-01    0.101E+01
DAV:   5    -0.928453306534E+03    0.10974E+01   -0.21890E+00 20644   0.405E+00    0.540E+00
DAV:   6    -0.928338288344E+03    0.11502E+00   -0.15234E+00 19604   0.292E+00    0.176E+00
DAV:   7    -0.928352215016E+03   -0.13927E-01   -0.32438E-01 19020   0.138E+00    0.648E-01
DAV:   8    -0.928346132920E+03    0.60821E-02   -0.29420E-02 18988   0.483E-01    0.303E-01
DAV:   9    -0.928342642959E+03    0.34900E-02   -0.13620E-02 18740   0.297E-01    0.173E-01
DAV:  10    -0.928340918687E+03    0.17243E-02   -0.39741E-03 21476   0.208E-01    0.570E-02
DAV:  11    -0.928340420904E+03    0.49778E-03   -0.12735E-03 18796   0.102E-01    0.536E-02
DAV:  12    -0.928339984374E+03    0.43653E-03   -0.28417E-04 15660   0.897E-02    0.210E-02
DAV:  13    -0.928339865381E+03    0.11899E-03   -0.38797E-04 17876   0.786E-02    0.311E-02
DAV:  14    -0.928339849967E+03    0.15414E-04   -0.23813E-04 15268   0.399E-02
   3783 T=   268. E= -.93266331E+03 F= -.93941357E+03 E0= -.93941357E+03  EK= 0.67503E+01 SP= 0.00E+00 SK= 0.00E+00
   3784 T=   277. E= -.93266758E+03 F= -.93965776E+03 E0= -.93965776E+03  EK= 0.69902E+01 SP= 0.00E+00 SK= 0.00E+00
   3785 T=   282. E= -.93274190E+03 F= -.93984686E+03 E0= -.93984686E+03  EK= 0.71050E+01 SP= 0.00E+00 SK= 0.00E+00
   3786 T=   288. E= -.93279782E+03 F= -.94004690E+03 E0= -.94004690E+03  EK= 0.72491E+01 SP= 0.00E+00 SK= 0.00E+00
   3787 T=   293. E= -.93279701E+03 F= -.94017371E+03 E0= -.94017371E+03  EK= 0.73767E+01 SP= 0.00E+00 SK= 0.00E+00
   3788 T=   295. E= -.93278397E+03 F= -.94022483E+03 E0= -.94022483E+03  EK= 0.74409E+01 SP= 0.00E+00 SK= 0.00E+00
   3789 T=   295. E= -.93277166E+03 F= -.94021614E+03 E0= -.94021614E+03  EK= 0.74445E+01 SP= 0.00E+00 SK= 0.00E+00
   3790 T=   291. E= -.93276215E+03 F= -.94010159E+03 E0= -.94010159E+03  EK= 0.73394E+01 SP= 0.00E+00 SK= 0.00E+00
   3791 T=   287. E= -.93270990E+03 F= -.93995240E+03 E0= -.93995240E+03  EK= 0.72425E+01 SP= 0.00E+00 SK= 0.00E+00
   3792 T=   285. E= -.93260753E+03 F= -.93980378E+03 E0= -.93980378E+03  EK= 0.71963E+01 SP= 0.00E+00 SK= 0.00E+00
       N       E                     dE             d eps       ncg     rms          rms(c)
DAV:   1    -0.921325056971E+03    0.70148E+01   -0.30282E+03 16238   0.108E+02
DAV:   2    -0.929645316676E+03   -0.83203E+01   -0.83180E+01 19148   0.161E+01
DAV:   3    -0.929730651987E+03   -0.85335E-01   -0.85330E-01 19484   0.171E+00
DAV:   4    -0.929732533798E+03   -0.18818E-02   -0.18817E-02 19212   0.243E-01    0.110E+01
DAV:   5    -0.928648207037E+03    0.10843E+01   -0.23022E+00 19756   0.390E+00    0.598E+00
DAV:   6    -0.928564405892E+03    0.83801E-01   -0.16067E+00 19500   0.300E+00    0.181E+00
DAV:   7    -0.928587875753E+03   -0.23470E-01   -0.36062E-01 19452   0.151E+00    0.705E-01
DAV:   8    -0.928580781742E+03    0.70940E-02   -0.38621E-02 19044   0.474E-01    0.379E-01
DAV:   9    -0.928573998045E+03    0.67837E-02   -0.14411E-02 18676   0.336E-01    0.168E-01
DAV:  10    -0.928570835961E+03    0.31621E-02   -0.35300E-03 21396   0.252E-01    0.874E-02
DAV:  11    -0.928569586983E+03    0.12490E-02   -0.37475E-03 19276   0.197E-01    0.872E-02
DAV:  12    -0.928568827462E+03    0.75952E-03   -0.11662E-03 19500   0.127E-01    0.371E-02
DAV:  13    -0.928568449404E+03    0.37806E-03   -0.39909E-04 17836   0.103E-01    0.420E-02
DAV:  14    -0.928568376161E+03    0.73243E-04   -0.47847E-04 19140   0.734E-02
   3793 T=   277. E= -.93267540E+03 F= -.93965953E+03 E0= -.93965953E+03  EK= 0.69841E+01 SP= 0.00E+00 SK= 0.00E+00
   3794 T=   268. E= -.93282325E+03 F= -.93958608E+03 E0= -.93958608E+03  EK= 0.67628E+01 SP= 0.00E+00 SK= 0.00E+00
   3795 T=   264. E= -.93294011E+03 F= -.93959490E+03 E0= -.93959490E+03  EK= 0.66548E+01 SP= 0.00E+00 SK= 0.00E+00
   3796 T=   262. E= -.93306146E+03 F= -.93966652E+03 E0= -.93966652E+03  EK= 0.66051E+01 SP= 0.00E+00 SK= 0.00E+00
   3797 T=   267. E= -.93303537E+03 F= -.93976497E+03 E0= -.93976497E+03  EK= 0.67296E+01 SP= 0.00E+00 SK= 0.00E+00
   3798 T=   272. E= -.93294773E+03 F= -.93980263E+03 E0= -.93980263E+03  EK= 0.68549E+01 SP= 0.00E+00 SK= 0.00E+00
   3799 T=   268. E= -.93295685E+03 F= -.93970425E+03 E0= -.93970425E+03  EK= 0.67474E+01 SP= 0.00E+00 SK= 0.00E+00
   3800 T=   262. E= -.93297661E+03 F= -.93958300E+03 E0= -.93958300E+03  EK= 0.66064E+01 SP= 0.00E+00 SK= 0.00E+00
   3801 T=   258. E= -.93302927E+03 F= -.93952069E+03 E0= -.93952069E+03  EK= 0.64914E+01 SP= 0.00E+00 SK= 0.00E+00
   3802 T=   260. E= -.93308131E+03 F= -.93964066E+03 E0= -.93964066E+03  EK= 0.65594E+01 SP= 0.00E+00 SK= 0.00E+00
       N       E                     dE             d eps       ncg     rms          rms(c)
DAV:   1    -0.922567392073E+03    0.60011E+01   -0.25884E+03 16238   0.992E+01
DAV:   2    -0.929617775261E+03   -0.70504E+01   -0.70484E+01 19172   0.149E+01
DAV:   3    -0.929688595287E+03   -0.70820E-01   -0.70816E-01 19540   0.156E+00
DAV:   4    -0.929690091384E+03   -0.14961E-02   -0.14960E-02 19196   0.221E-01    0.104E+01
DAV:   5    -0.928823086390E+03    0.86700E+00   -0.18354E+00 19740   0.354E+00    0.572E+00
DAV:   6    -0.928793693268E+03    0.29393E-01   -0.15565E+00 19516   0.290E+00    0.160E+00
DAV:   7    -0.928817539166E+03   -0.23846E-01   -0.31619E-01 18644   0.140E+00    0.645E-01
DAV:   8    -0.928813893496E+03    0.36457E-02   -0.33843E-02 18876   0.442E-01    0.321E-01
DAV:   9    -0.928811520766E+03    0.23727E-02   -0.11039E-02 18372   0.244E-01    0.158E-01
DAV:  10    -0.928810034388E+03    0.14864E-02   -0.22928E-03 21892   0.185E-01    0.507E-02
DAV:  11    -0.928809724273E+03    0.31011E-03   -0.13933E-03 19204   0.101E-01    0.483E-02
DAV:  12    -0.928809473759E+03    0.25051E-03   -0.20927E-04 13620   0.564E-02    0.206E-02
DAV:  13    -0.928809347530E+03    0.12623E-03   -0.21013E-04 14284   0.663E-02    0.301E-02
DAV:  14    -0.928809325979E+03    0.21551E-04   -0.19703E-04 14332   0.427E-02
   3803 T=   269. E= -.93314018E+03 F= -.93992093E+03 E0= -.93992093E+03  EK= 0.67807E+01 SP= 0.00E+00 SK= 0.00E+00
   3804 T=   276. E= -.93314050E+03 F= -.94009879E+03 E0= -.94009879E+03  EK= 0.69583E+01 SP= 0.00E+00 SK= 0.00E+00
   3805 T=   277. E= -.93318239E+03 F= -.94016998E+03 E0= -.94016998E+03  EK= 0.69876E+01 SP= 0.00E+00 SK= 0.00E+00
   3806 T=   273. E= -.93317885E+03 F= -.94005511E+03 E0= -.94005511E+03  EK= 0.68763E+01 SP= 0.00E+00 SK= 0.00E+00
   3807 T=   265. E= -.93318830E+03 F= -.93986454E+03 E0= -.93986454E+03  EK= 0.66762E+01 SP= 0.00E+00 SK= 0.00E+00
   3808 T=   259. E= -.93320676E+03 F= -.93974405E+03 E0= -.93974405E+03  EK= 0.65373E+01 SP= 0.00E+00 SK= 0.00E+00
   3809 T=   262. E= -.93317386E+03 F= -.93976773E+03 E0= -.93976773E+03  EK= 0.65939E+01 SP= 0.00E+00 SK= 0.00E+00
   3810 T=   270. E= -.93306658E+03 F= -.93986213E+03 E0= -.93986213E+03  EK= 0.67956E+01 SP= 0.00E+00 SK= 0.00E+00
   3811 T=   277. E= -.93297935E+03 F= -.93995087E+03 E0= -.93995087E+03  EK= 0.69715E+01 SP= 0.00E+00 SK= 0.00E+00
   3812 T=   274. E= -.93303959E+03 F= -.93994918E+03 E0= -.93994918E+03  EK= 0.69096E+01 SP= 0.00E+00 SK= 0.00E+00
   3813 T=   264. E= -.93315947E+03 F= -.93981019E+03 E0= -.93981019E+03  EK= 0.66507E+01 SP= 0.00E+00 SK= 0.00E+00
   3814 T=   254. E= -.93322845E+03 F= -.93962550E+03 E0= -.93962550E+03  EK= 0.63971E+01 SP= 0.00E+00 SK= 0.00E+00
   3815 T=   248. E= -.93324502E+03 F= -.93949994E+03 E0= -.93949994E+03  EK= 0.62549E+01 SP= 0.00E+00 SK= 0.00E+00
   3816 T=   253. E= -.93313396E+03 F= -.93951415E+03 E0= -.93951415E+03  EK= 0.63802E+01 SP= 0.00E+00 SK= 0.00E+00
   3817 T=   265. E= -.93304699E+03 F= -.93971487E+03 E0= -.93971487E+03  EK= 0.66679E+01 SP= 0.00E+00 SK= 0.00E+00
   3818 T=   271. E= -.93308795E+03 F= -.93992157E+03 E0= -.93992157E+03  EK= 0.68336E+01 SP= 0.00E+00 SK= 0.00E+00
   3819 T=   277. E= -.93306747E+03 F= -.94004803E+03 E0= -.94004803E+03  EK= 0.69806E+01 SP= 0.00E+00 SK= 0.00E+00
   3820 T=   274. E= -.93311920E+03 F= -.94003344E+03 E0= -.94003344E+03  EK= 0.69142E+01 SP= 0.00E+00 SK= 0.00E+00
   3821 T=   265. E= -.93323409E+03 F= -.93990234E+03 E0= -.93990234E+03  EK= 0.66683E+01 SP= 0.00E+00 SK= 0.00E+00
   3822 T=   259. E= -.93323539E+03 F= -.93976824E+03 E0= -.93976824E+03  EK= 0.65328E+01 SP= 0.00E+00 SK= 0.00E+00
   3823 T=   266. E= -.93306604E+03 F= -.93977270E+03 E0= -.93977270E+03  EK= 0.67067E+01 SP= 0.00E+00 SK= 0.00E+00
   3824 T=   276. E= -.93293173E+03 F= -.93989715E+03 E0= -.93989715E+03  EK= 0.69654E+01 SP= 0.00E+00 SK= 0.00E+00
   3825 T=   282. E= -.93290012E+03 F= -.94000863E+03 E0= -.94000863E+03  EK= 0.71085E+01 SP= 0.00E+00 SK= 0.00E+00
   3826 T=   286. E= -.93279602E+03 F= -.94001041E+03 E0= -.94001041E+03  EK= 0.72144E+01 SP= 0.00E+00 SK= 0.00E+00
   3827 T=   284. E= -.93277031E+03 F= -.93993676E+03 E0= -.93993676E+03  EK= 0.71665E+01 SP= 0.00E+00 SK= 0.00E+00
   3828 T=   281. E= -.93272358E+03 F= -.93980853E+03 E0= -.93980853E+03  EK= 0.70850E+01 SP= 0.00E+00 SK= 0.00E+00
   3829 T=   282. E= -.93259660E+03 F= -.93969839E+03 E0= -.93969839E+03  EK= 0.71018E+01 SP= 0.00E+00 SK= 0.00E+00
   3830 T=   279. E= -.93259691E+03 F= -.93962542E+03 E0= -.93962542E+03  EK= 0.70285E+01 SP= 0.00E+00 SK= 0.00E+00
   3831 T=   277. E= -.93261338E+03 F= -.93960591E+03 E0= -.93960591E+03  EK= 0.69925E+01 SP= 0.00E+00 SK= 0.00E+00
   3832 T=   281. E= -.93259087E+03 F= -.93968346E+03 E0= -.93968346E+03  EK= 0.70926E+01 SP= 0.00E+00 SK= 0.00E+00
   3833 T=   283. E= -.93263012E+03 F= -.93976991E+03 E0= -.93976991E+03  EK= 0.71398E+01 SP= 0.00E+00 SK= 0.00E+00
   3834 T=   279. E= -.93275374E+03 F= -.93977406E+03 E0= -.93977406E+03  EK= 0.70203E+01 SP= 0.00E+00 SK= 0.00E+00
   3835 T=   272. E= -.93277945E+03 F= -.93962384E+03 E0= -.93962384E+03  EK= 0.68444E+01 SP= 0.00E+00 SK= 0.00E+00
   3836 T=   258. E= -.93288484E+03 F= -.93939612E+03 E0= -.93939612E+03  EK= 0.65113E+01 SP= 0.00E+00 SK= 0.00E+00
   3837 T=   246. E= -.93305643E+03 F= -.93926963E+03 E0= -.93926963E+03  EK= 0.62132E+01 SP= 0.00E+00 SK= 0.00E+00
   3838 T=   248. E= -.93311484E+03 F= -.93936061E+03 E0= -.93936061E+03  EK= 0.62458E+01 SP= 0.00E+00 SK= 0.00E+00
   3839 T=   255. E= -.93315560E+03 F= -.93957822E+03 E0= -.93957822E+03  EK= 0.64226E+01 SP= 0.00E+00 SK= 0.00E+00
   3840 T=   265. E= -.93304224E+03 F= -.93973224E+03 E0= -.93973224E+03  EK= 0.66900E+01 SP= 0.00E+00 SK= 0.00E+00
   3841 T=   270. E= -.93293832E+03 F= -.93974426E+03 E0= -.93974426E+03  EK= 0.68059E+01 SP= 0.00E+00 SK= 0.00E+00
   3842 T=   265. E= -.93299366E+03 F= -.93966659E+03 E0= -.93966659E+03  EK= 0.66729E+01 SP= 0.00E+00 SK= 0.00E+00
   3843 T=   262. E= -.93300713E+03 F= -.93961503E+03 E0= -.93961503E+03  EK= 0.66079E+01 SP= 0.00E+00 SK= 0.00E+00
   3844 T=   266. E= -.93300721E+03 F= -.93972445E+03 E0= -.93972445E+03  EK= 0.67172E+01 SP= 0.00E+00 SK= 0.00E+00
   3845 T=   275. E= -.93295426E+03 F= -.93988582E+03 E0= -.93988582E+03  EK= 0.69316E+01 SP= 0.00E+00 SK= 0.00E+00
   3846 T=   287. E= -.93282490E+03 F= -.94004890E+03 E0= -.94004890E+03  EK= 0.72240E+01 SP= 0.00E+00 SK= 0.00E+00
   3847 T=   296. E= -.93262212E+03 F= -.94008096E+03 E0= -.94008096E+03  EK= 0.74588E+01 SP= 0.00E+00 SK= 0.00E+00
   3848 T=   298. E= -.93248393E+03 F= -.93998331E+03 E0= -.93998331E+03  EK= 0.74994E+01 SP= 0.00E+00 SK= 0.00E+00
   3849 T=   286. E= -.93251816E+03 F= -.93972335E+03 E0= -.93972335E+03  EK= 0.72052E+01 SP= 0.00E+00 SK= 0.00E+00
   3850 T=   271. E= -.93266434E+03 F= -.93948655E+03 E0= -.93948655E+03  EK= 0.68222E+01 SP= 0.00E+00 SK= 0.00E+00
   3851 T=   264. E= -.93281003E+03 F= -.93946444E+03 E0= -.93946444E+03  EK= 0.66544E+01 SP= 0.00E+00 SK= 0.00E+00
   3852 T=   268. E= -.93286324E+03 F= -.93963004E+03 E0= -.93963004E+03  EK= 0.67668E+01 SP= 0.00E+00 SK= 0.00E+00
   3853 T=   282. E= -.93278008E+03 F= -.93989390E+03 E0= -.93989390E+03  EK= 0.71138E+01 SP= 0.00E+00 SK= 0.00E+00
   3854 T=   292. E= -.93266967E+03 F= -.94003823E+03 E0= -.94003823E+03  EK= 0.73686E+01 SP= 0.00E+00 SK= 0.00E+00
   3855 T=   288. E= -.93274115E+03 F= -.93999330E+03 E0= -.93999330E+03  EK= 0.72522E+01 SP= 0.00E+00 SK= 0.00E+00
   3856 T=   277. E= -.93285872E+03 F= -.93984403E+03 E0= -.93984403E+03  EK= 0.69853E+01 SP= 0.00E+00 SK= 0.00E+00
   3857 T=   271. E= -.93284942E+03 F= -.93968017E+03 E0= -.93968017E+03  EK= 0.68307E+01 SP= 0.00E+00 SK= 0.00E+00
   3858 T=   265. E= -.93287091E+03 F= -.93956017E+03 E0= -.93956017E+03  EK= 0.66893E+01 SP= 0.00E+00 SK= 0.00E+00
   3859 T=   263. E= -.93292312E+03 F= -.93955773E+03 E0= -.93955773E+03  EK= 0.66346E+01 SP= 0.00E+00 SK= 0.00E+00
   3860 T=   270. E= -.93280799E+03 F= -.93960631E+03 E0= -.93960631E+03  EK= 0.67983E+01 SP= 0.00E+00 SK= 0.00E+00
   3861 T=   277. E= -.93268845E+03 F= -.93966423E+03 E0= -.93966423E+03  EK= 0.69758E+01 SP= 0.00E+00 SK= 0.00E+00
   3862 T=   279. E= -.93267189E+03 F= -.93969469E+03 E0= -.93969469E+03  EK= 0.70228E+01 SP= 0.00E+00 SK= 0.00E+00
   3863 T=   279. E= -.93262462E+03 F= -.93965511E+03 E0= -.93965511E+03  EK= 0.70305E+01 SP= 0.00E+00 SK= 0.00E+00
   3864 T=   276. E= -.93261267E+03 F= -.93955835E+03 E0= -.93955835E+03  EK= 0.69457E+01 SP= 0.00E+00 SK= 0.00E+00
   3865 T=   268. E= -.93262763E+03 F= -.93937504E+03 E0= -.93937504E+03  EK= 0.67474E+01 SP= 0.00E+00 SK= 0.00E+00
   3866 T=   262. E= -.93258747E+03 F= -.93920078E+03 E0= -.93920078E+03  EK= 0.66133E+01 SP= 0.00E+00 SK= 0.00E+00
   3867 T=   259. E= -.93255745E+03 F= -.93907431E+03 E0= -.93907431E+03  EK= 0.65169E+01 SP= 0.00E+00 SK= 0.00E+00
   3868 T=   257. E= -.93256303E+03 F= -.93904907E+03 E0= -.93904907E+03  EK= 0.64860E+01 SP= 0.00E+00 SK= 0.00E+00
   3869 T=   256. E= -.93263113E+03 F= -.93908282E+03 E0= -.93908282E+03  EK= 0.64517E+01 SP= 0.00E+00 SK= 0.00E+00
   3870 T=   257. E= -.93264864E+03 F= -.93912075E+03 E0= -.93912075E+03  EK= 0.64721E+01 SP= 0.00E+00 SK= 0.00E+00
   3871 T=   258. E= -.93265226E+03 F= -.93916743E+03 E0= -.93916743E+03  EK= 0.65152E+01 SP= 0.00E+00 SK= 0.00E+00
   3872 T=   265. E= -.93255666E+03 F= -.93924170E+03 E0= -.93924170E+03  EK= 0.66850E+01 SP= 0.00E+00 SK= 0.00E+00
   3873 T=   270. E= -.93251430E+03 F= -.93933179E+03 E0= -.93933179E+03  EK= 0.68175E+01 SP= 0.00E+00 SK= 0.00E+00
   3874 T=   274. E= -.93252297E+03 F= -.93942553E+03 E0= -.93942553E+03  EK= 0.69026E+01 SP= 0.00E+00 SK= 0.00E+00
   3875 T=   280. E= -.93246175E+03 F= -.93951764E+03 E0= -.93951764E+03  EK= 0.70559E+01 SP= 0.00E+00 SK= 0.00E+00
   3876 T=   285. E= -.93241136E+03 F= -.93959795E+03 E0= -.93959795E+03  EK= 0.71866E+01 SP= 0.00E+00 SK= 0.00E+00
   3877 T=   288. E= -.93236672E+03 F= -.93962893E+03 E0= -.93962893E+03  EK= 0.72622E+01 SP= 0.00E+00 SK= 0.00E+00
   3878 T=   283. E= -.93239400E+03 F= -.93953797E+03 E0= -.93953797E+03  EK= 0.71440E+01 SP= 0.00E+00 SK= 0.00E+00
   3879 T=   279. E= -.93238122E+03 F= -.93942069E+03 E0= -.93942069E+03  EK= 0.70395E+01 SP= 0.00E+00 SK= 0.00E+00
   3880 T=   275. E= -.93234448E+03 F= -.93928532E+03 E0= -.93928532E+03  EK= 0.69408E+01 SP= 0.00E+00 SK= 0.00E+00
   3881 T=   271. E= -.93237475E+03 F= -.93920762E+03 E0= -.93920762E+03  EK= 0.68329E+01 SP= 0.00E+00 SK= 0.00E+00
   3882 T=   271. E= -.93236764E+03 F= -.93920366E+03 E0= -.93920366E+03  EK= 0.68360E+01 SP= 0.00E+00 SK= 0.00E+00
   3883 T=   270. E= -.93241957E+03 F= -.93923714E+03 E0= -.93923714E+03  EK= 0.68176E+01 SP= 0.00E+00 SK= 0.00E+00
   3884 T=   266. E= -.93248473E+03 F= -.93919061E+03 E0= -.93919061E+03  EK= 0.67059E+01 SP= 0.00E+00 SK= 0.00E+00
   3885 T=   261. E= -.93246219E+03 F= -.93905001E+03 E0= -.93905001E+03  EK= 0.65878E+01 SP= 0.00E+00 SK= 0.00E+00
   3886 T=   254. E= -.93252253E+03 F= -.93891405E+03 E0= -.93891405E+03  EK= 0.63915E+01 SP= 0.00E+00 SK= 0.00E+00
   3887 T=   250. E= -.93256595E+03 F= -.93886631E+03 E0= -.93886631E+03  EK= 0.63004E+01 SP= 0.00E+00 SK= 0.00E+00
   3888 T=   252. E= -.93252084E+03 F= -.93888454E+03 E0= -.93888454E+03  EK= 0.63637E+01 SP= 0.00E+00 SK= 0.00E+00
   3889 T=   257. E= -.93243727E+03 F= -.93891791E+03 E0= -.93891791E+03  EK= 0.64806E+01 SP= 0.00E+00 SK= 0.00E+00
   3890 T=   260. E= -.93242880E+03 F= -.93898577E+03 E0= -.93898577E+03  EK= 0.65570E+01 SP= 0.00E+00 SK= 0.00E+00
   3891 T=   262. E= -.93246223E+03 F= -.93906582E+03 E0= -.93906582E+03  EK= 0.66036E+01 SP= 0.00E+00 SK= 0.00E+00
   3892 T=   264. E= -.93244061E+03 F= -.93910633E+03 E0= -.93910633E+03  EK= 0.66657E+01 SP= 0.00E+00 SK= 0.00E+00
   3893 T=   261. E= -.93248416E+03 F= -.93905802E+03 E0= -.93905802E+03  EK= 0.65739E+01 SP= 0.00E+00 SK= 0.00E+00
   3894 T=   255. E= -.93257476E+03 F= -.93900149E+03 E0= -.93900149E+03  EK= 0.64267E+01 SP= 0.00E+00 SK= 0.00E+00
   3895 T=   252. E= -.93261104E+03 F= -.93895476E+03 E0= -.93895476E+03  EK= 0.63437E+01 SP= 0.00E+00 SK= 0.00E+00
   3896 T=   256. E= -.93256862E+03 F= -.93901647E+03 E0= -.93901647E+03  EK= 0.64478E+01 SP= 0.00E+00 SK= 0.00E+00
   3897 T=   263. E= -.93250266E+03 F= -.93913121E+03 E0= -.93913121E+03  EK= 0.66286E+01 SP= 0.00E+00 SK= 0.00E+00
   3898 T=   269. E= -.93243015E+03 F= -.93921315E+03 E0= -.93921315E+03  EK= 0.67830E+01 SP= 0.00E+00 SK= 0.00E+00
   3899 T=   271. E= -.93242462E+03 F= -.93926252E+03 E0= -.93926252E+03  EK= 0.68379E+01 SP= 0.00E+00 SK= 0.00E+00
   3900 T=   268. E= -.93244129E+03 F= -.93920712E+03 E0= -.93920712E+03  EK= 0.67658E+01 SP= 0.00E+00 SK= 0.00E+00
   3901 T=   267. E= -.93242175E+03 F= -.93913979E+03 E0= -.93913979E+03  EK= 0.67180E+01 SP= 0.00E+00 SK= 0.00E+00
   3902 T=   265. E= -.93243277E+03 F= -.93910768E+03 E0= -.93910768E+03  EK= 0.66749E+01 SP= 0.00E+00 SK= 0.00E+00
   3903 T=   266. E= -.93243243E+03 F= -.93914402E+03 E0= -.93914402E+03  EK= 0.67116E+01 SP= 0.00E+00 SK= 0.00E+00
   3904 T=   274. E= -.93231777E+03 F= -.93923317E+03 E0= -.93923317E+03  EK= 0.69154E+01 SP= 0.00E+00 SK= 0.00E+00
   3905 T=   283. E= -.93224352E+03 F= -.93936805E+03 E0= -.93936805E+03  EK= 0.71245E+01 SP= 0.00E+00 SK= 0.00E+00
   3906 T=   287. E= -.93230617E+03 F= -.93954365E+03 E0= -.93954365E+03  EK= 0.72375E+01 SP= 0.00E+00 SK= 0.00E+00
   3907 T=   290. E= -.93239018E+03 F= -.93969772E+03 E0= -.93969772E+03  EK= 0.73075E+01 SP= 0.00E+00 SK= 0.00E+00
   3908 T=   297. E= -.93233581E+03 F= -.93981891E+03 E0= -.93981891E+03  EK= 0.74831E+01 SP= 0.00E+00 SK= 0.00E+00
   3909 T=   297. E= -.93231967E+03 F= -.93981106E+03 E0= -.93981106E+03  EK= 0.74914E+01 SP= 0.00E+00 SK= 0.00E+00
   3910 T=   284. E= -.93254230E+03 F= -.93970204E+03 E0= -.93970204E+03  EK= 0.71597E+01 SP= 0.00E+00 SK= 0.00E+00
   3911 T=   272. E= -.93272980E+03 F= -.93959203E+03 E0= -.93959203E+03  EK= 0.68622E+01 SP= 0.00E+00 SK= 0.00E+00
   3912 T=   269. E= -.93278369E+03 F= -.93955487E+03 E0= -.93955487E+03  EK= 0.67712E+01 SP= 0.00E+00 SK= 0.00E+00
   3913 T=   272. E= -.93278289E+03 F= -.93962699E+03 E0= -.93962699E+03  EK= 0.68441E+01 SP= 0.00E+00 SK= 0.00E+00
   3914 T=   276. E= -.93275800E+03 F= -.93970782E+03 E0= -.93970782E+03  EK= 0.69498E+01 SP= 0.00E+00 SK= 0.00E+00
   3915 T=   279. E= -.93273599E+03 F= -.93976228E+03 E0= -.93976228E+03  EK= 0.70263E+01 SP= 0.00E+00 SK= 0.00E+00
   3916 T=   277. E= -.93277828E+03 F= -.93976579E+03 E0= -.93976579E+03  EK= 0.69875E+01 SP= 0.00E+00 SK= 0.00E+00
   3917 T=   272. E= -.93288423E+03 F= -.93974818E+03 E0= -.93974818E+03  EK= 0.68639E+01 SP= 0.00E+00 SK= 0.00E+00
   3918 T=   266. E= -.93306447E+03 F= -.93975917E+03 E0= -.93975917E+03  EK= 0.66947E+01 SP= 0.00E+00 SK= 0.00E+00
   3919 T=   263. E= -.93322196E+03 F= -.93984653E+03 E0= -.93984653E+03  EK= 0.66246E+01 SP= 0.00E+00 SK= 0.00E+00
   3920 T=   267. E= -.93324502E+03 F= -.93996632E+03 E0= -.93996632E+03  EK= 0.67213E+01 SP= 0.00E+00 SK= 0.00E+00
   3921 T=   269. E= -.93327880E+03 F= -.94006357E+03 E0= -.94006357E+03  EK= 0.67848E+01 SP= 0.00E+00 SK= 0.00E+00
   3922 T=   269. E= -.93337751E+03 F= -.94014900E+03 E0= -.94014900E+03  EK= 0.67715E+01 SP= 0.00E+00 SK= 0.00E+00
   3923 T=   271. E= -.93339593E+03 F= -.94021733E+03 E0= -.94021733E+03  EK= 0.68214E+01 SP= 0.00E+00 SK= 0.00E+00
   3924 T=   271. E= -.93341746E+03 F= -.94024841E+03 E0= -.94024841E+03  EK= 0.68309E+01 SP= 0.00E+00 SK= 0.00E+00
   3925 T=   268. E= -.93345639E+03 F= -.94020488E+03 E0= -.94020488E+03  EK= 0.67485E+01 SP= 0.00E+00 SK= 0.00E+00
   3926 T=   266. E= -.93341781E+03 F= -.94013450E+03 E0= -.94013450E+03  EK= 0.67167E+01 SP= 0.00E+00 SK= 0.00E+00
   3927 T=   266. E= -.93340677E+03 F= -.94011654E+03 E0= -.94011654E+03  EK= 0.67098E+01 SP= 0.00E+00 SK= 0.00E+00
   3928 T=   264. E= -.93345701E+03 F= -.94011207E+03 E0= -.94011207E+03  EK= 0.66551E+01 SP= 0.00E+00 SK= 0.00E+00
   3929 T=   261. E= -.93350617E+03 F= -.94008247E+03 E0= -.94008247E+03  EK= 0.65763E+01 SP= 0.00E+00 SK= 0.00E+00
   3930 T=   260. E= -.93341280E+03 F= -.93996481E+03 E0= -.93996481E+03  EK= 0.65520E+01 SP= 0.00E+00 SK= 0.00E+00
   3931 T=   256. E= -.93336201E+03 F= -.93982613E+03 E0= -.93982613E+03  EK= 0.64641E+01 SP= 0.00E+00 SK= 0.00E+00
   3932 T=   249. E= -.93341152E+03 F= -.93968324E+03 E0= -.93968324E+03  EK= 0.62717E+01 SP= 0.00E+00 SK= 0.00E+00
   3933 T=   251. E= -.93332095E+03 F= -.93964244E+03 E0= -.93964244E+03  EK= 0.63215E+01 SP= 0.00E+00 SK= 0.00E+00
   3934 T=   262. E= -.93310098E+03 F= -.93971567E+03 E0= -.93971567E+03  EK= 0.66147E+01 SP= 0.00E+00 SK= 0.00E+00
   3935 T=   269. E= -.93303371E+03 F= -.93982385E+03 E0= -.93982385E+03  EK= 0.67901E+01 SP= 0.00E+00 SK= 0.00E+00
   3936 T=   267. E= -.93310368E+03 F= -.93983690E+03 E0= -.93983690E+03  EK= 0.67332E+01 SP= 0.00E+00 SK= 0.00E+00
   3937 T=   267. E= -.93309763E+03 F= -.93981815E+03 E0= -.93981815E+03  EK= 0.67205E+01 SP= 0.00E+00 SK= 0.00E+00
   3938 T=   264. E= -.93310163E+03 F= -.93976344E+03 E0= -.93976344E+03  EK= 0.66618E+01 SP= 0.00E+00 SK= 0.00E+00
   3939 T=   262. E= -.93309312E+03 F= -.93970560E+03 E0= -.93970560E+03  EK= 0.66125E+01 SP= 0.00E+00 SK= 0.00E+00
   3940 T=   266. E= -.93303023E+03 F= -.93973571E+03 E0= -.93973571E+03  EK= 0.67055E+01 SP= 0.00E+00 SK= 0.00E+00
   3941 T=   270. E= -.93304702E+03 F= -.93984770E+03 E0= -.93984770E+03  EK= 0.68007E+01 SP= 0.00E+00 SK= 0.00E+00
   3942 T=   273. E= -.93313139E+03 F= -.94002118E+03 E0= -.94002118E+03  EK= 0.68898E+01 SP= 0.00E+00 SK= 0.00E+00
   3943 T=   275. E= -.93317277E+03 F= -.94011680E+03 E0= -.94011680E+03  EK= 0.69440E+01 SP= 0.00E+00 SK= 0.00E+00
   3944 T=   271. E= -.93323682E+03 F= -.94006500E+03 E0= -.94006500E+03  EK= 0.68282E+01 SP= 0.00E+00 SK= 0.00E+00
   3945 T=   264. E= -.93323846E+03 F= -.93990321E+03 E0= -.93990321E+03  EK= 0.66648E+01 SP= 0.00E+00 SK= 0.00E+00
   3946 T=   259. E= -.93324163E+03 F= -.93976912E+03 E0= -.93976912E+03  EK= 0.65275E+01 SP= 0.00E+00 SK= 0.00E+00
   3947 T=   253. E= -.93335147E+03 F= -.93971959E+03 E0= -.93971959E+03  EK= 0.63681E+01 SP= 0.00E+00 SK= 0.00E+00
   3948 T=   250. E= -.93344375E+03 F= -.93974808E+03 E0= -.93974808E+03  EK= 0.63043E+01 SP= 0.00E+00 SK= 0.00E+00
   3949 T=   251. E= -.93353209E+03 F= -.93986453E+03 E0= -.93986453E+03  EK= 0.63324E+01 SP= 0.00E+00 SK= 0.00E+00
   3950 T=   260. E= -.93349980E+03 F= -.94005666E+03 E0= -.94005666E+03  EK= 0.65569E+01 SP= 0.00E+00 SK= 0.00E+00
   3951 T=   270. E= -.93337681E+03 F= -.94018191E+03 E0= -.94018191E+03  EK= 0.68051E+01 SP= 0.00E+00 SK= 0.00E+00
   3952 T=   270. E= -.93335567E+03 F= -.94017119E+03 E0= -.94017119E+03  EK= 0.68155E+01 SP= 0.00E+00 SK= 0.00E+00
   3953 T=   264. E= -.93335204E+03 F= -.94001651E+03 E0= -.94001651E+03  EK= 0.66645E+01 SP= 0.00E+00 SK= 0.00E+00
   3954 T=   258. E= -.93333691E+03 F= -.93982845E+03 E0= -.93982845E+03  EK= 0.64915E+01 SP= 0.00E+00 SK= 0.00E+00
   3955 T=   256. E= -.93324813E+03 F= -.93969909E+03 E0= -.93969909E+03  EK= 0.64510E+01 SP= 0.00E+00 SK= 0.00E+00
   3956 T=   255. E= -.93323822E+03 F= -.93966340E+03 E0= -.93966340E+03  EK= 0.64252E+01 SP= 0.00E+00 SK= 0.00E+00
   3957 T=   256. E= -.93329773E+03 F= -.93974419E+03 E0= -.93974419E+03  EK= 0.64465E+01 SP= 0.00E+00 SK= 0.00E+00
   3958 T=   257. E= -.93340399E+03 F= -.93987015E+03 E0= -.93987015E+03  EK= 0.64662E+01 SP= 0.00E+00 SK= 0.00E+00
   3959 T=   257. E= -.93346801E+03 F= -.93994353E+03 E0= -.93994353E+03  EK= 0.64755E+01 SP= 0.00E+00 SK= 0.00E+00
   3960 T=   258. E= -.93345289E+03 F= -.93995340E+03 E0= -.93995340E+03  EK= 0.65005E+01 SP= 0.00E+00 SK= 0.00E+00
   3961 T=   254. E= -.93345004E+03 F= -.93986234E+03 E0= -.93986234E+03  EK= 0.64123E+01 SP= 0.00E+00 SK= 0.00E+00
   3962 T=   252. E= -.93344384E+03 F= -.93978337E+03 E0= -.93978337E+03  EK= 0.63395E+01 SP= 0.00E+00 SK= 0.00E+00
   3963 T=   253. E= -.93336414E+03 F= -.93974252E+03 E0= -.93974252E+03  EK= 0.63784E+01 SP= 0.00E+00 SK= 0.00E+00
   3964 T=   256. E= -.93327701E+03 F= -.93974068E+03 E0= -.93974068E+03  EK= 0.64637E+01 SP= 0.00E+00 SK= 0.00E+00
   3965 T=   257. E= -.93330156E+03 F= -.93977551E+03 E0= -.93977551E+03  EK= 0.64740E+01 SP= 0.00E+00 SK= 0.00E+00
   3966 T=   260. E= -.93332767E+03 F= -.93987381E+03 E0= -.93987381E+03  EK= 0.65461E+01 SP= 0.00E+00 SK= 0.00E+00
   3967 T=   267. E= -.93325495E+03 F= -.93999259E+03 E0= -.93999259E+03  EK= 0.67376E+01 SP= 0.00E+00 SK= 0.00E+00
   3968 T=   272. E= -.93320899E+03 F= -.94006437E+03 E0= -.94006437E+03  EK= 0.68554E+01 SP= 0.00E+00 SK= 0.00E+00
   3969 T=   270. E= -.93320960E+03 F= -.94002294E+03 E0= -.94002294E+03  EK= 0.68133E+01 SP= 0.00E+00 SK= 0.00E+00
   3970 T=   264. E= -.93322415E+03 F= -.93988589E+03 E0= -.93988589E+03  EK= 0.66617E+01 SP= 0.00E+00 SK= 0.00E+00
   3971 T=   260. E= -.93324287E+03 F= -.93980244E+03 E0= -.93980244E+03  EK= 0.65596E+01 SP= 0.00E+00 SK= 0.00E+00
   3972 T=   260. E= -.93325127E+03 F= -.93981531E+03 E0= -.93981531E+03  EK= 0.65640E+01 SP= 0.00E+00 SK= 0.00E+00
   3973 T=   262. E= -.93330057E+03 F= -.93989700E+03 E0= -.93989700E+03  EK= 0.65964E+01 SP= 0.00E+00 SK= 0.00E+00
   3974 T=   265. E= -.93334824E+03 F= -.94001661E+03 E0= -.94001661E+03  EK= 0.66684E+01 SP= 0.00E+00 SK= 0.00E+00
   3975 T=   265. E= -.93337680E+03 F= -.94005450E+03 E0= -.94005450E+03  EK= 0.66777E+01 SP= 0.00E+00 SK= 0.00E+00
   3976 T=   267. E= -.93333993E+03 F= -.94006453E+03 E0= -.94006453E+03  EK= 0.67246E+01 SP= 0.00E+00 SK= 0.00E+00
   3977 T=   269. E= -.93324165E+03 F= -.94002008E+03 E0= -.94002008E+03  EK= 0.67784E+01 SP= 0.00E+00 SK= 0.00E+00
   3978 T=   269. E= -.93316895E+03 F= -.93994214E+03 E0= -.93994214E+03  EK= 0.67732E+01 SP= 0.00E+00 SK= 0.00E+00
   3979 T=   268. E= -.93308081E+03 F= -.93983954E+03 E0= -.93983954E+03  EK= 0.67587E+01 SP= 0.00E+00 SK= 0.00E+00
   3980 T=   264. E= -.93308665E+03 F= -.93974514E+03 E0= -.93974514E+03  EK= 0.66585E+01 SP= 0.00E+00 SK= 0.00E+00
   3981 T=   262. E= -.93307508E+03 F= -.93968381E+03 E0= -.93968381E+03  EK= 0.66087E+01 SP= 0.00E+00 SK= 0.00E+00
   3982 T=   263. E= -.93306939E+03 F= -.93970946E+03 E0= -.93970946E+03  EK= 0.66401E+01 SP= 0.00E+00 SK= 0.00E+00
   3983 T=   265. E= -.93316647E+03 F= -.93983809E+03 E0= -.93983809E+03  EK= 0.66716E+01 SP= 0.00E+00 SK= 0.00E+00
   3984 T=   271. E= -.93318880E+03 F= -.94001380E+03 E0= -.94001380E+03  EK= 0.68250E+01 SP= 0.00E+00 SK= 0.00E+00
   3985 T=   276. E= -.93322575E+03 F= -.94017112E+03 E0= -.94017112E+03  EK= 0.69454E+01 SP= 0.00E+00 SK= 0.00E+00
   3986 T=   274. E= -.93329779E+03 F= -.94019749E+03 E0= -.94019749E+03  EK= 0.68997E+01 SP= 0.00E+00 SK= 0.00E+00
   3987 T=   270. E= -.93332108E+03 F= -.94011836E+03 E0= -.94011836E+03  EK= 0.67973E+01 SP= 0.00E+00 SK= 0.00E+00
   3988 T=   264. E= -.93333264E+03 F= -.93998610E+03 E0= -.93998610E+03  EK= 0.66535E+01 SP= 0.00E+00 SK= 0.00E+00
   3989 T=   261. E= -.93334009E+03 F= -.93993138E+03 E0= -.93993138E+03  EK= 0.65913E+01 SP= 0.00E+00 SK= 0.00E+00
   3990 T=   262. E= -.93339132E+03 F= -.93999268E+03 E0= -.93999268E+03  EK= 0.66014E+01 SP= 0.00E+00 SK= 0.00E+00
   3991 T=   263. E= -.93343122E+03 F= -.94006491E+03 E0= -.94006491E+03  EK= 0.66337E+01 SP= 0.00E+00 SK= 0.00E+00
   3992 T=   266. E= -.93338919E+03 F= -.94009126E+03 E0= -.94009126E+03  EK= 0.67021E+01 SP= 0.00E+00 SK= 0.00E+00
   3993 T=   269. E= -.93328246E+03 F= -.94005104E+03 E0= -.94005104E+03  EK= 0.67686E+01 SP= 0.00E+00 SK= 0.00E+00
   3994 T=   271. E= -.93314798E+03 F= -.93997366E+03 E0= -.93997366E+03  EK= 0.68257E+01 SP= 0.00E+00 SK= 0.00E+00
   3995 T=   270. E= -.93310221E+03 F= -.93990758E+03 E0= -.93990758E+03  EK= 0.68054E+01 SP= 0.00E+00 SK= 0.00E+00
   3996 T=   264. E= -.93315880E+03 F= -.93982002E+03 E0= -.93982002E+03  EK= 0.66612E+01 SP= 0.00E+00 SK= 0.00E+00
   3997 T=   254. E= -.93331755E+03 F= -.93971327E+03 E0= -.93971327E+03  EK= 0.63957E+01 SP= 0.00E+00 SK= 0.00E+00
   3998 T=   249. E= -.93342320E+03 F= -.93970008E+03 E0= -.93970008E+03  EK= 0.62769E+01 SP= 0.00E+00 SK= 0.00E+00
   3999 T=   252. E= -.93342309E+03 F= -.93978474E+03 E0= -.93978474E+03  EK= 0.63616E+01 SP= 0.00E+00 SK= 0.00E+00
   4000 T=   258. E= -.93338667E+03 F= -.93988300E+03 E0= -.93988300E+03  EK= 0.64963E+01 SP= 0.00E+00 SK= 0.00E+00
   4001 T=   262. E= -.93335574E+03 F= -.93996489E+03 E0= -.93996489E+03  EK= 0.66092E+01 SP= 0.00E+00 SK= 0.00E+00
   4002 T=   267. E= -.93323406E+03 F= -.93995921E+03 E0= -.93995921E+03  EK= 0.67252E+01 SP= 0.00E+00 SK= 0.00E+00
   4003 T=   270. E= -.93302333E+03 F= -.93982799E+03 E0= -.93982799E+03  EK= 0.68047E+01 SP= 0.00E+00 SK= 0.00E+00
   4004 T=   270. E= -.93284700E+03 F= -.93964920E+03 E0= -.93964920E+03  EK= 0.68022E+01 SP= 0.00E+00 SK= 0.00E+00
   4005 T=   271. E= -.93268234E+03 F= -.93950459E+03 E0= -.93950459E+03  EK= 0.68223E+01 SP= 0.00E+00 SK= 0.00E+00
   4006 T=   273. E= -.93259698E+03 F= -.93948756E+03 E0= -.93948756E+03  EK= 0.68906E+01 SP= 0.00E+00 SK= 0.00E+00
   4007 T=   282. E= -.93254603E+03 F= -.93965343E+03 E0= -.93965343E+03  EK= 0.71074E+01 SP= 0.00E+00 SK= 0.00E+00
   4008 T=   292. E= -.93249778E+03 F= -.93985482E+03 E0= -.93985482E+03  EK= 0.73570E+01 SP= 0.00E+00 SK= 0.00E+00
   4009 T=   297. E= -.93243312E+03 F= -.93991623E+03 E0= -.93991623E+03  EK= 0.74831E+01 SP= 0.00E+00 SK= 0.00E+00
   4010 T=   294. E= -.93239216E+03 F= -.93980605E+03 E0= -.93980605E+03  EK= 0.74139E+01 SP= 0.00E+00 SK= 0.00E+00
   4011 T=   282. E= -.93242924E+03 F= -.93953130E+03 E0= -.93953130E+03  EK= 0.71021E+01 SP= 0.00E+00 SK= 0.00E+00
   4012 T=   269. E= -.93245110E+03 F= -.93922318E+03 E0= -.93922318E+03  EK= 0.67721E+01 SP= 0.00E+00 SK= 0.00E+00
   4013 T=   264. E= -.93238899E+03 F= -.93903309E+03 E0= -.93903309E+03  EK= 0.66441E+01 SP= 0.00E+00 SK= 0.00E+00
   4014 T=   264. E= -.93232590E+03 F= -.93898703E+03 E0= -.93898703E+03  EK= 0.66611E+01 SP= 0.00E+00 SK= 0.00E+00
   4015 T=   269. E= -.93233793E+03 F= -.93911197E+03 E0= -.93911197E+03  EK= 0.67740E+01 SP= 0.00E+00 SK= 0.00E+00
   4016 T=   278. E= -.93233900E+03 F= -.93935830E+03 E0= -.93935830E+03  EK= 0.70193E+01 SP= 0.00E+00 SK= 0.00E+00
   4017 T=   284. E= -.93238165E+03 F= -.93953105E+03 E0= -.93953105E+03  EK= 0.71494E+01 SP= 0.00E+00 SK= 0.00E+00
   4018 T=   279. E= -.93250409E+03 F= -.93953054E+03 E0= -.93953054E+03  EK= 0.70265E+01 SP= 0.00E+00 SK= 0.00E+00
   4019 T=   273. E= -.93255959E+03 F= -.93943038E+03 E0= -.93943038E+03  EK= 0.68708E+01 SP= 0.00E+00 SK= 0.00E+00
   4020 T=   268. E= -.93251478E+03 F= -.93925735E+03 E0= -.93925735E+03  EK= 0.67426E+01 SP= 0.00E+00 SK= 0.00E+00
   4021 T=   264. E= -.93248573E+03 F= -.93912876E+03 E0= -.93912876E+03  EK= 0.66430E+01 SP= 0.00E+00 SK= 0.00E+00
       N       E                     dE             d eps       ncg     rms          rms(c)
DAV:   1    -0.100448977452E+03    0.82836E+03   -0.61220E+04 16238   0.439E+02
DAV:   2    -0.917958173131E+03   -0.81751E+03   -0.79561E+03 18254   0.140E+02
DAV:   3    -0.948324511635E+03   -0.30366E+02   -0.30307E+02 19108   0.309E+01
DAV:   4    -0.948770635115E+03   -0.44612E+00   -0.44595E+00 19180   0.354E+00    0.411E+01
DAV:   5    -0.926014976130E+03    0.22756E+02   -0.59196E+01 19252   0.156E+01    0.217E+01
DAV:   6    -0.926317059446E+03   -0.30208E+00   -0.20462E+01 18572   0.921E+00    0.938E+00
DAV:   7    -0.927725171253E+03   -0.14081E+01   -0.45765E+00 18812   0.524E+00    0.272E+00
DAV:   8    -0.927801419337E+03   -0.76248E-01   -0.60072E-01 18708   0.192E+00    0.135E+00
DAV:   9    -0.927817726900E+03   -0.16308E-01   -0.22376E-01 18668   0.106E+00    0.644E-01
DAV:  10    -0.927810741294E+03    0.69856E-02   -0.30670E-02 20916   0.520E-01    0.288E-01
DAV:  11    -0.927809075671E+03    0.16656E-02   -0.23374E-02 18692   0.359E-01    0.172E-01
DAV:  12    -0.927807586013E+03    0.14897E-02   -0.24089E-03 20812   0.174E-01    0.894E-02
DAV:  13    -0.927806519390E+03    0.10666E-02   -0.17144E-03 18012   0.172E-01    0.477E-02
DAV:  14    -0.927806175410E+03    0.34398E-03   -0.88181E-04 19772   0.128E-01    0.503E-02
DAV:  15    -0.927806115069E+03    0.60341E-04   -0.71127E-04 19612   0.697E-02
   4022 T=   257. E= -.93247265E+03 F= -.93896110E+03 E0= -.93896110E+03  EK= 0.64884E+01 SP= 0.00E+00 SK= 0.00E+00
   4023 T=   251. E= -.93274081E+03 F= -.93907789E+03 E0= -.93907789E+03  EK= 0.63371E+01 SP= 0.00E+00 SK= 0.00E+00
   4024 T=   252. E= -.93284472E+03 F= -.93919460E+03 E0= -.93919460E+03  EK= 0.63499E+01 SP= 0.00E+00 SK= 0.00E+00
   4025 T=   259. E= -.93280772E+03 F= -.93934166E+03 E0= -.93934166E+03  EK= 0.65339E+01 SP= 0.00E+00 SK= 0.00E+00
   4026 T=   262. E= -.93283039E+03 F= -.93942540E+03 E0= -.93942540E+03  EK= 0.65950E+01 SP= 0.00E+00 SK= 0.00E+00
   4027 T=   251. E= -.93302477E+03 F= -.93935689E+03 E0= -.93935689E+03  EK= 0.63321E+01 SP= 0.00E+00 SK= 0.00E+00
   4028 T=   242. E= -.93309252E+03 F= -.93918278E+03 E0= -.93918278E+03  EK= 0.60903E+01 SP= 0.00E+00 SK= 0.00E+00
   4029 T=   240. E= -.93301791E+03 F= -.93907190E+03 E0= -.93907190E+03  EK= 0.60540E+01 SP= 0.00E+00 SK= 0.00E+00
   4030 T=   239. E= -.93301080E+03 F= -.93904738E+03 E0= -.93904738E+03  EK= 0.60366E+01 SP= 0.00E+00 SK= 0.00E+00
   4031 T=   242. E= -.93305990E+03 F= -.93915031E+03 E0= -.93915031E+03  EK= 0.60904E+01 SP= 0.00E+00 SK= 0.00E+00
       N       E                     dE             d eps       ncg     rms          rms(c)
DAV:   1    -0.921778760994E+03    0.60274E+01   -0.27435E+03 16238   0.102E+02
DAV:   2    -0.929163008849E+03   -0.73842E+01   -0.73820E+01 19476   0.151E+01
DAV:   3    -0.929240247093E+03   -0.77238E-01   -0.77233E-01 19492   0.159E+00
DAV:   4    -0.929242010925E+03   -0.17638E-02   -0.17638E-02 19396   0.229E-01    0.102E+01
DAV:   5    -0.928118424150E+03    0.11236E+01   -0.21832E+00 20516   0.395E+00    0.549E+00
DAV:   6    -0.927992884304E+03    0.12554E+00   -0.15878E+00 19588   0.293E+00    0.172E+00
DAV:   7    -0.928009297691E+03   -0.16413E-01   -0.33051E-01 18908   0.141E+00    0.668E-01
DAV:   8    -0.928003932749E+03    0.53649E-02   -0.32404E-02 18972   0.462E-01    0.338E-01
DAV:   9    -0.928000266604E+03    0.36661E-02   -0.14570E-02 18580   0.294E-01    0.178E-01
DAV:  10    -0.927998354808E+03    0.19118E-02   -0.33060E-03 22356   0.207E-01    0.592E-02
DAV:  11    -0.927997801510E+03    0.55330E-03   -0.15430E-03 18860   0.110E-01    0.544E-02
DAV:  12    -0.927997369919E+03    0.43159E-03   -0.34213E-04 16332   0.840E-02    0.225E-02
DAV:  13    -0.927997225998E+03    0.14392E-03   -0.25856E-04 14988   0.689E-02    0.282E-02
DAV:  14    -0.927997205662E+03    0.20336E-04   -0.20985E-04 14260   0.419E-02
   4032 T=   244. E= -.93300420E+03 F= -.93916148E+03 E0= -.93916148E+03  EK= 0.61573E+01 SP= 0.00E+00 SK= 0.00E+00
   4033 T=   247. E= -.93308511E+03 F= -.93930920E+03 E0= -.93930920E+03  EK= 0.62241E+01 SP= 0.00E+00 SK= 0.00E+00
   4034 T=   253. E= -.93300082E+03 F= -.93937289E+03 E0= -.93937289E+03  EK= 0.63721E+01 SP= 0.00E+00 SK= 0.00E+00
   4035 T=   259. E= -.93286127E+03 F= -.93939694E+03 E0= -.93939694E+03  EK= 0.65357E+01 SP= 0.00E+00 SK= 0.00E+00
   4036 T=   261. E= -.93283899E+03 F= -.93941542E+03 E0= -.93941542E+03  EK= 0.65764E+01 SP= 0.00E+00 SK= 0.00E+00
   4037 T=   260. E= -.93284331E+03 F= -.93939985E+03 E0= -.93939985E+03  EK= 0.65565E+01 SP= 0.00E+00 SK= 0.00E+00
   4038 T=   264. E= -.93275798E+03 F= -.93941070E+03 E0= -.93941070E+03  EK= 0.66527E+01 SP= 0.00E+00 SK= 0.00E+00
   4039 T=   269. E= -.93267327E+03 F= -.93944711E+03 E0= -.93944711E+03  EK= 0.67738E+01 SP= 0.00E+00 SK= 0.00E+00
   4040 T=   272. E= -.93265653E+03 F= -.93950524E+03 E0= -.93950524E+03  EK= 0.68487E+01 SP= 0.00E+00 SK= 0.00E+00
   4041 T=   274. E= -.93269726E+03 F= -.93960299E+03 E0= -.93960299E+03  EK= 0.69057E+01 SP= 0.00E+00 SK= 0.00E+00
   4042 T=   279. E= -.93264989E+03 F= -.93967326E+03 E0= -.93967326E+03  EK= 0.70234E+01 SP= 0.00E+00 SK= 0.00E+00
   4043 T=   282. E= -.93252361E+03 F= -.93963539E+03 E0= -.93963539E+03  EK= 0.71118E+01 SP= 0.00E+00 SK= 0.00E+00
   4044 T=   281. E= -.93238196E+03 F= -.93945384E+03 E0= -.93945384E+03  EK= 0.70719E+01 SP= 0.00E+00 SK= 0.00E+00
   4045 T=   277. E= -.93228993E+03 F= -.93928089E+03 E0= -.93928089E+03  EK= 0.69910E+01 SP= 0.00E+00 SK= 0.00E+00
   4046 T=   276. E= -.93225465E+03 F= -.93920988E+03 E0= -.93920988E+03  EK= 0.69552E+01 SP= 0.00E+00 SK= 0.00E+00
   4047 T=   273. E= -.93233385E+03 F= -.93920270E+03 E0= -.93920270E+03  EK= 0.68688E+01 SP= 0.00E+00 SK= 0.00E+00
   4048 T=   269. E= -.93246592E+03 F= -.93924781E+03 E0= -.93924781E+03  EK= 0.67819E+01 SP= 0.00E+00 SK= 0.00E+00
   4049 T=   272. E= -.93244684E+03 F= -.93931035E+03 E0= -.93931035E+03  EK= 0.68635E+01 SP= 0.00E+00 SK= 0.00E+00
   4050 T=   276. E= -.93240026E+03 F= -.93934793E+03 E0= -.93934793E+03  EK= 0.69477E+01 SP= 0.00E+00 SK= 0.00E+00
   4051 T=   276. E= -.93235587E+03 F= -.93930457E+03 E0= -.93930457E+03  EK= 0.69487E+01 SP= 0.00E+00 SK= 0.00E+00
   4052 T=   273. E= -.93230812E+03 F= -.93918412E+03 E0= -.93918412E+03  EK= 0.68760E+01 SP= 0.00E+00 SK= 0.00E+00
   4053 T=   271. E= -.93218023E+03 F= -.93901696E+03 E0= -.93901696E+03  EK= 0.68367E+01 SP= 0.00E+00 SK= 0.00E+00
   4054 T=   271. E= -.93206569E+03 F= -.93890292E+03 E0= -.93890292E+03  EK= 0.68372E+01 SP= 0.00E+00 SK= 0.00E+00
   4055 T=   269. E= -.93210558E+03 F= -.93888686E+03 E0= -.93888686E+03  EK= 0.67813E+01 SP= 0.00E+00 SK= 0.00E+00
   4056 T=   268. E= -.93222565E+03 F= -.93898759E+03 E0= -.93898759E+03  EK= 0.67619E+01 SP= 0.00E+00 SK= 0.00E+00
   4057 T=   276. E= -.93228326E+03 F= -.93923181E+03 E0= -.93923181E+03  EK= 0.69485E+01 SP= 0.00E+00 SK= 0.00E+00
   4058 T=   281. E= -.93229097E+03 F= -.93938362E+03 E0= -.93938362E+03  EK= 0.70927E+01 SP= 0.00E+00 SK= 0.00E+00
   4059 T=   278. E= -.93235655E+03 F= -.93937091E+03 E0= -.93937091E+03  EK= 0.70144E+01 SP= 0.00E+00 SK= 0.00E+00
       N       E                     dE             d eps       ncg     rms          rms(c)
DAV:   1    -0.855228847471E+03    0.72768E+02   -0.13968E+04 16238   0.225E+02
DAV:   2    -0.931062784420E+03   -0.75834E+02   -0.75716E+02 19084   0.464E+01
DAV:   3    -0.932009054875E+03   -0.94627E+00   -0.94607E+00 19420   0.559E+00
DAV:   4    -0.932026600774E+03   -0.17546E-01   -0.17544E-01 19116   0.739E-01    0.202E+01
DAV:   5    -0.928366750565E+03    0.36599E+01   -0.62400E+00 19284   0.620E+00    0.114E+01
DAV:   6    -0.927915183287E+03    0.45157E+00   -0.63596E+00 19540   0.581E+00    0.287E+00
DAV:   7    -0.927990923010E+03   -0.75740E-01   -0.11865E+00 18956   0.259E+00    0.125E+00
DAV:   8    -0.927978661410E+03    0.12262E-01   -0.12707E-01 19188   0.763E-01    0.658E-01
DAV:   9    -0.927966804078E+03    0.11857E-01   -0.33891E-02 18804   0.524E-01    0.308E-01
DAV:  10    -0.927959790087E+03    0.70140E-02   -0.76795E-03 18740   0.367E-01    0.143E-01
DAV:  11    -0.927957992972E+03    0.17971E-02   -0.96057E-03 19620   0.283E-01    0.124E-01
DAV:  12    -0.927956759177E+03    0.12338E-02   -0.20455E-03 19124   0.144E-01    0.499E-02
DAV:  13    -0.927955849466E+03    0.90971E-03   -0.70279E-04 17500   0.159E-01    0.460E-02
DAV:  14    -0.927955729964E+03    0.11950E-03   -0.84464E-04 19236   0.102E-01    0.393E-02
DAV:  15    -0.927955727785E+03    0.21793E-05   -0.51657E-04 19340   0.496E-02
   4060 T=   270. E= -.93233989E+03 F= -.93914858E+03 E0= -.93914858E+03  EK= 0.68087E+01 SP= 0.00E+00 SK= 0.00E+00
   4061 T=   261. E= -.93226901E+03 F= -.93884077E+03 E0= -.93884077E+03  EK= 0.65718E+01 SP= 0.00E+00 SK= 0.00E+00
   4062 T=   254. E= -.93223451E+03 F= -.93863806E+03 E0= -.93863806E+03  EK= 0.64035E+01 SP= 0.00E+00 SK= 0.00E+00
   4063 T=   259. E= -.93211538E+03 F= -.93863373E+03 E0= -.93863373E+03  EK= 0.65183E+01 SP= 0.00E+00 SK= 0.00E+00
   4064 T=   266. E= -.93210008E+03 F= -.93880558E+03 E0= -.93880558E+03  EK= 0.67055E+01 SP= 0.00E+00 SK= 0.00E+00
   4065 T=   266. E= -.93229075E+03 F= -.93899618E+03 E0= -.93899618E+03  EK= 0.67054E+01 SP= 0.00E+00 SK= 0.00E+00
   4066 T=   267. E= -.93244117E+03 F= -.93916488E+03 E0= -.93916488E+03  EK= 0.67237E+01 SP= 0.00E+00 SK= 0.00E+00
   4067 T=   265. E= -.93255399E+03 F= -.93922814E+03 E0= -.93922814E+03  EK= 0.66741E+01 SP= 0.00E+00 SK= 0.00E+00
   4068 T=   259. E= -.93268377E+03 F= -.93921582E+03 E0= -.93921582E+03  EK= 0.65320E+01 SP= 0.00E+00 SK= 0.00E+00
   4069 T=   251. E= -.93277421E+03 F= -.93909350E+03 E0= -.93909350E+03  EK= 0.63193E+01 SP= 0.00E+00 SK= 0.00E+00
   4070 T=   243. E= -.93283646E+03 F= -.93895816E+03 E0= -.93895816E+03  EK= 0.61217E+01 SP= 0.00E+00 SK= 0.00E+00
   4071 T=   244. E= -.93279528E+03 F= -.93893406E+03 E0= -.93893406E+03  EK= 0.61388E+01 SP= 0.00E+00 SK= 0.00E+00
   4072 T=   249. E= -.93273952E+03 F= -.93900490E+03 E0= -.93900490E+03  EK= 0.62654E+01 SP= 0.00E+00 SK= 0.00E+00
   4073 T=   256. E= -.93268980E+03 F= -.93914442E+03 E0= -.93914442E+03  EK= 0.64546E+01 SP= 0.00E+00 SK= 0.00E+00
   4074 T=   265. E= -.93260140E+03 F= -.93928981E+03 E0= -.93928981E+03  EK= 0.66884E+01 SP= 0.00E+00 SK= 0.00E+00
   4075 T=   272. E= -.93250741E+03 F= -.93937013E+03 E0= -.93937013E+03  EK= 0.68627E+01 SP= 0.00E+00 SK= 0.00E+00
   4076 T=   272. E= -.93246619E+03 F= -.93933004E+03 E0= -.93933004E+03  EK= 0.68639E+01 SP= 0.00E+00 SK= 0.00E+00
   4077 T=   269. E= -.93249625E+03 F= -.93927806E+03 E0= -.93927806E+03  EK= 0.67818E+01 SP= 0.00E+00 SK= 0.00E+00
   4078 T=   264. E= -.93256721E+03 F= -.93923002E+03 E0= -.93923002E+03  EK= 0.66628E+01 SP= 0.00E+00 SK= 0.00E+00
   4079 T=   263. E= -.93253465E+03 F= -.93917573E+03 E0= -.93917573E+03  EK= 0.66411E+01 SP= 0.00E+00 SK= 0.00E+00
   4080 T=   265. E= -.93247188E+03 F= -.93914024E+03 E0= -.93914024E+03  EK= 0.66684E+01 SP= 0.00E+00 SK= 0.00E+00
   4081 T=   262. E= -.93249207E+03 F= -.93908511E+03 E0= -.93908511E+03  EK= 0.65930E+01 SP= 0.00E+00 SK= 0.00E+00
   4082 T=   261. E= -.93248511E+03 F= -.93905722E+03 E0= -.93905722E+03  EK= 0.65721E+01 SP= 0.00E+00 SK= 0.00E+00
   4083 T=   259. E= -.93246186E+03 F= -.93898721E+03 E0= -.93898721E+03  EK= 0.65254E+01 SP= 0.00E+00 SK= 0.00E+00
       N       E                     dE             d eps       ncg     rms          rms(c)
DAV:   1    -0.883986894595E+03    0.43969E+02   -0.10861E+04 16238   0.200E+02
DAV:   2    -0.930421133026E+03   -0.46434E+02   -0.46410E+02 18996   0.367E+01
DAV:   3    -0.930920788597E+03   -0.49966E+00   -0.49959E+00 19468   0.418E+00
DAV:   4    -0.930930680391E+03   -0.98918E-02   -0.98912E-02 19124   0.565E-01    0.183E+01
DAV:   5    -0.927990461754E+03    0.29402E+01   -0.43785E+00 18668   0.506E+00    0.104E+01
DAV:   6    -0.927643552561E+03    0.34691E+00   -0.58891E+00 19524   0.547E+00    0.218E+00
DAV:   7    -0.927704950108E+03   -0.61398E-01   -0.10898E+00 18804   0.242E+00    0.114E+00
DAV:   8    -0.927695263834E+03    0.96863E-02   -0.96488E-02 19332   0.671E-01    0.648E-01
DAV:   9    -0.927686221538E+03    0.90423E-02   -0.37100E-02 18540   0.496E-01    0.315E-01
DAV:  10    -0.927680390773E+03    0.58308E-02   -0.74213E-03 19924   0.353E-01    0.145E-01
DAV:  11    -0.927679058657E+03    0.13321E-02   -0.91596E-03 19604   0.258E-01    0.118E-01
DAV:  12    -0.927677679875E+03    0.13788E-02   -0.20253E-03 18572   0.160E-01    0.467E-02
DAV:  13    -0.927677182575E+03    0.49730E-03   -0.83923E-04 19388   0.132E-01    0.694E-02
DAV:  14    -0.927676965919E+03    0.21666E-03   -0.76365E-04 19612   0.112E-01    0.295E-02
DAV:  15    -0.927676988927E+03   -0.23008E-04   -0.55650E-04 18884   0.484E-02
   4084 T=   259. E= -.93234164E+03 F= -.93887346E+03 E0= -.93887346E+03  EK= 0.65318E+01 SP= 0.00E+00 SK= 0.00E+00
   4085 T=   261. E= -.93228753E+03 F= -.93886261E+03 E0= -.93886261E+03  EK= 0.65751E+01 SP= 0.00E+00 SK= 0.00E+00
   4086 T=   261. E= -.93222456E+03 F= -.93881042E+03 E0= -.93881042E+03  EK= 0.65859E+01 SP= 0.00E+00 SK= 0.00E+00
   4087 T=   259. E= -.93224647E+03 F= -.93876787E+03 E0= -.93876787E+03  EK= 0.65214E+01 SP= 0.00E+00 SK= 0.00E+00
   4088 T=   255. E= -.93230800E+03 F= -.93874600E+03 E0= -.93874600E+03  EK= 0.64380E+01 SP= 0.00E+00 SK= 0.00E+00
   4089 T=   256. E= -.93227976E+03 F= -.93873664E+03 E0= -.93873664E+03  EK= 0.64569E+01 SP= 0.00E+00 SK= 0.00E+00
   4090 T=   260. E= -.93225265E+03 F= -.93880908E+03 E0= -.93880908E+03  EK= 0.65564E+01 SP= 0.00E+00 SK= 0.00E+00
   4091 T=   263. E= -.93230406E+03 F= -.93893017E+03 E0= -.93893017E+03  EK= 0.66261E+01 SP= 0.00E+00 SK= 0.00E+00
   4092 T=   264. E= -.93233870E+03 F= -.93899637E+03 E0= -.93899637E+03  EK= 0.66577E+01 SP= 0.00E+00 SK= 0.00E+00
   4093 T=   260. E= -.93245031E+03 F= -.93899811E+03 E0= -.93899811E+03  EK= 0.65478E+01 SP= 0.00E+00 SK= 0.00E+00
       N       E                     dE             d eps       ncg     rms          rms(c)
DAV:   1    -0.922144827593E+03    0.55321E+01   -0.25355E+03 16238   0.989E+01
DAV:   2    -0.928567790603E+03   -0.64230E+01   -0.64214E+01 19196   0.143E+01
DAV:   3    -0.928634492650E+03   -0.66702E-01   -0.66699E-01 19540   0.150E+00
DAV:   4    -0.928635995434E+03   -0.15028E-02   -0.15027E-02 19268   0.219E-01    0.103E+01
DAV:   5    -0.927762119221E+03    0.87388E+00   -0.17742E+00 20460   0.368E+00    0.570E+00
DAV:   6    -0.927718400043E+03    0.43719E-01   -0.15076E+00 19532   0.281E+00    0.163E+00
DAV:   7    -0.927736815183E+03   -0.18415E-01   -0.28353E-01 18612   0.133E+00    0.614E-01
DAV:   8    -0.927733311288E+03    0.35039E-02   -0.29506E-02 18780   0.413E-01    0.333E-01
DAV:   9    -0.927730280784E+03    0.30305E-02   -0.14994E-02 18284   0.302E-01    0.184E-01
DAV:  10    -0.927728552368E+03    0.17284E-02   -0.31934E-03 22044   0.197E-01    0.589E-02
DAV:  11    -0.927728188167E+03    0.36420E-03   -0.16412E-03 19100   0.995E-02    0.524E-02
DAV:  12    -0.927727855670E+03    0.33250E-03   -0.27536E-04 15724   0.663E-02    0.212E-02
DAV:  13    -0.927727724705E+03    0.13096E-03   -0.21741E-04 14500   0.598E-02    0.258E-02
DAV:  14    -0.927727694301E+03    0.30404E-04   -0.14644E-04 13916   0.410E-02
   4094 T=   255. E= -.93247009E+03 F= -.93890914E+03 E0= -.93890914E+03  EK= 0.64390E+01 SP= 0.00E+00 SK= 0.00E+00
   4095 T=   254. E= -.93253001E+03 F= -.93893779E+03 E0= -.93893779E+03  EK= 0.64078E+01 SP= 0.00E+00 SK= 0.00E+00
   4096 T=   253. E= -.93258967E+03 F= -.93896703E+03 E0= -.93896703E+03  EK= 0.63774E+01 SP= 0.00E+00 SK= 0.00E+00
   4097 T=   254. E= -.93266618E+03 F= -.93906093E+03 E0= -.93906093E+03  EK= 0.63947E+01 SP= 0.00E+00 SK= 0.00E+00
   4098 T=   259. E= -.93262855E+03 F= -.93915949E+03 E0= -.93915949E+03  EK= 0.65309E+01 SP= 0.00E+00 SK= 0.00E+00
   4099 T=   263. E= -.93260999E+03 F= -.93922922E+03 E0= -.93922922E+03  EK= 0.66192E+01 SP= 0.00E+00 SK= 0.00E+00
   4100 T=   261. E= -.93266174E+03 F= -.93924473E+03 E0= -.93924473E+03  EK= 0.65830E+01 SP= 0.00E+00 SK= 0.00E+00
   4101 T=   256. E= -.93275848E+03 F= -.93920066E+03 E0= -.93920066E+03  EK= 0.64422E+01 SP= 0.00E+00 SK= 0.00E+00
   4102 T=   249. E= -.93277478E+03 F= -.93906220E+03 E0= -.93906220E+03  EK= 0.62874E+01 SP= 0.00E+00 SK= 0.00E+00
   4103 T=   247. E= -.93270392E+03 F= -.93892532E+03 E0= -.93892532E+03  EK= 0.62214E+01 SP= 0.00E+00 SK= 0.00E+00
   4104 T=   247. E= -.93265467E+03 F= -.93888278E+03 E0= -.93888278E+03  EK= 0.62281E+01 SP= 0.00E+00 SK= 0.00E+00
   4105 T=   250. E= -.93264803E+03 F= -.93895765E+03 E0= -.93895765E+03  EK= 0.63096E+01 SP= 0.00E+00 SK= 0.00E+00
   4106 T=   256. E= -.93268283E+03 F= -.93913619E+03 E0= -.93913619E+03  EK= 0.64534E+01 SP= 0.00E+00 SK= 0.00E+00
   4107 T=   267. E= -.93262376E+03 F= -.93935421E+03 E0= -.93935421E+03  EK= 0.67305E+01 SP= 0.00E+00 SK= 0.00E+00
   4108 T=   274. E= -.93254497E+03 F= -.93946319E+03 E0= -.93946319E+03  EK= 0.69182E+01 SP= 0.00E+00 SK= 0.00E+00
   4109 T=   279. E= -.93243001E+03 F= -.93946600E+03 E0= -.93946600E+03  EK= 0.70360E+01 SP= 0.00E+00 SK= 0.00E+00
   4110 T=   283. E= -.93224055E+03 F= -.93937705E+03 E0= -.93937705E+03  EK= 0.71365E+01 SP= 0.00E+00 SK= 0.00E+00
   4111 T=   286. E= -.93210572E+03 F= -.93931264E+03 E0= -.93931264E+03  EK= 0.72069E+01 SP= 0.00E+00 SK= 0.00E+00
   4112 T=   289. E= -.93199514E+03 F= -.93927063E+03 E0= -.93927063E+03  EK= 0.72755E+01 SP= 0.00E+00 SK= 0.00E+00
   4113 T=   288. E= -.93199811E+03 F= -.93925676E+03 E0= -.93925676E+03  EK= 0.72587E+01 SP= 0.00E+00 SK= 0.00E+00
   4114 T=   288. E= -.93201126E+03 F= -.93928277E+03 E0= -.93928277E+03  EK= 0.72715E+01 SP= 0.00E+00 SK= 0.00E+00
   4115 T=   289. E= -.93198457E+03 F= -.93927564E+03 E0= -.93927564E+03  EK= 0.72911E+01 SP= 0.00E+00 SK= 0.00E+00
   4116 T=   285. E= -.93203860E+03 F= -.93921312E+03 E0= -.93921312E+03  EK= 0.71745E+01 SP= 0.00E+00 SK= 0.00E+00
   4117 T=   277. E= -.93205412E+03 F= -.93904227E+03 E0= -.93904227E+03  EK= 0.69882E+01 SP= 0.00E+00 SK= 0.00E+00
   4118 T=   271. E= -.93199377E+03 F= -.93883550E+03 E0= -.93883550E+03  EK= 0.68417E+01 SP= 0.00E+00 SK= 0.00E+00
   4119 T=   266. E= -.93196183E+03 F= -.93867558E+03 E0= -.93867558E+03  EK= 0.67138E+01 SP= 0.00E+00 SK= 0.00E+00
       N       E                     dE             d eps       ncg     rms          rms(c)
DAV:   1    -0.871071677562E+03    0.56656E+02   -0.12388E+04 16238   0.213E+02
DAV:   2    -0.930181099539E+03   -0.59109E+02   -0.59073E+02 19148   0.408E+01
DAV:   3    -0.930839358935E+03   -0.65826E+00   -0.65817E+00 19468   0.475E+00
DAV:   4    -0.930851963366E+03   -0.12604E-01   -0.12604E-01 19180   0.636E-01    0.197E+01
DAV:   5    -0.927617707741E+03    0.32343E+01   -0.56841E+00 18988   0.589E+00    0.112E+01
DAV:   6    -0.927316530414E+03    0.30118E+00   -0.59903E+00 19556   0.552E+00    0.269E+00
DAV:   7    -0.927407321557E+03   -0.90791E-01   -0.10463E+00 18700   0.236E+00    0.121E+00
DAV:   8    -0.927396675101E+03    0.10646E-01   -0.10646E-01 18972   0.713E-01    0.625E-01
DAV:   9    -0.927386592321E+03    0.10083E-01   -0.28846E-02 18684   0.487E-01    0.280E-01
DAV:  10    -0.927380352456E+03    0.62399E-02   -0.72632E-03 19068   0.315E-01    0.121E-01
DAV:  11    -0.927378561853E+03    0.17906E-02   -0.61104E-03 19444   0.218E-01    0.102E-01
DAV:  12    -0.927377198890E+03    0.13630E-02   -0.13584E-03 19028   0.138E-01    0.436E-02
DAV:  13    -0.927376372446E+03    0.82644E-03   -0.73784E-04 17812   0.152E-01    0.548E-02
DAV:  14    -0.927376282963E+03    0.89483E-04   -0.10468E-03 19420   0.945E-02    0.286E-02
DAV:  15    -0.927376289505E+03   -0.65422E-05   -0.26697E-04 15084   0.322E-02
   4120 T=   265. E= -.93191518E+03 F= -.93858265E+03 E0= -.93858265E+03  EK= 0.66675E+01 SP= 0.00E+00 SK= 0.00E+00
   4121 T=   263. E= -.93187973E+03 F= -.93852067E+03 E0= -.93852067E+03  EK= 0.66409E+01 SP= 0.00E+00 SK= 0.00E+00
   4122 T=   264. E= -.93189534E+03 F= -.93854651E+03 E0= -.93854651E+03  EK= 0.66512E+01 SP= 0.00E+00 SK= 0.00E+00
   4123 T=   267. E= -.93191173E+03 F= -.93864361E+03 E0= -.93864361E+03  EK= 0.67319E+01 SP= 0.00E+00 SK= 0.00E+00
   4124 T=   267. E= -.93199985E+03 F= -.93874107E+03 E0= -.93874107E+03  EK= 0.67412E+01 SP= 0.00E+00 SK= 0.00E+00
   4125 T=   268. E= -.93209467E+03 F= -.93884123E+03 E0= -.93884123E+03  EK= 0.67466E+01 SP= 0.00E+00 SK= 0.00E+00
   4126 T=   268. E= -.93213490E+03 F= -.93888661E+03 E0= -.93888661E+03  EK= 0.67517E+01 SP= 0.00E+00 SK= 0.00E+00
   4127 T=   267. E= -.93216690E+03 F= -.93890184E+03 E0= -.93890184E+03  EK= 0.67349E+01 SP= 0.00E+00 SK= 0.00E+00
   4128 T=   266. E= -.93219105E+03 F= -.93889604E+03 E0= -.93889604E+03  EK= 0.67050E+01 SP= 0.00E+00 SK= 0.00E+00
   4129 T=   270. E= -.93212064E+03 F= -.93893343E+03 E0= -.93893343E+03  EK= 0.68128E+01 SP= 0.00E+00 SK= 0.00E+00
       N       E                     dE             d eps       ncg     rms          rms(c)
DAV:   1    -0.920372156194E+03    0.70041E+01   -0.31338E+03 16238   0.109E+02
DAV:   2    -0.928997198088E+03   -0.86250E+01   -0.86227E+01 19332   0.164E+01
DAV:   3    -0.929082354068E+03   -0.85156E-01   -0.85151E-01 19564   0.170E+00
DAV:   4    -0.929084223196E+03   -0.18691E-02   -0.18691E-02 19372   0.244E-01    0.108E+01
DAV:   5    -0.927863602580E+03    0.12206E+01   -0.24803E+00 20364   0.432E+00    0.577E+00
DAV:   6    -0.927761301291E+03    0.10230E+00   -0.17408E+00 19604   0.303E+00    0.187E+00
DAV:   7    -0.927779196302E+03   -0.17895E-01   -0.32687E-01 18972   0.145E+00    0.666E-01
DAV:   8    -0.927774983313E+03    0.42130E-02   -0.34243E-02 19100   0.457E-01    0.356E-01
DAV:   9    -0.927770592278E+03    0.43910E-02   -0.16395E-02 18636   0.340E-01    0.189E-01
DAV:  10    -0.927768446797E+03    0.21455E-02   -0.35851E-03 21332   0.222E-01    0.761E-02
DAV:  11    -0.927767769343E+03    0.67745E-03   -0.23692E-03 18876   0.140E-01    0.621E-02
DAV:  12    -0.927767284837E+03    0.48451E-03   -0.45415E-04 18252   0.981E-02    0.269E-02
DAV:  13    -0.927767041734E+03    0.24310E-03   -0.26564E-04 15260   0.913E-02    0.259E-02
DAV:  14    -0.927767014067E+03    0.27667E-04   -0.32738E-04 18324   0.580E-02
   4130 T=   274. E= -.93203964E+03 F= -.93894669E+03 E0= -.93894669E+03  EK= 0.69071E+01 SP= 0.00E+00 SK= 0.00E+00
   4131 T=   274. E= -.93207797E+03 F= -.93898217E+03 E0= -.93898217E+03  EK= 0.69042E+01 SP= 0.00E+00 SK= 0.00E+00
   4132 T=   271. E= -.93210629E+03 F= -.93892985E+03 E0= -.93892985E+03  EK= 0.68236E+01 SP= 0.00E+00 SK= 0.00E+00
   4133 T=   267. E= -.93215023E+03 F= -.93889182E+03 E0= -.93889182E+03  EK= 0.67416E+01 SP= 0.00E+00 SK= 0.00E+00
   4134 T=   270. E= -.93211812E+03 F= -.93891250E+03 E0= -.93891250E+03  EK= 0.67944E+01 SP= 0.00E+00 SK= 0.00E+00
   4135 T=   276. E= -.93203126E+03 F= -.93898674E+03 E0= -.93898674E+03  EK= 0.69555E+01 SP= 0.00E+00 SK= 0.00E+00
   4136 T=   281. E= -.93197065E+03 F= -.93904754E+03 E0= -.93904754E+03  EK= 0.70769E+01 SP= 0.00E+00 SK= 0.00E+00
   4137 T=   282. E= -.93200916E+03 F= -.93912318E+03 E0= -.93912318E+03  EK= 0.71140E+01 SP= 0.00E+00 SK= 0.00E+00
   4138 T=   282. E= -.93208402E+03 F= -.93919388E+03 E0= -.93919388E+03  EK= 0.71099E+01 SP= 0.00E+00 SK= 0.00E+00
   4139 T=   286. E= -.93203631E+03 F= -.93924800E+03 E0= -.93924800E+03  EK= 0.72117E+01 SP= 0.00E+00 SK= 0.00E+00
   4140 T=   290. E= -.93199532E+03 F= -.93930303E+03 E0= -.93930303E+03  EK= 0.73077E+01 SP= 0.00E+00 SK= 0.00E+00
   4141 T=   289. E= -.93201528E+03 F= -.93931195E+03 E0= -.93931195E+03  EK= 0.72967E+01 SP= 0.00E+00 SK= 0.00E+00
   4142 T=   289. E= -.93202564E+03 F= -.93929786E+03 E0= -.93929786E+03  EK= 0.72722E+01 SP= 0.00E+00 SK= 0.00E+00
   4143 T=   289. E= -.93196862E+03 F= -.93924597E+03 E0= -.93924597E+03  EK= 0.72773E+01 SP= 0.00E+00 SK= 0.00E+00
   4144 T=   286. E= -.93193357E+03 F= -.93913014E+03 E0= -.93913014E+03  EK= 0.71966E+01 SP= 0.00E+00 SK= 0.00E+00
   4145 T=   274. E= -.93210734E+03 F= -.93901168E+03 E0= -.93901168E+03  EK= 0.69043E+01 SP= 0.00E+00 SK= 0.00E+00
   4146 T=   264. E= -.93224193E+03 F= -.93889384E+03 E0= -.93889384E+03  EK= 0.66519E+01 SP= 0.00E+00 SK= 0.00E+00
   4147 T=   259. E= -.93228929E+03 F= -.93882500E+03 E0= -.93882500E+03  EK= 0.65357E+01 SP= 0.00E+00 SK= 0.00E+00
       N       E                     dE             d eps       ncg     rms          rms(c)
DAV:   1    -0.897311558735E+03    0.30455E+02   -0.84113E+03 16238   0.177E+02
DAV:   2    -0.929743570992E+03   -0.32432E+02   -0.32415E+02 19204   0.307E+01
DAV:   3    -0.930088829334E+03   -0.34526E+00   -0.34522E+00 19492   0.338E+00
DAV:   4    -0.930095861684E+03   -0.70323E-02   -0.70319E-02 19220   0.464E-01    0.160E+01
DAV:   5    -0.927868598970E+03    0.22273E+01   -0.32644E+00 19236   0.455E+00    0.912E+00
DAV:   6    -0.927564589079E+03    0.30401E+00   -0.45367E+00 19548   0.475E+00    0.195E+00
DAV:   7    -0.927593350452E+03   -0.28761E-01   -0.77866E-01 18716   0.208E+00    0.906E-01
DAV:   8    -0.927586104099E+03    0.72464E-02   -0.73998E-02 19276   0.565E-01    0.497E-01
DAV:   9    -0.927579043860E+03    0.70602E-02   -0.24174E-02 18932   0.438E-01    0.270E-01
DAV:  10    -0.927574279207E+03    0.47647E-02   -0.60327E-03 20092   0.314E-01    0.109E-01
DAV:  11    -0.927573209858E+03    0.10693E-02   -0.58933E-03 19564   0.209E-01    0.935E-02
DAV:  12    -0.927572116817E+03    0.10930E-02   -0.95376E-04 18620   0.114E-01    0.398E-02
DAV:  13    -0.927571506323E+03    0.61049E-03   -0.70248E-04 17636   0.141E-01    0.506E-02
DAV:  14    -0.927571430110E+03    0.76213E-04   -0.82553E-04 19380   0.901E-02
   4148 T=   255. E= -.93227351E+03 F= -.93871166E+03 E0= -.93871166E+03  EK= 0.64382E+01 SP= 0.00E+00 SK= 0.00E+00
   4149 T=   256. E= -.93225445E+03 F= -.93871480E+03 E0= -.93871480E+03  EK= 0.64604E+01 SP= 0.00E+00 SK= 0.00E+00
   4150 T=   259. E= -.93219270E+03 F= -.93871862E+03 E0= -.93871862E+03  EK= 0.65259E+01 SP= 0.00E+00 SK= 0.00E+00
   4151 T=   257. E= -.93222015E+03 F= -.93870476E+03 E0= -.93870476E+03  EK= 0.64846E+01 SP= 0.00E+00 SK= 0.00E+00
   4152 T=   254. E= -.93226970E+03 F= -.93866181E+03 E0= -.93866181E+03  EK= 0.63921E+01 SP= 0.00E+00 SK= 0.00E+00
   4153 T=   253. E= -.93223929E+03 F= -.93861961E+03 E0= -.93861961E+03  EK= 0.63803E+01 SP= 0.00E+00 SK= 0.00E+00
   4154 T=   255. E= -.93218931E+03 F= -.93862294E+03 E0= -.93862294E+03  EK= 0.64336E+01 SP= 0.00E+00 SK= 0.00E+00
   4155 T=   257. E= -.93221387E+03 F= -.93869828E+03 E0= -.93869828E+03  EK= 0.64844E+01 SP= 0.00E+00 SK= 0.00E+00
   4156 T=   258. E= -.93229834E+03 F= -.93879378E+03 E0= -.93879378E+03  EK= 0.64954E+01 SP= 0.00E+00 SK= 0.00E+00
   4157 T=   262. E= -.93233529E+03 F= -.93892771E+03 E0= -.93892771E+03  EK= 0.65924E+01 SP= 0.00E+00 SK= 0.00E+00
   4158 T=   269. E= -.93231218E+03 F= -.93909066E+03 E0= -.93909066E+03  EK= 0.67785E+01 SP= 0.00E+00 SK= 0.00E+00
   4159 T=   273. E= -.93235328E+03 F= -.93922691E+03 E0= -.93922691E+03  EK= 0.68736E+01 SP= 0.00E+00 SK= 0.00E+00
   4160 T=   272. E= -.93238361E+03 F= -.93924065E+03 E0= -.93924065E+03  EK= 0.68570E+01 SP= 0.00E+00 SK= 0.00E+00
   4161 T=   272. E= -.93229124E+03 F= -.93913734E+03 E0= -.93913734E+03  EK= 0.68461E+01 SP= 0.00E+00 SK= 0.00E+00
   4162 T=   269. E= -.93224107E+03 F= -.93901763E+03 E0= -.93901763E+03  EK= 0.67766E+01 SP= 0.00E+00 SK= 0.00E+00
   4163 T=   270. E= -.93220144E+03 F= -.93900298E+03 E0= -.93900298E+03  EK= 0.68015E+01 SP= 0.00E+00 SK= 0.00E+00
   4164 T=   277. E= -.93216227E+03 F= -.93914369E+03 E0= -.93914369E+03  EK= 0.69814E+01 SP= 0.00E+00 SK= 0.00E+00
   4165 T=   279. E= -.93224578E+03 F= -.93927290E+03 E0= -.93927290E+03  EK= 0.70271E+01 SP= 0.00E+00 SK= 0.00E+00
   4166 T=   278. E= -.93234300E+03 F= -.93934914E+03 E0= -.93934914E+03  EK= 0.70061E+01 SP= 0.00E+00 SK= 0.00E+00
   4167 T=   278. E= -.93236795E+03 F= -.93938722E+03 E0= -.93938722E+03  EK= 0.70193E+01 SP= 0.00E+00 SK= 0.00E+00
   4168 T=   276. E= -.93239557E+03 F= -.93936192E+03 E0= -.93936192E+03  EK= 0.69663E+01 SP= 0.00E+00 SK= 0.00E+00
   4169 T=   274. E= -.93240273E+03 F= -.93929745E+03 E0= -.93929745E+03  EK= 0.68947E+01 SP= 0.00E+00 SK= 0.00E+00
   4170 T=   274. E= -.93234242E+03 F= -.93925659E+03 E0= -.93925659E+03  EK= 0.69142E+01 SP= 0.00E+00 SK= 0.00E+00
   4171 T=   274. E= -.93233581E+03 F= -.93923932E+03 E0= -.93923932E+03  EK= 0.69035E+01 SP= 0.00E+00 SK= 0.00E+00
   4172 T=   276. E= -.93230720E+03 F= -.93925834E+03 E0= -.93925834E+03  EK= 0.69511E+01 SP= 0.00E+00 SK= 0.00E+00
   4173 T=   280. E= -.93227929E+03 F= -.93934694E+03 E0= -.93934694E+03  EK= 0.70677E+01 SP= 0.00E+00 SK= 0.00E+00
   4174 T=   284. E= -.93223669E+03 F= -.93940385E+03 E0= -.93940385E+03  EK= 0.71672E+01 SP= 0.00E+00 SK= 0.00E+00
   4175 T=   285. E= -.93220666E+03 F= -.93938171E+03 E0= -.93938171E+03  EK= 0.71750E+01 SP= 0.00E+00 SK= 0.00E+00
   4176 T=   275. E= -.93229323E+03 F= -.93923413E+03 E0= -.93923413E+03  EK= 0.69409E+01 SP= 0.00E+00 SK= 0.00E+00
   4177 T=   265. E= -.93238518E+03 F= -.93906707E+03 E0= -.93906707E+03  EK= 0.66819E+01 SP= 0.00E+00 SK= 0.00E+00
   4178 T=   258. E= -.93245815E+03 F= -.93895150E+03 E0= -.93895150E+03  EK= 0.64933E+01 SP= 0.00E+00 SK= 0.00E+00
   4179 T=   253. E= -.93255465E+03 F= -.93894233E+03 E0= -.93894233E+03  EK= 0.63877E+01 SP= 0.00E+00 SK= 0.00E+00
   4180 T=   255. E= -.93254938E+03 F= -.93898258E+03 E0= -.93898258E+03  EK= 0.64332E+01 SP= 0.00E+00 SK= 0.00E+00
   4181 T=   257. E= -.93249574E+03 F= -.93897674E+03 E0= -.93897674E+03  EK= 0.64810E+01 SP= 0.00E+00 SK= 0.00E+00
   4182 T=   254. E= -.93243860E+03 F= -.93884492E+03 E0= -.93884492E+03  EK= 0.64063E+01 SP= 0.00E+00 SK= 0.00E+00
   4183 T=   245. E= -.93247389E+03 F= -.93864968E+03 E0= -.93864968E+03  EK= 0.61758E+01 SP= 0.00E+00 SK= 0.00E+00
   4184 T=   236. E= -.93253610E+03 F= -.93847986E+03 E0= -.93847986E+03  EK= 0.59438E+01 SP= 0.00E+00 SK= 0.00E+00
   4185 T=   234. E= -.93254646E+03 F= -.93844625E+03 E0= -.93844625E+03  EK= 0.58998E+01 SP= 0.00E+00 SK= 0.00E+00
   4186 T=   237. E= -.93252699E+03 F= -.93851324E+03 E0= -.93851324E+03  EK= 0.59862E+01 SP= 0.00E+00 SK= 0.00E+00
   4187 T=   247. E= -.93244111E+03 F= -.93866143E+03 E0= -.93866143E+03  EK= 0.62203E+01 SP= 0.00E+00 SK= 0.00E+00
   4188 T=   253. E= -.93240839E+03 F= -.93877873E+03 E0= -.93877873E+03  EK= 0.63703E+01 SP= 0.00E+00 SK= 0.00E+00
       N       E                     dE             d eps       ncg     rms          rms(c)
DAV:   1    -0.828826136348E+03    0.98745E+02   -0.17916E+04 16238   0.254E+02
DAV:   2    -0.930221324570E+03   -0.10140E+03   -0.10130E+03 19084   0.538E+01
DAV:   3    -0.931484612395E+03   -0.12633E+01   -0.12630E+01 19436   0.667E+00
DAV:   4    -0.931507988942E+03   -0.23377E-01   -0.23374E-01 19228   0.874E-01    0.243E+01
DAV:   5    -0.927692942833E+03    0.38150E+01   -0.81747E+00 18580   0.684E+00    0.139E+01
DAV:   6    -0.927522542868E+03    0.17040E+00   -0.85816E+00 19516   0.657E+00    0.324E+00
DAV:   7    -0.927684844363E+03   -0.16230E+00   -0.14614E+00 18628   0.268E+00    0.146E+00
DAV:   8    -0.927679538159E+03    0.53062E-02   -0.13648E-01 18972   0.810E-01    0.714E-01
DAV:   9    -0.927673517975E+03    0.60202E-02   -0.38213E-02 18868   0.551E-01    0.317E-01
DAV:  10    -0.927670143809E+03    0.33742E-02   -0.91504E-03 18988   0.305E-01    0.122E-01
DAV:  11    -0.927669179318E+03    0.96449E-03   -0.49557E-03 19596   0.180E-01    0.889E-02
DAV:  12    -0.927668241379E+03    0.93794E-03   -0.85800E-04 18772   0.124E-01    0.374E-02
DAV:  13    -0.927667802804E+03    0.43857E-03   -0.57465E-04 17652   0.116E-01    0.493E-02
DAV:  14    -0.927667704193E+03    0.98611E-04   -0.70428E-04 19324   0.843E-02
   4189 T=   255. E= -.93245523E+03 F= -.93887197E+03 E0= -.93887197E+03  EK= 0.64167E+01 SP= 0.00E+00 SK= 0.00E+00
   4190 T=   256. E= -.93237917E+03 F= -.93883429E+03 E0= -.93883429E+03  EK= 0.64551E+01 SP= 0.00E+00 SK= 0.00E+00
   4191 T=   260. E= -.93224413E+03 F= -.93880099E+03 E0= -.93880099E+03  EK= 0.65569E+01 SP= 0.00E+00 SK= 0.00E+00
   4192 T=   263. E= -.93213572E+03 F= -.93877408E+03 E0= -.93877408E+03  EK= 0.66384E+01 SP= 0.00E+00 SK= 0.00E+00
   4193 T=   266. E= -.93208572E+03 F= -.93879797E+03 E0= -.93879797E+03  EK= 0.67123E+01 SP= 0.00E+00 SK= 0.00E+00
   4194 T=   274. E= -.93197577E+03 F= -.93887183E+03 E0= -.93887183E+03  EK= 0.68961E+01 SP= 0.00E+00 SK= 0.00E+00
   4195 T=   283. E= -.93184812E+03 F= -.93897581E+03 E0= -.93897581E+03  EK= 0.71277E+01 SP= 0.00E+00 SK= 0.00E+00
   4196 T=   289. E= -.93173628E+03 F= -.93902692E+03 E0= -.93902692E+03  EK= 0.72906E+01 SP= 0.00E+00 SK= 0.00E+00
   4197 T=   291. E= -.93158766E+03 F= -.93893317E+03 E0= -.93893317E+03  EK= 0.73455E+01 SP= 0.00E+00 SK= 0.00E+00
   4198 T=   291. E= -.93147503E+03 F= -.93881554E+03 E0= -.93881554E+03  EK= 0.73405E+01 SP= 0.00E+00 SK= 0.00E+00
       N       E                     dE             d eps       ncg     rms          rms(c)
DAV:   1    -0.920462592027E+03    0.72052E+01   -0.30083E+03 16238   0.108E+02
DAV:   2    -0.928610755028E+03   -0.81482E+01   -0.81459E+01 19196   0.159E+01
DAV:   3    -0.928692943834E+03   -0.82189E-01   -0.82184E-01 19492   0.166E+00
DAV:   4    -0.928694757305E+03   -0.18135E-02   -0.18134E-02 19308   0.238E-01    0.108E+01
DAV:   5    -0.927642006498E+03    0.10528E+01   -0.20119E+00 20220   0.375E+00    0.593E+00
DAV:   6    -0.927526577300E+03    0.11543E+00   -0.16205E+00 19580   0.297E+00    0.169E+00
DAV:   7    -0.927540066541E+03   -0.13489E-01   -0.33634E-01 19188   0.149E+00    0.665E-01
DAV:   8    -0.927533217331E+03    0.68492E-02   -0.38694E-02 18868   0.467E-01    0.352E-01
DAV:   9    -0.927527244545E+03    0.59728E-02   -0.13922E-02 18500   0.313E-01    0.174E-01
DAV:  10    -0.927524116508E+03    0.31280E-02   -0.32520E-03 21228   0.246E-01    0.794E-02
DAV:  11    -0.927523203652E+03    0.91286E-03   -0.36408E-03 19324   0.176E-01    0.883E-02
DAV:  12    -0.927522501408E+03    0.70224E-03   -0.13013E-03 18900   0.123E-01    0.421E-02
DAV:  13    -0.927522240616E+03    0.26079E-03   -0.37674E-04 18404   0.881E-02    0.502E-02
DAV:  14    -0.927522169487E+03    0.71129E-04   -0.47932E-04 18820   0.676E-02
   4199 T=   288. E= -.93147627E+03 F= -.93872590E+03 E0= -.93872590E+03  EK= 0.72496E+01 SP= 0.00E+00 SK= 0.00E+00
   4200 T=   285. E= -.93145754E+03 F= -.93863836E+03 E0= -.93863836E+03  EK= 0.71808E+01 SP= 0.00E+00 SK= 0.00E+00
   4201 T=   283. E= -.93154458E+03 F= -.93867843E+03 E0= -.93867843E+03  EK= 0.71338E+01 SP= 0.00E+00 SK= 0.00E+00
   4202 T=   282. E= -.93166104E+03 F= -.93876306E+03 E0= -.93876306E+03  EK= 0.71020E+01 SP= 0.00E+00 SK= 0.00E+00
   4203 T=   283. E= -.93170173E+03 F= -.93884610E+03 E0= -.93884610E+03  EK= 0.71444E+01 SP= 0.00E+00 SK= 0.00E+00
   4204 T=   286. E= -.93169961E+03 F= -.93890454E+03 E0= -.93890454E+03  EK= 0.72049E+01 SP= 0.00E+00 SK= 0.00E+00
   4205 T=   288. E= -.93167929E+03 F= -.93894090E+03 E0= -.93894090E+03  EK= 0.72616E+01 SP= 0.00E+00 SK= 0.00E+00
   4206 T=   287. E= -.93167640E+03 F= -.93890496E+03 E0= -.93890496E+03  EK= 0.72286E+01 SP= 0.00E+00 SK= 0.00E+00
   4207 T=   285. E= -.93165211E+03 F= -.93884298E+03 E0= -.93884298E+03  EK= 0.71909E+01 SP= 0.00E+00 SK= 0.00E+00
   4208 T=   283. E= -.93165250E+03 F= -.93878122E+03 E0= -.93878122E+03  EK= 0.71287E+01 SP= 0.00E+00 SK= 0.00E+00
   4209 T=   280. E= -.93176914E+03 F= -.93883281E+03 E0= -.93883281E+03  EK= 0.70637E+01 SP= 0.00E+00 SK= 0.00E+00
   4210 T=   282. E= -.93185380E+03 F= -.93895728E+03 E0= -.93895728E+03  EK= 0.71035E+01 SP= 0.00E+00 SK= 0.00E+00
   4211 T=   285. E= -.93185123E+03 F= -.93904693E+03 E0= -.93904693E+03  EK= 0.71957E+01 SP= 0.00E+00 SK= 0.00E+00
   4212 T=   282. E= -.93192495E+03 F= -.93903783E+03 E0= -.93903783E+03  EK= 0.71129E+01 SP= 0.00E+00 SK= 0.00E+00
   4213 T=   278. E= -.93202444E+03 F= -.93903790E+03 E0= -.93903790E+03  EK= 0.70135E+01 SP= 0.00E+00 SK= 0.00E+00
   4214 T=   277. E= -.93207528E+03 F= -.93905910E+03 E0= -.93905910E+03  EK= 0.69838E+01 SP= 0.00E+00 SK= 0.00E+00
   4215 T=   283. E= -.93196912E+03 F= -.93911052E+03 E0= -.93911052E+03  EK= 0.71414E+01 SP= 0.00E+00 SK= 0.00E+00
   4216 T=   289. E= -.93181795E+03 F= -.93909221E+03 E0= -.93909221E+03  EK= 0.72743E+01 SP= 0.00E+00 SK= 0.00E+00
   4217 T=   283. E= -.93182453E+03 F= -.93895345E+03 E0= -.93895345E+03  EK= 0.71289E+01 SP= 0.00E+00 SK= 0.00E+00
   4218 T=   271. E= -.93193465E+03 F= -.93876012E+03 E0= -.93876012E+03  EK= 0.68255E+01 SP= 0.00E+00 SK= 0.00E+00
   4219 T=   264. E= -.93198095E+03 F= -.93862856E+03 E0= -.93862856E+03  EK= 0.66476E+01 SP= 0.00E+00 SK= 0.00E+00
   4220 T=   263. E= -.93201607E+03 F= -.93863488E+03 E0= -.93863488E+03  EK= 0.66188E+01 SP= 0.00E+00 SK= 0.00E+00
   4221 T=   261. E= -.93218009E+03 F= -.93875595E+03 E0= -.93875595E+03  EK= 0.65759E+01 SP= 0.00E+00 SK= 0.00E+00
   4222 T=   264. E= -.93225086E+03 F= -.93890685E+03 E0= -.93890685E+03  EK= 0.66560E+01 SP= 0.00E+00 SK= 0.00E+00
   4223 T=   270. E= -.93221327E+03 F= -.93901853E+03 E0= -.93901853E+03  EK= 0.68053E+01 SP= 0.00E+00 SK= 0.00E+00
   4224 T=   269. E= -.93222555E+03 F= -.93900674E+03 E0= -.93900674E+03  EK= 0.67812E+01 SP= 0.00E+00 SK= 0.00E+00
   4225 T=   263. E= -.93226769E+03 F= -.93889673E+03 E0= -.93889673E+03  EK= 0.66290E+01 SP= 0.00E+00 SK= 0.00E+00
       N       E                     dE             d eps       ncg     rms          rms(c)
DAV:   1    -0.863145455770E+03    0.64377E+02   -0.13754E+04 16238   0.225E+02
DAV:   2    -0.930205605253E+03   -0.67060E+02   -0.66999E+02 19196   0.435E+01
DAV:   3    -0.930959051233E+03   -0.75345E+00   -0.75330E+00 19460   0.510E+00
DAV:   4    -0.930973175094E+03   -0.14124E-01   -0.14122E-01 19228   0.676E-01    0.210E+01
DAV:   5    -0.927646824649E+03    0.33264E+01   -0.62013E+00 18684   0.604E+00    0.119E+01
DAV:   6    -0.927398256307E+03    0.24857E+00   -0.66209E+00 19484   0.576E+00    0.279E+00
DAV:   7    -0.927496651707E+03   -0.98395E-01   -0.11386E+00 18244   0.239E+00    0.126E+00
DAV:   8    -0.927486272780E+03    0.10379E-01   -0.11164E-01 18644   0.711E-01    0.593E-01
DAV:   9    -0.927478636693E+03    0.76361E-02   -0.23590E-02 18348   0.429E-01    0.263E-01
DAV:  10    -0.927474941086E+03    0.36956E-02   -0.66605E-03 18436   0.244E-01    0.962E-02
DAV:  11    -0.927474165225E+03    0.77586E-03   -0.30265E-03 19500   0.135E-01    0.720E-02
DAV:  12    -0.927473641505E+03    0.52372E-03   -0.40635E-04 17268   0.694E-02    0.338E-02
DAV:  13    -0.927473224788E+03    0.41672E-03   -0.38060E-04 16812   0.887E-02    0.308E-02
DAV:  14    -0.927473190398E+03    0.34390E-04   -0.32062E-04 17332   0.498E-02
   4226 T=   257. E= -.93222896E+03 F= -.93870314E+03 E0= -.93870314E+03  EK= 0.64742E+01 SP= 0.00E+00 SK= 0.00E+00
   4227 T=   253. E= -.93224915E+03 F= -.93863223E+03 E0= -.93863223E+03  EK= 0.63831E+01 SP= 0.00E+00 SK= 0.00E+00
   4228 T=   253. E= -.93221399E+03 F= -.93858349E+03 E0= -.93858349E+03  EK= 0.63695E+01 SP= 0.00E+00 SK= 0.00E+00
   4229 T=   255. E= -.93219585E+03 F= -.93861190E+03 E0= -.93861190E+03  EK= 0.64161E+01 SP= 0.00E+00 SK= 0.00E+00
   4230 T=   255. E= -.93221399E+03 F= -.93864246E+03 E0= -.93864246E+03  EK= 0.64285E+01 SP= 0.00E+00 SK= 0.00E+00
   4231 T=   251. E= -.93228224E+03 F= -.93861491E+03 E0= -.93861491E+03  EK= 0.63327E+01 SP= 0.00E+00 SK= 0.00E+00
   4232 T=   247. E= -.93230124E+03 F= -.93852282E+03 E0= -.93852282E+03  EK= 0.62216E+01 SP= 0.00E+00 SK= 0.00E+00
   4233 T=   246. E= -.93224268E+03 F= -.93844122E+03 E0= -.93844122E+03  EK= 0.61985E+01 SP= 0.00E+00 SK= 0.00E+00
   4234 T=   246. E= -.93218477E+03 F= -.93838297E+03 E0= -.93838297E+03  EK= 0.61982E+01 SP= 0.00E+00 SK= 0.00E+00
   4235 T=   249. E= -.93207109E+03 F= -.93834036E+03 E0= -.93834036E+03  EK= 0.62693E+01 SP= 0.00E+00 SK= 0.00E+00
       N       E                     dE             d eps       ncg     rms          rms(c)
DAV:   1    -0.921519184052E+03    0.59540E+01   -0.24552E+03 16238   0.972E+01
DAV:   2    -0.927989149001E+03   -0.64700E+01   -0.64683E+01 19308   0.143E+01
DAV:   3    -0.928056039949E+03   -0.66891E-01   -0.66887E-01 19572   0.150E+00
DAV:   4    -0.928057579807E+03   -0.15399E-02   -0.15398E-02 19380   0.218E-01    0.102E+01
DAV:   5    -0.927169316378E+03    0.88826E+00   -0.17762E+00 20332   0.357E+00    0.557E+00
DAV:   6    -0.927123155015E+03    0.46161E-01   -0.14819E+00 19372   0.277E+00    0.159E+00
DAV:   7    -0.927143768120E+03   -0.20613E-01   -0.27500E-01 18572   0.129E+00    0.618E-01
DAV:   8    -0.927140846192E+03    0.29219E-02   -0.28650E-02 19028   0.422E-01    0.308E-01
DAV:   9    -0.927138538346E+03    0.23078E-02   -0.11665E-02 18260   0.266E-01    0.162E-01
DAV:  10    -0.927137137885E+03    0.14005E-02   -0.26785E-03 22124   0.180E-01    0.481E-02
DAV:  11    -0.927136827854E+03    0.31003E-03   -0.11462E-03 19092   0.866E-02    0.446E-02
DAV:  12    -0.927136539010E+03    0.28884E-03   -0.17168E-04 13636   0.622E-02    0.184E-02
DAV:  13    -0.927136428760E+03    0.11025E-03   -0.23702E-04 14732   0.641E-02    0.265E-02
DAV:  14    -0.927136406134E+03    0.22626E-04   -0.16170E-04 14084   0.401E-02
   4236 T=   252. E= -.93199307E+03 F= -.93833517E+03 E0= -.93833517E+03  EK= 0.63421E+01 SP= 0.00E+00 SK= 0.00E+00
   4237 T=   256. E= -.93199980E+03 F= -.93844954E+03 E0= -.93844954E+03  EK= 0.64497E+01 SP= 0.00E+00 SK= 0.00E+00
   4238 T=   261. E= -.93197038E+03 F= -.93854404E+03 E0= -.93854404E+03  EK= 0.65737E+01 SP= 0.00E+00 SK= 0.00E+00
   4239 T=   266. E= -.93193832E+03 F= -.93863058E+03 E0= -.93863058E+03  EK= 0.66923E+01 SP= 0.00E+00 SK= 0.00E+00
   4240 T=   269. E= -.93187323E+03 F= -.93864463E+03 E0= -.93864463E+03  EK= 0.67714E+01 SP= 0.00E+00 SK= 0.00E+00
   4241 T=   269. E= -.93189250E+03 F= -.93867461E+03 E0= -.93867461E+03  EK= 0.67821E+01 SP= 0.00E+00 SK= 0.00E+00
   4242 T=   268. E= -.93196634E+03 F= -.93873352E+03 E0= -.93873352E+03  EK= 0.67672E+01 SP= 0.00E+00 SK= 0.00E+00
   4243 T=   276. E= -.93191528E+03 F= -.93888425E+03 E0= -.93888425E+03  EK= 0.69690E+01 SP= 0.00E+00 SK= 0.00E+00
   4244 T=   286. E= -.93175457E+03 F= -.93897283E+03 E0= -.93897283E+03  EK= 0.72183E+01 SP= 0.00E+00 SK= 0.00E+00
   4245 T=   284. E= -.93176647E+03 F= -.93892962E+03 E0= -.93892962E+03  EK= 0.71631E+01 SP= 0.00E+00 SK= 0.00E+00
       N       E                     dE             d eps       ncg     rms          rms(c)
DAV:   1    -0.920503449335E+03    0.66330E+01   -0.30482E+03 16238   0.108E+02
DAV:   2    -0.928578956198E+03   -0.80755E+01   -0.80733E+01 19252   0.160E+01
DAV:   3    -0.928663292306E+03   -0.84336E-01   -0.84330E-01 19532   0.168E+00
DAV:   4    -0.928665195274E+03   -0.19030E-02   -0.19029E-02 19324   0.241E-01    0.106E+01
DAV:   5    -0.927593838201E+03    0.10714E+01   -0.21173E+00 19724   0.374E+00    0.582E+00
DAV:   6    -0.927504927169E+03    0.88911E-01   -0.16293E+00 19524   0.288E+00    0.173E+00
DAV:   7    -0.927522551826E+03   -0.17625E-01   -0.31110E-01 18788   0.144E+00    0.641E-01
DAV:   8    -0.927518767987E+03    0.37838E-02   -0.37087E-02 18876   0.452E-01    0.339E-01
DAV:   9    -0.927514770884E+03    0.39971E-02   -0.12548E-02 18612   0.287E-01    0.163E-01
DAV:  10    -0.927512831669E+03    0.19392E-02   -0.23190E-03 21348   0.201E-01    0.799E-02
DAV:  11    -0.927512171396E+03    0.66027E-03   -0.26294E-03 19044   0.154E-01    0.670E-02
DAV:  12    -0.927511654401E+03    0.51699E-03   -0.68477E-04 18980   0.112E-01    0.278E-02
DAV:  13    -0.927511468504E+03    0.18590E-03   -0.30658E-04 16204   0.816E-02    0.345E-02
DAV:  14    -0.927511419063E+03    0.49441E-04   -0.30658E-04 16700   0.605E-02
   4246 T=   274. E= -.93184113E+03 F= -.93874626E+03 E0= -.93874626E+03  EK= 0.69051E+01 SP= 0.00E+00 SK= 0.00E+00
   4247 T=   267. E= -.93182051E+03 F= -.93855998E+03 E0= -.93855998E+03  EK= 0.67395E+01 SP= 0.00E+00 SK= 0.00E+00
   4248 T=   266. E= -.93178497E+03 F= -.93848201E+03 E0= -.93848201E+03  EK= 0.66970E+01 SP= 0.00E+00 SK= 0.00E+00
   4249 T=   269. E= -.93174420E+03 F= -.93851767E+03 E0= -.93851767E+03  EK= 0.67735E+01 SP= 0.00E+00 SK= 0.00E+00
   4250 T=   270. E= -.93173570E+03 F= -.93853332E+03 E0= -.93853332E+03  EK= 0.67976E+01 SP= 0.00E+00 SK= 0.00E+00
   4251 T=   265. E= -.93179834E+03 F= -.93847192E+03 E0= -.93847192E+03  EK= 0.66736E+01 SP= 0.00E+00 SK= 0.00E+00
   4252 T=   257. E= -.93185364E+03 F= -.93832677E+03 E0= -.93832677E+03  EK= 0.64731E+01 SP= 0.00E+00 SK= 0.00E+00
   4253 T=   254. E= -.93182354E+03 F= -.93821672E+03 E0= -.93821672E+03  EK= 0.63932E+01 SP= 0.00E+00 SK= 0.00E+00
   4254 T=   249. E= -.93190780E+03 F= -.93818432E+03 E0= -.93818432E+03  EK= 0.62765E+01 SP= 0.00E+00 SK= 0.00E+00
   4255 T=   247. E= -.93200100E+03 F= -.93823480E+03 E0= -.93823480E+03  EK= 0.62338E+01 SP= 0.00E+00 SK= 0.00E+00
       N       E                     dE             d eps       ncg     rms          rms(c)
DAV:   1    -0.919710246302E+03    0.78012E+01   -0.30159E+03 16238   0.107E+02
DAV:   2    -0.928147861628E+03   -0.84376E+01   -0.84355E+01 19204   0.162E+01
DAV:   3    -0.928234074854E+03   -0.86213E-01   -0.86208E-01 19532   0.169E+00
DAV:   4    -0.928236049773E+03   -0.19749E-02   -0.19749E-02 19308   0.243E-01    0.105E+01
DAV:   5    -0.927179938849E+03    0.10561E+01   -0.18808E+00 20460   0.370E+00    0.580E+00
DAV:   6    -0.927079614220E+03    0.10032E+00   -0.17887E+00 19596   0.307E+00    0.160E+00
DAV:   7    -0.927098771610E+03   -0.19157E-01   -0.32876E-01 18828   0.143E+00    0.657E-01
DAV:   8    -0.927095052113E+03    0.37195E-02   -0.34894E-02 19036   0.452E-01    0.318E-01
DAV:   9    -0.927092339489E+03    0.27126E-02   -0.11777E-02 18860   0.266E-01    0.174E-01
DAV:  10    -0.927090592096E+03    0.17474E-02   -0.30214E-03 21652   0.201E-01    0.549E-02
DAV:  11    -0.927090253530E+03    0.33857E-03   -0.14942E-03 19428   0.977E-02    0.537E-02
DAV:  12    -0.927089956405E+03    0.29712E-03   -0.22005E-04 13436   0.485E-02    0.252E-02
DAV:  13    -0.927089775902E+03    0.18050E-03   -0.26953E-04 15076   0.661E-02    0.289E-02
DAV:  14    -0.927089758741E+03    0.17161E-04   -0.18940E-04 14156   0.379E-02
   4256 T=   249. E= -.93202126E+03 F= -.93829950E+03 E0= -.93829950E+03  EK= 0.62782E+01 SP= 0.00E+00 SK= 0.00E+00
   4257 T=   255. E= -.93190856E+03 F= -.93833629E+03 E0= -.93833629E+03  EK= 0.64277E+01 SP= 0.00E+00 SK= 0.00E+00
   4258 T=   262. E= -.93182213E+03 F= -.93841995E+03 E0= -.93841995E+03  EK= 0.65978E+01 SP= 0.00E+00 SK= 0.00E+00
   4259 T=   265. E= -.93185635E+03 F= -.93853553E+03 E0= -.93853553E+03  EK= 0.66792E+01 SP= 0.00E+00 SK= 0.00E+00
   4260 T=   271. E= -.93182997E+03 F= -.93866685E+03 E0= -.93866685E+03  EK= 0.68369E+01 SP= 0.00E+00 SK= 0.00E+00
   4261 T=   278. E= -.93175211E+03 F= -.93875356E+03 E0= -.93875356E+03  EK= 0.70014E+01 SP= 0.00E+00 SK= 0.00E+00
   4262 T=   283. E= -.93164266E+03 F= -.93876392E+03 E0= -.93876392E+03  EK= 0.71213E+01 SP= 0.00E+00 SK= 0.00E+00
   4263 T=   285. E= -.93156578E+03 F= -.93873720E+03 E0= -.93873720E+03  EK= 0.71714E+01 SP= 0.00E+00 SK= 0.00E+00
   4264 T=   285. E= -.93151206E+03 F= -.93869505E+03 E0= -.93869505E+03  EK= 0.71830E+01 SP= 0.00E+00 SK= 0.00E+00
   4265 T=   288. E= -.93142143E+03 F= -.93869042E+03 E0= -.93869042E+03  EK= 0.72690E+01 SP= 0.00E+00 SK= 0.00E+00
   4266 T=   291. E= -.93139597E+03 F= -.93872660E+03 E0= -.93872660E+03  EK= 0.73306E+01 SP= 0.00E+00 SK= 0.00E+00
   4267 T=   289. E= -.93141840E+03 F= -.93871183E+03 E0= -.93871183E+03  EK= 0.72934E+01 SP= 0.00E+00 SK= 0.00E+00
       N       E                     dE             d eps       ncg     rms          rms(c)
DAV:   1    -0.917687457397E+03    0.94023E+01   -0.38271E+03 16238   0.121E+02
DAV:   2    -0.928347825978E+03   -0.10660E+02   -0.10657E+02 19260   0.182E+01
DAV:   3    -0.928456776474E+03   -0.10895E+00   -0.10894E+00 19500   0.190E+00
DAV:   4    -0.928459186424E+03   -0.24100E-02   -0.24099E-02 19300   0.272E-01    0.114E+01
DAV:   5    -0.927519701634E+03    0.93948E+00   -0.18660E+00 19532   0.361E+00    0.644E+00
DAV:   6    -0.927499952250E+03    0.19749E-01   -0.18548E+00 19588   0.320E+00    0.167E+00
DAV:   7    -0.927521392436E+03   -0.21440E-01   -0.37707E-01 18972   0.160E+00    0.678E-01
DAV:   8    -0.927516066422E+03    0.53260E-02   -0.45406E-02 18820   0.498E-01    0.367E-01
DAV:   9    -0.927511359877E+03    0.47065E-02   -0.16913E-02 18428   0.318E-01    0.199E-01
DAV:  10    -0.927508519932E+03    0.28399E-02   -0.33283E-03 21300   0.247E-01    0.796E-02
DAV:  11    -0.927507737884E+03    0.78205E-03   -0.34920E-03 19460   0.175E-01    0.793E-02
DAV:  12    -0.927507095667E+03    0.64222E-03   -0.88239E-04 18836   0.107E-01    0.310E-02
DAV:  13    -0.927506800844E+03    0.29482E-03   -0.32712E-04 16788   0.972E-02    0.412E-02
DAV:  14    -0.927506743755E+03    0.57089E-04   -0.42012E-04 18572   0.676E-02
   4268 T=   287. E= -.93146952E+03 F= -.93869873E+03 E0= -.93869873E+03  EK= 0.72292E+01 SP= 0.00E+00 SK= 0.00E+00
   4269 T=   285. E= -.93152285E+03 F= -.93870786E+03 E0= -.93870786E+03  EK= 0.71850E+01 SP= 0.00E+00 SK= 0.00E+00
   4270 T=   290. E= -.93155293E+03 F= -.93885928E+03 E0= -.93885928E+03  EK= 0.73064E+01 SP= 0.00E+00 SK= 0.00E+00
   4271 T=   296. E= -.93155588E+03 F= -.93901718E+03 E0= -.93901718E+03  EK= 0.74613E+01 SP= 0.00E+00 SK= 0.00E+00
   4272 T=   302. E= -.93153556E+03 F= -.93913790E+03 E0= -.93913790E+03  EK= 0.76023E+01 SP= 0.00E+00 SK= 0.00E+00
   4273 T=   304. E= -.93156174E+03 F= -.93922054E+03 E0= -.93922054E+03  EK= 0.76588E+01 SP= 0.00E+00 SK= 0.00E+00
   4274 T=   303. E= -.93167691E+03 F= -.93931791E+03 E0= -.93931791E+03  EK= 0.76410E+01 SP= 0.00E+00 SK= 0.00E+00
   4275 T=   306. E= -.93176081E+03 F= -.93948615E+03 E0= -.93948615E+03  EK= 0.77253E+01 SP= 0.00E+00 SK= 0.00E+00
   4276 T=   310. E= -.93183233E+03 F= -.93965812E+03 E0= -.93965812E+03  EK= 0.78258E+01 SP= 0.00E+00 SK= 0.00E+00
   4277 T=   308. E= -.93194760E+03 F= -.93972129E+03 E0= -.93972129E+03  EK= 0.77737E+01 SP= 0.00E+00 SK= 0.00E+00
   4278 T=   303. E= -.93206518E+03 F= -.93969790E+03 E0= -.93969790E+03  EK= 0.76327E+01 SP= 0.00E+00 SK= 0.00E+00
   4279 T=   298. E= -.93209472E+03 F= -.93959423E+03 E0= -.93959423E+03  EK= 0.74995E+01 SP= 0.00E+00 SK= 0.00E+00
   4280 T=   291. E= -.93211835E+03 F= -.93946247E+03 E0= -.93946247E+03  EK= 0.73441E+01 SP= 0.00E+00 SK= 0.00E+00
   4281 T=   287. E= -.93208251E+03 F= -.93930519E+03 E0= -.93930519E+03  EK= 0.72227E+01 SP= 0.00E+00 SK= 0.00E+00
   4282 T=   282. E= -.93203379E+03 F= -.93914896E+03 E0= -.93914896E+03  EK= 0.71152E+01 SP= 0.00E+00 SK= 0.00E+00
   4283 T=   276. E= -.93204777E+03 F= -.93901039E+03 E0= -.93901039E+03  EK= 0.69626E+01 SP= 0.00E+00 SK= 0.00E+00
   4284 T=   273. E= -.93201909E+03 F= -.93888822E+03 E0= -.93888822E+03  EK= 0.68691E+01 SP= 0.00E+00 SK= 0.00E+00
   4285 T=   269. E= -.93204421E+03 F= -.93882709E+03 E0= -.93882709E+03  EK= 0.67829E+01 SP= 0.00E+00 SK= 0.00E+00
   4286 T=   266. E= -.93210656E+03 F= -.93879977E+03 E0= -.93879977E+03  EK= 0.66932E+01 SP= 0.00E+00 SK= 0.00E+00
   4287 T=   260. E= -.93215519E+03 F= -.93872040E+03 E0= -.93872040E+03  EK= 0.65652E+01 SP= 0.00E+00 SK= 0.00E+00
   4288 T=   261. E= -.93206748E+03 F= -.93863899E+03 E0= -.93863899E+03  EK= 0.65715E+01 SP= 0.00E+00 SK= 0.00E+00
   4289 T=   261. E= -.93197310E+03 F= -.93856364E+03 E0= -.93856364E+03  EK= 0.65905E+01 SP= 0.00E+00 SK= 0.00E+00
   4290 T=   263. E= -.93187541E+03 F= -.93851149E+03 E0= -.93851149E+03  EK= 0.66361E+01 SP= 0.00E+00 SK= 0.00E+00
   4291 T=   267. E= -.93179209E+03 F= -.93851483E+03 E0= -.93851483E+03  EK= 0.67227E+01 SP= 0.00E+00 SK= 0.00E+00
   4292 T=   271. E= -.93173287E+03 F= -.93856328E+03 E0= -.93856328E+03  EK= 0.68304E+01 SP= 0.00E+00 SK= 0.00E+00
   4293 T=   281. E= -.93155569E+03 F= -.93864029E+03 E0= -.93864029E+03  EK= 0.70846E+01 SP= 0.00E+00 SK= 0.00E+00
   4294 T=   289. E= -.93141496E+03 F= -.93869933E+03 E0= -.93869933E+03  EK= 0.72844E+01 SP= 0.00E+00 SK= 0.00E+00
   4295 T=   290. E= -.93146404E+03 F= -.93876909E+03 E0= -.93876909E+03  EK= 0.73050E+01 SP= 0.00E+00 SK= 0.00E+00
   4296 T=   290. E= -.93156592E+03 F= -.93888405E+03 E0= -.93888405E+03  EK= 0.73181E+01 SP= 0.00E+00 SK= 0.00E+00
   4297 T=   290. E= -.93165217E+03 F= -.93896746E+03 E0= -.93896746E+03  EK= 0.73153E+01 SP= 0.00E+00 SK= 0.00E+00
   4298 T=   285. E= -.93178461E+03 F= -.93895874E+03 E0= -.93895874E+03  EK= 0.71741E+01 SP= 0.00E+00 SK= 0.00E+00
   4299 T=   280. E= -.93178352E+03 F= -.93884106E+03 E0= -.93884106E+03  EK= 0.70575E+01 SP= 0.00E+00 SK= 0.00E+00
   4300 T=   277. E= -.93171001E+03 F= -.93868852E+03 E0= -.93868852E+03  EK= 0.69785E+01 SP= 0.00E+00 SK= 0.00E+00
   4301 T=   270. E= -.93183914E+03 F= -.93863437E+03 E0= -.93863437E+03  EK= 0.67952E+01 SP= 0.00E+00 SK= 0.00E+00
   4302 T=   267. E= -.93199041E+03 F= -.93872136E+03 E0= -.93872136E+03  EK= 0.67309E+01 SP= 0.00E+00 SK= 0.00E+00
   4303 T=   270. E= -.93205080E+03 F= -.93886411E+03 E0= -.93886411E+03  EK= 0.68133E+01 SP= 0.00E+00 SK= 0.00E+00
   4304 T=   272. E= -.93214656E+03 F= -.93899296E+03 E0= -.93899296E+03  EK= 0.68464E+01 SP= 0.00E+00 SK= 0.00E+00
   4305 T=   269. E= -.93225021E+03 F= -.93904058E+03 E0= -.93904058E+03  EK= 0.67904E+01 SP= 0.00E+00 SK= 0.00E+00
   4306 T=   275. E= -.93214022E+03 F= -.93908363E+03 E0= -.93908363E+03  EK= 0.69434E+01 SP= 0.00E+00 SK= 0.00E+00
   4307 T=   279. E= -.93203767E+03 F= -.93907153E+03 E0= -.93907153E+03  EK= 0.70339E+01 SP= 0.00E+00 SK= 0.00E+00
   4308 T=   274. E= -.93209642E+03 F= -.93899920E+03 E0= -.93899920E+03  EK= 0.69028E+01 SP= 0.00E+00 SK= 0.00E+00
   4309 T=   271. E= -.93211304E+03 F= -.93893678E+03 E0= -.93893678E+03  EK= 0.68237E+01 SP= 0.00E+00 SK= 0.00E+00
   4310 T=   276. E= -.93200416E+03 F= -.93894955E+03 E0= -.93894955E+03  EK= 0.69454E+01 SP= 0.00E+00 SK= 0.00E+00
   4311 T=   285. E= -.93185958E+03 F= -.93904804E+03 E0= -.93904804E+03  EK= 0.71885E+01 SP= 0.00E+00 SK= 0.00E+00
   4312 T=   291. E= -.93180169E+03 F= -.93913207E+03 E0= -.93913207E+03  EK= 0.73304E+01 SP= 0.00E+00 SK= 0.00E+00
   4313 T=   287. E= -.93186822E+03 F= -.93910554E+03 E0= -.93910554E+03  EK= 0.72373E+01 SP= 0.00E+00 SK= 0.00E+00
   4314 T=   281. E= -.93188180E+03 F= -.93896998E+03 E0= -.93896998E+03  EK= 0.70882E+01 SP= 0.00E+00 SK= 0.00E+00
   4315 T=   278. E= -.93176132E+03 F= -.93878025E+03 E0= -.93878025E+03  EK= 0.70189E+01 SP= 0.00E+00 SK= 0.00E+00
   4316 T=   280. E= -.93169180E+03 F= -.93873780E+03 E0= -.93873780E+03  EK= 0.70460E+01 SP= 0.00E+00 SK= 0.00E+00
   4317 T=   283. E= -.93165668E+03 F= -.93880029E+03 E0= -.93880029E+03  EK= 0.71436E+01 SP= 0.00E+00 SK= 0.00E+00
   4318 T=   285. E= -.93168642E+03 F= -.93887424E+03 E0= -.93887424E+03  EK= 0.71878E+01 SP= 0.00E+00 SK= 0.00E+00
   4319 T=   287. E= -.93170492E+03 F= -.93894408E+03 E0= -.93894408E+03  EK= 0.72392E+01 SP= 0.00E+00 SK= 0.00E+00
   4320 T=   288. E= -.93166910E+03 F= -.93893147E+03 E0= -.93893147E+03  EK= 0.72624E+01 SP= 0.00E+00 SK= 0.00E+00
   4321 T=   287. E= -.93164122E+03 F= -.93886642E+03 E0= -.93886642E+03  EK= 0.72252E+01 SP= 0.00E+00 SK= 0.00E+00
   4322 T=   285. E= -.93163067E+03 F= -.93880797E+03 E0= -.93880797E+03  EK= 0.71773E+01 SP= 0.00E+00 SK= 0.00E+00
   4323 T=   282. E= -.93163390E+03 F= -.93874665E+03 E0= -.93874665E+03  EK= 0.71127E+01 SP= 0.00E+00 SK= 0.00E+00
   4324 T=   276. E= -.93170432E+03 F= -.93866443E+03 E0= -.93866443E+03  EK= 0.69601E+01 SP= 0.00E+00 SK= 0.00E+00
   4325 T=   273. E= -.93168690E+03 F= -.93857607E+03 E0= -.93857607E+03  EK= 0.68892E+01 SP= 0.00E+00 SK= 0.00E+00
   4326 T=   273. E= -.93163727E+03 F= -.93851085E+03 E0= -.93851085E+03  EK= 0.68736E+01 SP= 0.00E+00 SK= 0.00E+00
   4327 T=   273. E= -.93163699E+03 F= -.93852136E+03 E0= -.93852136E+03  EK= 0.68844E+01 SP= 0.00E+00 SK= 0.00E+00
   4328 T=   280. E= -.93154492E+03 F= -.93859252E+03 E0= -.93859252E+03  EK= 0.70476E+01 SP= 0.00E+00 SK= 0.00E+00
   4329 T=   288. E= -.93139766E+03 F= -.93864992E+03 E0= -.93864992E+03  EK= 0.72523E+01 SP= 0.00E+00 SK= 0.00E+00
   4330 T=   289. E= -.93136115E+03 F= -.93863836E+03 E0= -.93863836E+03  EK= 0.72772E+01 SP= 0.00E+00 SK= 0.00E+00
   4331 T=   286. E= -.93142659E+03 F= -.93862824E+03 E0= -.93862824E+03  EK= 0.72016E+01 SP= 0.00E+00 SK= 0.00E+00
   4332 T=   285. E= -.93146910E+03 F= -.93864042E+03 E0= -.93864042E+03  EK= 0.71713E+01 SP= 0.00E+00 SK= 0.00E+00
   4333 T=   286. E= -.93144606E+03 F= -.93865073E+03 E0= -.93865073E+03  EK= 0.72047E+01 SP= 0.00E+00 SK= 0.00E+00
   4334 T=   288. E= -.93138236E+03 F= -.93864530E+03 E0= -.93864530E+03  EK= 0.72629E+01 SP= 0.00E+00 SK= 0.00E+00
   4335 T=   292. E= -.93128501E+03 F= -.93864162E+03 E0= -.93864162E+03  EK= 0.73566E+01 SP= 0.00E+00 SK= 0.00E+00
   4336 T=   292. E= -.93130517E+03 F= -.93866397E+03 E0= -.93866397E+03  EK= 0.73588E+01 SP= 0.00E+00 SK= 0.00E+00
   4337 T=   288. E= -.93144177E+03 F= -.93870523E+03 E0= -.93870523E+03  EK= 0.72635E+01 SP= 0.00E+00 SK= 0.00E+00
   4338 T=   286. E= -.93154178E+03 F= -.93874664E+03 E0= -.93874664E+03  EK= 0.72049E+01 SP= 0.00E+00 SK= 0.00E+00
   4339 T=   281. E= -.93166414E+03 F= -.93874886E+03 E0= -.93874886E+03  EK= 0.70847E+01 SP= 0.00E+00 SK= 0.00E+00
   4340 T=   276. E= -.93178122E+03 F= -.93873010E+03 E0= -.93873010E+03  EK= 0.69489E+01 SP= 0.00E+00 SK= 0.00E+00
   4341 T=   273. E= -.93179703E+03 F= -.93867435E+03 E0= -.93867435E+03  EK= 0.68773E+01 SP= 0.00E+00 SK= 0.00E+00
   4342 T=   268. E= -.93188445E+03 F= -.93862722E+03 E0= -.93862722E+03  EK= 0.67428E+01 SP= 0.00E+00 SK= 0.00E+00
   4343 T=   262. E= -.93197621E+03 F= -.93858830E+03 E0= -.93858830E+03  EK= 0.66121E+01 SP= 0.00E+00 SK= 0.00E+00
   4344 T=   266. E= -.93185160E+03 F= -.93856278E+03 E0= -.93856278E+03  EK= 0.67112E+01 SP= 0.00E+00 SK= 0.00E+00
   4345 T=   271. E= -.93173812E+03 F= -.93856556E+03 E0= -.93856556E+03  EK= 0.68274E+01 SP= 0.00E+00 SK= 0.00E+00
   4346 T=   271. E= -.93183596E+03 F= -.93866799E+03 E0= -.93866799E+03  EK= 0.68320E+01 SP= 0.00E+00 SK= 0.00E+00
   4347 T=   274. E= -.93194675E+03 F= -.93884878E+03 E0= -.93884878E+03  EK= 0.69020E+01 SP= 0.00E+00 SK= 0.00E+00
   4348 T=   280. E= -.93198942E+03 F= -.93904244E+03 E0= -.93904244E+03  EK= 0.70530E+01 SP= 0.00E+00 SK= 0.00E+00
   4349 T=   281. E= -.93206709E+03 F= -.93915450E+03 E0= -.93915450E+03  EK= 0.70874E+01 SP= 0.00E+00 SK= 0.00E+00
   4350 T=   279. E= -.93215517E+03 F= -.93918130E+03 E0= -.93918130E+03  EK= 0.70261E+01 SP= 0.00E+00 SK= 0.00E+00
   4351 T=   275. E= -.93227402E+03 F= -.93919784E+03 E0= -.93919784E+03  EK= 0.69238E+01 SP= 0.00E+00 SK= 0.00E+00
   4352 T=   276. E= -.93232722E+03 F= -.93927795E+03 E0= -.93927795E+03  EK= 0.69507E+01 SP= 0.00E+00 SK= 0.00E+00
   4353 T=   283. E= -.93226361E+03 F= -.93940564E+03 E0= -.93940564E+03  EK= 0.71420E+01 SP= 0.00E+00 SK= 0.00E+00
   4354 T=   290. E= -.93224846E+03 F= -.93955341E+03 E0= -.93955341E+03  EK= 0.73049E+01 SP= 0.00E+00 SK= 0.00E+00
   4355 T=   293. E= -.93227658E+03 F= -.93965071E+03 E0= -.93965071E+03  EK= 0.73741E+01 SP= 0.00E+00 SK= 0.00E+00
   4356 T=   290. E= -.93235324E+03 F= -.93965462E+03 E0= -.93965462E+03  EK= 0.73014E+01 SP= 0.00E+00 SK= 0.00E+00
   4357 T=   288. E= -.93236439E+03 F= -.93962597E+03 E0= -.93962597E+03  EK= 0.72616E+01 SP= 0.00E+00 SK= 0.00E+00
   4358 T=   291. E= -.93229728E+03 F= -.93963309E+03 E0= -.93963309E+03  EK= 0.73358E+01 SP= 0.00E+00 SK= 0.00E+00
   4359 T=   293. E= -.93223913E+03 F= -.93963672E+03 E0= -.93963672E+03  EK= 0.73976E+01 SP= 0.00E+00 SK= 0.00E+00
   4360 T=   299. E= -.93207882E+03 F= -.93961932E+03 E0= -.93961932E+03  EK= 0.75405E+01 SP= 0.00E+00 SK= 0.00E+00
   4361 T=   301. E= -.93197057E+03 F= -.93954614E+03 E0= -.93954614E+03  EK= 0.75756E+01 SP= 0.00E+00 SK= 0.00E+00
   4362 T=   294. E= -.93200968E+03 F= -.93942636E+03 E0= -.93942636E+03  EK= 0.74167E+01 SP= 0.00E+00 SK= 0.00E+00
   4363 T=   293. E= -.93195597E+03 F= -.93934559E+03 E0= -.93934559E+03  EK= 0.73896E+01 SP= 0.00E+00 SK= 0.00E+00
   4364 T=   295. E= -.93187001E+03 F= -.93930940E+03 E0= -.93930940E+03  EK= 0.74394E+01 SP= 0.00E+00 SK= 0.00E+00
   4365 T=   294. E= -.93193591E+03 F= -.93935568E+03 E0= -.93935568E+03  EK= 0.74198E+01 SP= 0.00E+00 SK= 0.00E+00
   4366 T=   295. E= -.93197784E+03 F= -.93941178E+03 E0= -.93941178E+03  EK= 0.74339E+01 SP= 0.00E+00 SK= 0.00E+00
   4367 T=   296. E= -.93200224E+03 F= -.93945682E+03 E0= -.93945682E+03  EK= 0.74546E+01 SP= 0.00E+00 SK= 0.00E+00
   4368 T=   296. E= -.93206731E+03 F= -.93953260E+03 E0= -.93953260E+03  EK= 0.74653E+01 SP= 0.00E+00 SK= 0.00E+00
   4369 T=   296. E= -.93209459E+03 F= -.93956208E+03 E0= -.93956208E+03  EK= 0.74675E+01 SP= 0.00E+00 SK= 0.00E+00
   4370 T=   299. E= -.93198131E+03 F= -.93950760E+03 E0= -.93950760E+03  EK= 0.75263E+01 SP= 0.00E+00 SK= 0.00E+00
   4371 T=   292. E= -.93201617E+03 F= -.93938118E+03 E0= -.93938118E+03  EK= 0.73650E+01 SP= 0.00E+00 SK= 0.00E+00
   4372 T=   287. E= -.93200960E+03 F= -.93923448E+03 E0= -.93923448E+03  EK= 0.72249E+01 SP= 0.00E+00 SK= 0.00E+00
   4373 T=   287. E= -.93188540E+03 F= -.93911049E+03 E0= -.93911049E+03  EK= 0.72251E+01 SP= 0.00E+00 SK= 0.00E+00
   4374 T=   286. E= -.93188385E+03 F= -.93910394E+03 E0= -.93910394E+03  EK= 0.72201E+01 SP= 0.00E+00 SK= 0.00E+00
   4375 T=   286. E= -.93195196E+03 F= -.93915949E+03 E0= -.93915949E+03  EK= 0.72075E+01 SP= 0.00E+00 SK= 0.00E+00
   4376 T=   287. E= -.93195286E+03 F= -.93918093E+03 E0= -.93918093E+03  EK= 0.72281E+01 SP= 0.00E+00 SK= 0.00E+00
   4377 T=   286. E= -.93188383E+03 F= -.93908850E+03 E0= -.93908850E+03  EK= 0.72047E+01 SP= 0.00E+00 SK= 0.00E+00
   4378 T=   283. E= -.93182222E+03 F= -.93896641E+03 E0= -.93896641E+03  EK= 0.71442E+01 SP= 0.00E+00 SK= 0.00E+00
   4379 T=   284. E= -.93173464E+03 F= -.93890065E+03 E0= -.93890065E+03  EK= 0.71660E+01 SP= 0.00E+00 SK= 0.00E+00
   4380 T=   283. E= -.93174667E+03 F= -.93889237E+03 E0= -.93889237E+03  EK= 0.71457E+01 SP= 0.00E+00 SK= 0.00E+00
   4381 T=   279. E= -.93184024E+03 F= -.93887960E+03 E0= -.93887960E+03  EK= 0.70394E+01 SP= 0.00E+00 SK= 0.00E+00
   4382 T=   277. E= -.93187127E+03 F= -.93884172E+03 E0= -.93884172E+03  EK= 0.69704E+01 SP= 0.00E+00 SK= 0.00E+00
   4383 T=   280. E= -.93177601E+03 F= -.93884179E+03 E0= -.93884179E+03  EK= 0.70658E+01 SP= 0.00E+00 SK= 0.00E+00
   4384 T=   285. E= -.93171635E+03 F= -.93889023E+03 E0= -.93889023E+03  EK= 0.71739E+01 SP= 0.00E+00 SK= 0.00E+00
   4385 T=   288. E= -.93174879E+03 F= -.93899725E+03 E0= -.93899725E+03  EK= 0.72485E+01 SP= 0.00E+00 SK= 0.00E+00
   4386 T=   290. E= -.93176449E+03 F= -.93907539E+03 E0= -.93907539E+03  EK= 0.73109E+01 SP= 0.00E+00 SK= 0.00E+00
   4387 T=   291. E= -.93178641E+03 F= -.93911944E+03 E0= -.93911944E+03  EK= 0.73330E+01 SP= 0.00E+00 SK= 0.00E+00
   4388 T=   291. E= -.93178139E+03 F= -.93912373E+03 E0= -.93912373E+03  EK= 0.73423E+01 SP= 0.00E+00 SK= 0.00E+00
   4389 T=   292. E= -.93171834E+03 F= -.93907951E+03 E0= -.93907951E+03  EK= 0.73612E+01 SP= 0.00E+00 SK= 0.00E+00
   4390 T=   294. E= -.93166909E+03 F= -.93907632E+03 E0= -.93907632E+03  EK= 0.74072E+01 SP= 0.00E+00 SK= 0.00E+00
   4391 T=   295. E= -.93168222E+03 F= -.93911710E+03 E0= -.93911710E+03  EK= 0.74349E+01 SP= 0.00E+00 SK= 0.00E+00
   4392 T=   297. E= -.93168693E+03 F= -.93917662E+03 E0= -.93917662E+03  EK= 0.74897E+01 SP= 0.00E+00 SK= 0.00E+00
   4393 T=   296. E= -.93175569E+03 F= -.93921362E+03 E0= -.93921362E+03  EK= 0.74579E+01 SP= 0.00E+00 SK= 0.00E+00
   4394 T=   294. E= -.93181377E+03 F= -.93923417E+03 E0= -.93923417E+03  EK= 0.74204E+01 SP= 0.00E+00 SK= 0.00E+00
   4395 T=   296. E= -.93179412E+03 F= -.93924653E+03 E0= -.93924653E+03  EK= 0.74524E+01 SP= 0.00E+00 SK= 0.00E+00
       N       E                     dE             d eps       ncg     rms          rms(c)
DAV:   1    -0.477661430516E+03    0.44985E+03   -0.42619E+04 16238   0.378E+02
DAV:   2    -0.927125780872E+03   -0.44946E+03   -0.44182E+03 18370   0.108E+02
DAV:   3    -0.938632412008E+03   -0.11507E+02   -0.11497E+02 18892   0.189E+01
DAV:   4    -0.938812971565E+03   -0.18056E+00   -0.18053E+00 19396   0.227E+00    0.336E+01
DAV:   5    -0.927660676070E+03    0.11152E+02   -0.23428E+01 18868   0.106E+01    0.188E+01
DAV:   6    -0.927502086910E+03    0.15859E+00   -0.16080E+01 19220   0.849E+00    0.593E+00
DAV:   7    -0.928057115680E+03   -0.55503E+00   -0.28948E+00 18740   0.394E+00    0.217E+00
DAV:   8    -0.928075336478E+03   -0.18221E-01   -0.28349E-01 18676   0.124E+00    0.974E-01
DAV:   9    -0.928072805895E+03    0.25306E-02   -0.76056E-02 18740   0.650E-01    0.354E-01
DAV:  10    -0.928070634627E+03    0.21713E-02   -0.12182E-02 20540   0.336E-01    0.151E-01
DAV:  11    -0.928069829009E+03    0.80562E-03   -0.67541E-03 19036   0.199E-01    0.109E-01
DAV:  12    -0.928068918357E+03    0.91065E-03   -0.95958E-04 18972   0.121E-01    0.447E-02
DAV:  13    -0.928068295141E+03    0.62322E-03   -0.74293E-04 17876   0.137E-01    0.514E-02
DAV:  14    -0.928068174747E+03    0.12039E-03   -0.72715E-04 18788   0.832E-02    0.295E-02
DAV:  15    -0.928068163256E+03    0.11491E-04   -0.17986E-04 13748   0.291E-02
   4396 T=   294. E= -.93177761E+03 F= -.93919633E+03 E0= -.93919633E+03  EK= 0.74187E+01 SP= 0.00E+00 SK= 0.00E+00
   4397 T=   292. E= -.93174802E+03 F= -.93910408E+03 E0= -.93910408E+03  EK= 0.73561E+01 SP= 0.00E+00 SK= 0.00E+00
   4398 T=   286. E= -.93177334E+03 F= -.93899055E+03 E0= -.93899055E+03  EK= 0.72172E+01 SP= 0.00E+00 SK= 0.00E+00
   4399 T=   280. E= -.93183662E+03 F= -.93889313E+03 E0= -.93889313E+03  EK= 0.70565E+01 SP= 0.00E+00 SK= 0.00E+00
   4400 T=   281. E= -.93182705E+03 F= -.93889986E+03 E0= -.93889986E+03  EK= 0.70728E+01 SP= 0.00E+00 SK= 0.00E+00
   4401 T=   285. E= -.93184305E+03 F= -.93902316E+03 E0= -.93902316E+03  EK= 0.71801E+01 SP= 0.00E+00 SK= 0.00E+00
   4402 T=   291. E= -.93183155E+03 F= -.93916932E+03 E0= -.93916932E+03  EK= 0.73378E+01 SP= 0.00E+00 SK= 0.00E+00
   4403 T=   294. E= -.93182395E+03 F= -.93922301E+03 E0= -.93922301E+03  EK= 0.73991E+01 SP= 0.00E+00 SK= 0.00E+00
   4404 T=   293. E= -.93176386E+03 F= -.93914837E+03 E0= -.93914837E+03  EK= 0.73845E+01 SP= 0.00E+00 SK= 0.00E+00
   4405 T=   292. E= -.93162258E+03 F= -.93897553E+03 E0= -.93897553E+03  EK= 0.73529E+01 SP= 0.00E+00 SK= 0.00E+00
   4406 T=   290. E= -.93150134E+03 F= -.93880317E+03 E0= -.93880317E+03  EK= 0.73018E+01 SP= 0.00E+00 SK= 0.00E+00
   4407 T=   285. E= -.93153888E+03 F= -.93872285E+03 E0= -.93872285E+03  EK= 0.71840E+01 SP= 0.00E+00 SK= 0.00E+00
   4408 T=   282. E= -.93162958E+03 F= -.93874788E+03 E0= -.93874788E+03  EK= 0.71183E+01 SP= 0.00E+00 SK= 0.00E+00
   4409 T=   289. E= -.93160986E+03 F= -.93888321E+03 E0= -.93888321E+03  EK= 0.72734E+01 SP= 0.00E+00 SK= 0.00E+00
   4410 T=   299. E= -.93151804E+03 F= -.93905715E+03 E0= -.93905715E+03  EK= 0.75391E+01 SP= 0.00E+00 SK= 0.00E+00
   4411 T=   304. E= -.93146595E+03 F= -.93914093E+03 E0= -.93914093E+03  EK= 0.76750E+01 SP= 0.00E+00 SK= 0.00E+00
   4412 T=   302. E= -.93150823E+03 F= -.93911046E+03 E0= -.93911046E+03  EK= 0.76022E+01 SP= 0.00E+00 SK= 0.00E+00
   4413 T=   294. E= -.93157828E+03 F= -.93898788E+03 E0= -.93898788E+03  EK= 0.74096E+01 SP= 0.00E+00 SK= 0.00E+00
   4414 T=   281. E= -.93175083E+03 F= -.93883477E+03 E0= -.93883477E+03  EK= 0.70839E+01 SP= 0.00E+00 SK= 0.00E+00
   4415 T=   276. E= -.93184051E+03 F= -.93878814E+03 E0= -.93878814E+03  EK= 0.69476E+01 SP= 0.00E+00 SK= 0.00E+00
   4416 T=   280. E= -.93182861E+03 F= -.93888553E+03 E0= -.93888553E+03  EK= 0.70569E+01 SP= 0.00E+00 SK= 0.00E+00
   4417 T=   282. E= -.93191682E+03 F= -.93901685E+03 E0= -.93901685E+03  EK= 0.71000E+01 SP= 0.00E+00 SK= 0.00E+00
   4418 T=   284. E= -.93192373E+03 F= -.93909157E+03 E0= -.93909157E+03  EK= 0.71678E+01 SP= 0.00E+00 SK= 0.00E+00
   4419 T=   288. E= -.93185874E+03 F= -.93912397E+03 E0= -.93912397E+03  EK= 0.72652E+01 SP= 0.00E+00 SK= 0.00E+00
   4420 T=   291. E= -.93178773E+03 F= -.93912885E+03 E0= -.93912885E+03  EK= 0.73411E+01 SP= 0.00E+00 SK= 0.00E+00
   4421 T=   292. E= -.93177969E+03 F= -.93914371E+03 E0= -.93914371E+03  EK= 0.73640E+01 SP= 0.00E+00 SK= 0.00E+00
   4422 T=   293. E= -.93181116E+03 F= -.93919719E+03 E0= -.93919719E+03  EK= 0.73860E+01 SP= 0.00E+00 SK= 0.00E+00
   4423 T=   299. E= -.93171801E+03 F= -.93926286E+03 E0= -.93926286E+03  EK= 0.75448E+01 SP= 0.00E+00 SK= 0.00E+00
   4424 T=   297. E= -.93174363E+03 F= -.93923809E+03 E0= -.93923809E+03  EK= 0.74945E+01 SP= 0.00E+00 SK= 0.00E+00
   4425 T=   289. E= -.93184999E+03 F= -.93913453E+03 E0= -.93913453E+03  EK= 0.72845E+01 SP= 0.00E+00 SK= 0.00E+00
   4426 T=   284. E= -.93189244E+03 F= -.93904193E+03 E0= -.93904193E+03  EK= 0.71495E+01 SP= 0.00E+00 SK= 0.00E+00
   4427 T=   279. E= -.93197661E+03 F= -.93901046E+03 E0= -.93901046E+03  EK= 0.70338E+01 SP= 0.00E+00 SK= 0.00E+00
   4428 T=   273. E= -.93216008E+03 F= -.93902959E+03 E0= -.93902959E+03  EK= 0.68695E+01 SP= 0.00E+00 SK= 0.00E+00
   4429 T=   269. E= -.93231628E+03 F= -.93910044E+03 E0= -.93910044E+03  EK= 0.67842E+01 SP= 0.00E+00 SK= 0.00E+00
   4430 T=   276. E= -.93229897E+03 F= -.93926045E+03 E0= -.93926045E+03  EK= 0.69615E+01 SP= 0.00E+00 SK= 0.00E+00
   4431 T=   280. E= -.93232578E+03 F= -.93938114E+03 E0= -.93938114E+03  EK= 0.70554E+01 SP= 0.00E+00 SK= 0.00E+00
   4432 T=   276. E= -.93243982E+03 F= -.93938929E+03 E0= -.93938929E+03  EK= 0.69495E+01 SP= 0.00E+00 SK= 0.00E+00
   4433 T=   271. E= -.93244800E+03 F= -.93928574E+03 E0= -.93928574E+03  EK= 0.68377E+01 SP= 0.00E+00 SK= 0.00E+00
   4434 T=   269. E= -.93242082E+03 F= -.93919714E+03 E0= -.93919714E+03  EK= 0.67763E+01 SP= 0.00E+00 SK= 0.00E+00
   4435 T=   272. E= -.93238658E+03 F= -.93925422E+03 E0= -.93925422E+03  EK= 0.68676E+01 SP= 0.00E+00 SK= 0.00E+00
   4436 T=   283. E= -.93229482E+03 F= -.93942313E+03 E0= -.93942313E+03  EK= 0.71283E+01 SP= 0.00E+00 SK= 0.00E+00
   4437 T=   295. E= -.93220282E+03 F= -.93963527E+03 E0= -.93963527E+03  EK= 0.74324E+01 SP= 0.00E+00 SK= 0.00E+00
   4438 T=   300. E= -.93225509E+03 F= -.93982591E+03 E0= -.93982591E+03  EK= 0.75708E+01 SP= 0.00E+00 SK= 0.00E+00
   4439 T=   300. E= -.93234201E+03 F= -.93989148E+03 E0= -.93989148E+03  EK= 0.75495E+01 SP= 0.00E+00 SK= 0.00E+00
   4440 T=   295. E= -.93240810E+03 F= -.93983441E+03 E0= -.93983441E+03  EK= 0.74263E+01 SP= 0.00E+00 SK= 0.00E+00
   4441 T=   286. E= -.93247351E+03 F= -.93969297E+03 E0= -.93969297E+03  EK= 0.72195E+01 SP= 0.00E+00 SK= 0.00E+00
   4442 T=   275. E= -.93261689E+03 F= -.93955291E+03 E0= -.93955291E+03  EK= 0.69360E+01 SP= 0.00E+00 SK= 0.00E+00
   4443 T=   270. E= -.93271765E+03 F= -.93952339E+03 E0= -.93952339E+03  EK= 0.68057E+01 SP= 0.00E+00 SK= 0.00E+00
   4444 T=   273. E= -.93272588E+03 F= -.93960557E+03 E0= -.93960557E+03  EK= 0.68797E+01 SP= 0.00E+00 SK= 0.00E+00
   4445 T=   272. E= -.93282220E+03 F= -.93968114E+03 E0= -.93968114E+03  EK= 0.68589E+01 SP= 0.00E+00 SK= 0.00E+00
   4446 T=   268. E= -.93295621E+03 F= -.93971559E+03 E0= -.93971559E+03  EK= 0.67594E+01 SP= 0.00E+00 SK= 0.00E+00
   4447 T=   266. E= -.93300245E+03 F= -.93970838E+03 E0= -.93970838E+03  EK= 0.67059E+01 SP= 0.00E+00 SK= 0.00E+00
   4448 T=   260. E= -.93307189E+03 F= -.93962782E+03 E0= -.93962782E+03  EK= 0.65559E+01 SP= 0.00E+00 SK= 0.00E+00
   4449 T=   257. E= -.93300524E+03 F= -.93948871E+03 E0= -.93948871E+03  EK= 0.64835E+01 SP= 0.00E+00 SK= 0.00E+00
   4450 T=   259. E= -.93282522E+03 F= -.93934314E+03 E0= -.93934314E+03  EK= 0.65179E+01 SP= 0.00E+00 SK= 0.00E+00
   4451 T=   255. E= -.93281755E+03 F= -.93925286E+03 E0= -.93925286E+03  EK= 0.64353E+01 SP= 0.00E+00 SK= 0.00E+00
   4452 T=   248. E= -.93298344E+03 F= -.93923299E+03 E0= -.93923299E+03  EK= 0.62496E+01 SP= 0.00E+00 SK= 0.00E+00
   4453 T=   251. E= -.93296016E+03 F= -.93928469E+03 E0= -.93928469E+03  EK= 0.63245E+01 SP= 0.00E+00 SK= 0.00E+00
   4454 T=   258. E= -.93289363E+03 F= -.93939657E+03 E0= -.93939657E+03  EK= 0.65029E+01 SP= 0.00E+00 SK= 0.00E+00
   4455 T=   258. E= -.93300181E+03 F= -.93950922E+03 E0= -.93950922E+03  EK= 0.65074E+01 SP= 0.00E+00 SK= 0.00E+00
   4456 T=   261. E= -.93302616E+03 F= -.93959355E+03 E0= -.93959355E+03  EK= 0.65674E+01 SP= 0.00E+00 SK= 0.00E+00
   4457 T=   261. E= -.93306044E+03 F= -.93963893E+03 E0= -.93963893E+03  EK= 0.65785E+01 SP= 0.00E+00 SK= 0.00E+00
   4458 T=   258. E= -.93317073E+03 F= -.93967335E+03 E0= -.93967335E+03  EK= 0.65026E+01 SP= 0.00E+00 SK= 0.00E+00
   4459 T=   259. E= -.93316020E+03 F= -.93969551E+03 E0= -.93969551E+03  EK= 0.65353E+01 SP= 0.00E+00 SK= 0.00E+00
   4460 T=   260. E= -.93317904E+03 F= -.93973131E+03 E0= -.93973131E+03  EK= 0.65523E+01 SP= 0.00E+00 SK= 0.00E+00
   4461 T=   262. E= -.93315732E+03 F= -.93977005E+03 E0= -.93977005E+03  EK= 0.66127E+01 SP= 0.00E+00 SK= 0.00E+00
   4462 T=   263. E= -.93316506E+03 F= -.93980007E+03 E0= -.93980007E+03  EK= 0.66350E+01 SP= 0.00E+00 SK= 0.00E+00
   4463 T=   258. E= -.93327676E+03 F= -.93978177E+03 E0= -.93978177E+03  EK= 0.65050E+01 SP= 0.00E+00 SK= 0.00E+00
   4464 T=   252. E= -.93341208E+03 F= -.93976117E+03 E0= -.93976117E+03  EK= 0.63491E+01 SP= 0.00E+00 SK= 0.00E+00
   4465 T=   244. E= -.93357441E+03 F= -.93973032E+03 E0= -.93973032E+03  EK= 0.61559E+01 SP= 0.00E+00 SK= 0.00E+00
   4466 T=   239. E= -.93364565E+03 F= -.93965809E+03 E0= -.93965809E+03  EK= 0.60124E+01 SP= 0.00E+00 SK= 0.00E+00
   4467 T=   234. E= -.93367114E+03 F= -.93957983E+03 E0= -.93957983E+03  EK= 0.59087E+01 SP= 0.00E+00 SK= 0.00E+00
   4468 T=   233. E= -.93364777E+03 F= -.93952456E+03 E0= -.93952456E+03  EK= 0.58768E+01 SP= 0.00E+00 SK= 0.00E+00
   4469 T=   234. E= -.93360045E+03 F= -.93949804E+03 E0= -.93949804E+03  EK= 0.58976E+01 SP= 0.00E+00 SK= 0.00E+00
   4470 T=   232. E= -.93362235E+03 F= -.93947355E+03 E0= -.93947355E+03  EK= 0.58512E+01 SP= 0.00E+00 SK= 0.00E+00
   4471 T=   230. E= -.93368117E+03 F= -.93947574E+03 E0= -.93947574E+03  EK= 0.57946E+01 SP= 0.00E+00 SK= 0.00E+00
   4472 T=   234. E= -.93372216E+03 F= -.93960984E+03 E0= -.93960984E+03  EK= 0.58877E+01 SP= 0.00E+00 SK= 0.00E+00
   4473 T=   242. E= -.93375435E+03 F= -.93984222E+03 E0= -.93984222E+03  EK= 0.60879E+01 SP= 0.00E+00 SK= 0.00E+00
   4474 T=   250. E= -.93373515E+03 F= -.94004539E+03 E0= -.94004539E+03  EK= 0.63102E+01 SP= 0.00E+00 SK= 0.00E+00
   4475 T=   254. E= -.93368118E+03 F= -.94007544E+03 E0= -.94007544E+03  EK= 0.63943E+01 SP= 0.00E+00 SK= 0.00E+00
   4476 T=   254. E= -.93354759E+03 F= -.93996122E+03 E0= -.93996122E+03  EK= 0.64136E+01 SP= 0.00E+00 SK= 0.00E+00
   4477 T=   252. E= -.93342364E+03 F= -.93978721E+03 E0= -.93978721E+03  EK= 0.63636E+01 SP= 0.00E+00 SK= 0.00E+00
   4478 T=   249. E= -.93341048E+03 F= -.93968513E+03 E0= -.93968513E+03  EK= 0.62746E+01 SP= 0.00E+00 SK= 0.00E+00
   4479 T=   253. E= -.93337651E+03 F= -.93974952E+03 E0= -.93974952E+03  EK= 0.63730E+01 SP= 0.00E+00 SK= 0.00E+00
   4480 T=   263. E= -.93327505E+03 F= -.93991536E+03 E0= -.93991536E+03  EK= 0.66403E+01 SP= 0.00E+00 SK= 0.00E+00
   4481 T=   271. E= -.93323096E+03 F= -.94005375E+03 E0= -.94005375E+03  EK= 0.68228E+01 SP= 0.00E+00 SK= 0.00E+00
   4482 T=   270. E= -.93326985E+03 F= -.94007090E+03 E0= -.94007090E+03  EK= 0.68010E+01 SP= 0.00E+00 SK= 0.00E+00
   4483 T=   267. E= -.93323020E+03 F= -.93995706E+03 E0= -.93995706E+03  EK= 0.67269E+01 SP= 0.00E+00 SK= 0.00E+00
   4484 T=   267. E= -.93309695E+03 F= -.93981897E+03 E0= -.93981897E+03  EK= 0.67220E+01 SP= 0.00E+00 SK= 0.00E+00
   4485 T=   265. E= -.93301179E+03 F= -.93969969E+03 E0= -.93969969E+03  EK= 0.66879E+01 SP= 0.00E+00 SK= 0.00E+00
   4486 T=   266. E= -.93292809E+03 F= -.93962651E+03 E0= -.93962651E+03  EK= 0.66984E+01 SP= 0.00E+00 SK= 0.00E+00
   4487 T=   264. E= -.93289513E+03 F= -.93955864E+03 E0= -.93955864E+03  EK= 0.66635E+01 SP= 0.00E+00 SK= 0.00E+00
   4488 T=   258. E= -.93299026E+03 F= -.93950566E+03 E0= -.93950566E+03  EK= 0.65154E+01 SP= 0.00E+00 SK= 0.00E+00
   4489 T=   261. E= -.93299196E+03 F= -.93956455E+03 E0= -.93956455E+03  EK= 0.65726E+01 SP= 0.00E+00 SK= 0.00E+00
   4490 T=   269. E= -.93291107E+03 F= -.93969589E+03 E0= -.93969589E+03  EK= 0.67848E+01 SP= 0.00E+00 SK= 0.00E+00
   4491 T=   275. E= -.93285144E+03 F= -.93979351E+03 E0= -.93979351E+03  EK= 0.69421E+01 SP= 0.00E+00 SK= 0.00E+00
   4492 T=   272. E= -.93289596E+03 F= -.93974956E+03 E0= -.93974956E+03  EK= 0.68536E+01 SP= 0.00E+00 SK= 0.00E+00
   4493 T=   266. E= -.93290002E+03 F= -.93959827E+03 E0= -.93959827E+03  EK= 0.66983E+01 SP= 0.00E+00 SK= 0.00E+00
   4494 T=   259. E= -.93285925E+03 F= -.93938989E+03 E0= -.93938989E+03  EK= 0.65306E+01 SP= 0.00E+00 SK= 0.00E+00
   4495 T=   251. E= -.93290337E+03 F= -.93922186E+03 E0= -.93922186E+03  EK= 0.63185E+01 SP= 0.00E+00 SK= 0.00E+00
   4496 T=   250. E= -.93289847E+03 F= -.93919183E+03 E0= -.93919183E+03  EK= 0.62934E+01 SP= 0.00E+00 SK= 0.00E+00
   4497 T=   257. E= -.93281014E+03 F= -.93928115E+03 E0= -.93928115E+03  EK= 0.64710E+01 SP= 0.00E+00 SK= 0.00E+00
   4498 T=   267. E= -.93264573E+03 F= -.93936466E+03 E0= -.93936466E+03  EK= 0.67189E+01 SP= 0.00E+00 SK= 0.00E+00
   4499 T=   274. E= -.93251784E+03 F= -.93942416E+03 E0= -.93942416E+03  EK= 0.69063E+01 SP= 0.00E+00 SK= 0.00E+00
   4500 T=   273. E= -.93249449E+03 F= -.93938357E+03 E0= -.93938357E+03  EK= 0.68891E+01 SP= 0.00E+00 SK= 0.00E+00
   4501 T=   273. E= -.93241796E+03 F= -.93931003E+03 E0= -.93931003E+03  EK= 0.68921E+01 SP= 0.00E+00 SK= 0.00E+00
   4502 T=   273. E= -.93232856E+03 F= -.93920528E+03 E0= -.93920528E+03  EK= 0.68767E+01 SP= 0.00E+00 SK= 0.00E+00
   4503 T=   268. E= -.93233278E+03 F= -.93908376E+03 E0= -.93908376E+03  EK= 0.67510E+01 SP= 0.00E+00 SK= 0.00E+00
   4504 T=   261. E= -.93239474E+03 F= -.93896833E+03 E0= -.93896833E+03  EK= 0.65736E+01 SP= 0.00E+00 SK= 0.00E+00
   4505 T=   260. E= -.93240105E+03 F= -.93894896E+03 E0= -.93894896E+03  EK= 0.65479E+01 SP= 0.00E+00 SK= 0.00E+00
   4506 T=   266. E= -.93237169E+03 F= -.93906655E+03 E0= -.93906655E+03  EK= 0.66949E+01 SP= 0.00E+00 SK= 0.00E+00
   4507 T=   279. E= -.93233682E+03 F= -.93936703E+03 E0= -.93936703E+03  EK= 0.70302E+01 SP= 0.00E+00 SK= 0.00E+00
   4508 T=   290. E= -.93232040E+03 F= -.93963869E+03 E0= -.93963869E+03  EK= 0.73183E+01 SP= 0.00E+00 SK= 0.00E+00
   4509 T=   295. E= -.93227397E+03 F= -.93970395E+03 E0= -.93970395E+03  EK= 0.74300E+01 SP= 0.00E+00 SK= 0.00E+00
   4510 T=   294. E= -.93216588E+03 F= -.93956947E+03 E0= -.93956947E+03  EK= 0.74036E+01 SP= 0.00E+00 SK= 0.00E+00
   4511 T=   291. E= -.93204579E+03 F= -.93937205E+03 E0= -.93937205E+03  EK= 0.73263E+01 SP= 0.00E+00 SK= 0.00E+00
   4512 T=   288. E= -.93200507E+03 F= -.93926315E+03 E0= -.93926315E+03  EK= 0.72581E+01 SP= 0.00E+00 SK= 0.00E+00
   4513 T=   290. E= -.93199489E+03 F= -.93929715E+03 E0= -.93929715E+03  EK= 0.73023E+01 SP= 0.00E+00 SK= 0.00E+00
   4514 T=   295. E= -.93196846E+03 F= -.93940293E+03 E0= -.93940293E+03  EK= 0.74345E+01 SP= 0.00E+00 SK= 0.00E+00
   4515 T=   297. E= -.93196290E+03 F= -.93944840E+03 E0= -.93944840E+03  EK= 0.74855E+01 SP= 0.00E+00 SK= 0.00E+00
   4516 T=   293. E= -.93204965E+03 F= -.93942913E+03 E0= -.93942913E+03  EK= 0.73795E+01 SP= 0.00E+00 SK= 0.00E+00
   4517 T=   288. E= -.93211691E+03 F= -.93938852E+03 E0= -.93938852E+03  EK= 0.72716E+01 SP= 0.00E+00 SK= 0.00E+00
   4518 T=   283. E= -.93219277E+03 F= -.93932894E+03 E0= -.93932894E+03  EK= 0.71362E+01 SP= 0.00E+00 SK= 0.00E+00
   4519 T=   274. E= -.93230245E+03 F= -.93920583E+03 E0= -.93920583E+03  EK= 0.69034E+01 SP= 0.00E+00 SK= 0.00E+00
   4520 T=   271. E= -.93234466E+03 F= -.93918770E+03 E0= -.93918770E+03  EK= 0.68430E+01 SP= 0.00E+00 SK= 0.00E+00
   4521 T=   278. E= -.93227421E+03 F= -.93927428E+03 E0= -.93927428E+03  EK= 0.70001E+01 SP= 0.00E+00 SK= 0.00E+00
   4522 T=   283. E= -.93221680E+03 F= -.93934843E+03 E0= -.93934843E+03  EK= 0.71316E+01 SP= 0.00E+00 SK= 0.00E+00
   4523 T=   279. E= -.93226845E+03 F= -.93930353E+03 E0= -.93930353E+03  EK= 0.70351E+01 SP= 0.00E+00 SK= 0.00E+00
   4524 T=   277. E= -.93222436E+03 F= -.93920034E+03 E0= -.93920034E+03  EK= 0.69760E+01 SP= 0.00E+00 SK= 0.00E+00
   4525 T=   272. E= -.93225033E+03 F= -.93911185E+03 E0= -.93911185E+03  EK= 0.68615E+01 SP= 0.00E+00 SK= 0.00E+00
   4526 T=   271. E= -.93229035E+03 F= -.93911002E+03 E0= -.93911002E+03  EK= 0.68197E+01 SP= 0.00E+00 SK= 0.00E+00
   4527 T=   277. E= -.93220766E+03 F= -.93920005E+03 E0= -.93920005E+03  EK= 0.69924E+01 SP= 0.00E+00 SK= 0.00E+00
   4528 T=   288. E= -.93211414E+03 F= -.93936810E+03 E0= -.93936810E+03  EK= 0.72540E+01 SP= 0.00E+00 SK= 0.00E+00
   4529 T=   294. E= -.93212229E+03 F= -.93953177E+03 E0= -.93953177E+03  EK= 0.74095E+01 SP= 0.00E+00 SK= 0.00E+00
   4530 T=   291. E= -.93227969E+03 F= -.93961859E+03 E0= -.93961859E+03  EK= 0.73389E+01 SP= 0.00E+00 SK= 0.00E+00
   4531 T=   290. E= -.93238560E+03 F= -.93968776E+03 E0= -.93968776E+03  EK= 0.73022E+01 SP= 0.00E+00 SK= 0.00E+00
   4532 T=   283. E= -.93252325E+03 F= -.93964756E+03 E0= -.93964756E+03  EK= 0.71243E+01 SP= 0.00E+00 SK= 0.00E+00
   4533 T=   275. E= -.93264781E+03 F= -.93957624E+03 E0= -.93957624E+03  EK= 0.69284E+01 SP= 0.00E+00 SK= 0.00E+00
   4534 T=   273. E= -.93264983E+03 F= -.93951844E+03 E0= -.93951844E+03  EK= 0.68686E+01 SP= 0.00E+00 SK= 0.00E+00
   4535 T=   274. E= -.93256774E+03 F= -.93948640E+03 E0= -.93948640E+03  EK= 0.69187E+01 SP= 0.00E+00 SK= 0.00E+00
   4536 T=   277. E= -.93251588E+03 F= -.93949984E+03 E0= -.93949984E+03  EK= 0.69840E+01 SP= 0.00E+00 SK= 0.00E+00
   4537 T=   277. E= -.93257261E+03 F= -.93954692E+03 E0= -.93954692E+03  EK= 0.69743E+01 SP= 0.00E+00 SK= 0.00E+00
   4538 T=   271. E= -.93274148E+03 F= -.93956624E+03 E0= -.93956624E+03  EK= 0.68248E+01 SP= 0.00E+00 SK= 0.00E+00
   4539 T=   264. E= -.93290177E+03 F= -.93955988E+03 E0= -.93955988E+03  EK= 0.66581E+01 SP= 0.00E+00 SK= 0.00E+00
   4540 T=   260. E= -.93294302E+03 F= -.93949096E+03 E0= -.93949096E+03  EK= 0.65479E+01 SP= 0.00E+00 SK= 0.00E+00
   4541 T=   258. E= -.93288969E+03 F= -.93940452E+03 E0= -.93940452E+03  EK= 0.65148E+01 SP= 0.00E+00 SK= 0.00E+00
   4542 T=   259. E= -.93278641E+03 F= -.93932297E+03 E0= -.93932297E+03  EK= 0.65366E+01 SP= 0.00E+00 SK= 0.00E+00
   4543 T=   259. E= -.93278475E+03 F= -.93930710E+03 E0= -.93930710E+03  EK= 0.65223E+01 SP= 0.00E+00 SK= 0.00E+00
   4544 T=   256. E= -.93285095E+03 F= -.93930049E+03 E0= -.93930049E+03  EK= 0.64495E+01 SP= 0.00E+00 SK= 0.00E+00
       N       E                     dE             d eps       ncg     rms          rms(c)
DAV:   1    -0.347600853840E+03    0.58047E+03   -0.50816E+04 16238   0.406E+02
DAV:   2    -0.924109136372E+03   -0.57651E+03   -0.56597E+03 18949   0.120E+02
DAV:   3    -0.940877448271E+03   -0.16768E+02   -0.16751E+02 18668   0.228E+01
DAV:   4    -0.941137208700E+03   -0.25976E+00   -0.25971E+00 19764   0.270E+00    0.362E+01
DAV:   5    -0.927415406409E+03    0.13722E+02   -0.32046E+01 19180   0.123E+01    0.199E+01
DAV:   6    -0.927456171098E+03   -0.40765E-01   -0.17377E+01 18540   0.865E+00    0.708E+00
DAV:   7    -0.928190896435E+03   -0.73473E+00   -0.31810E+00 18268   0.412E+00    0.234E+00
DAV:   8    -0.928220662435E+03   -0.29766E-01   -0.33097E-01 19068   0.138E+00    0.108E+00
DAV:   9    -0.928221696193E+03   -0.10338E-02   -0.10187E-01 18172   0.725E-01    0.413E-01
DAV:  10    -0.928218713773E+03    0.29824E-02   -0.15542E-02 20372   0.366E-01    0.161E-01
DAV:  11    -0.928217995470E+03    0.71830E-03   -0.78796E-03 18700   0.198E-01    0.112E-01
DAV:  12    -0.928217087088E+03    0.90838E-03   -0.90227E-04 19844   0.114E-01    0.459E-02
DAV:  13    -0.928216506072E+03    0.58102E-03   -0.90351E-04 17668   0.118E-01    0.523E-02
DAV:  14    -0.928216368802E+03    0.13727E-03   -0.54043E-04 18556   0.710E-02    0.280E-02
DAV:  15    -0.928216355087E+03    0.13715E-04   -0.13625E-04 13100   0.251E-02
   4545 T=   256. E= -.93287565E+03 F= -.93933739E+03 E0= -.93933739E+03  EK= 0.64617E+01 SP= 0.00E+00 SK= 0.00E+00
   4546 T=   263. E= -.93274005E+03 F= -.93937162E+03 E0= -.93937162E+03  EK= 0.66316E+01 SP= 0.00E+00 SK= 0.00E+00
   4547 T=   269. E= -.93262945E+03 F= -.93942133E+03 E0= -.93942133E+03  EK= 0.67919E+01 SP= 0.00E+00 SK= 0.00E+00
   4548 T=   272. E= -.93256977E+03 F= -.93943459E+03 E0= -.93943459E+03  EK= 0.68648E+01 SP= 0.00E+00 SK= 0.00E+00
   4549 T=   271. E= -.93259807E+03 F= -.93942869E+03 E0= -.93942869E+03  EK= 0.68306E+01 SP= 0.00E+00 SK= 0.00E+00
   4550 T=   267. E= -.93264737E+03 F= -.93938040E+03 E0= -.93938040E+03  EK= 0.67330E+01 SP= 0.00E+00 SK= 0.00E+00
   4551 T=   268. E= -.93258953E+03 F= -.93935181E+03 E0= -.93935181E+03  EK= 0.67623E+01 SP= 0.00E+00 SK= 0.00E+00
   4552 T=   269. E= -.93259061E+03 F= -.93938227E+03 E0= -.93938227E+03  EK= 0.67917E+01 SP= 0.00E+00 SK= 0.00E+00
   4553 T=   271. E= -.93260694E+03 F= -.93943443E+03 E0= -.93943443E+03  EK= 0.68275E+01 SP= 0.00E+00 SK= 0.00E+00
   4554 T=   275. E= -.93257317E+03 F= -.93950469E+03 E0= -.93950469E+03  EK= 0.69315E+01 SP= 0.00E+00 SK= 0.00E+00
   4555 T=   279. E= -.93252991E+03 F= -.93956433E+03 E0= -.93956433E+03  EK= 0.70344E+01 SP= 0.00E+00 SK= 0.00E+00
   4556 T=   281. E= -.93249764E+03 F= -.93958536E+03 E0= -.93958536E+03  EK= 0.70877E+01 SP= 0.00E+00 SK= 0.00E+00
   4557 T=   280. E= -.93247412E+03 F= -.93953402E+03 E0= -.93953402E+03  EK= 0.70599E+01 SP= 0.00E+00 SK= 0.00E+00
   4558 T=   281. E= -.93236868E+03 F= -.93944712E+03 E0= -.93944712E+03  EK= 0.70784E+01 SP= 0.00E+00 SK= 0.00E+00
   4559 T=   280. E= -.93230619E+03 F= -.93935383E+03 E0= -.93935383E+03  EK= 0.70476E+01 SP= 0.00E+00 SK= 0.00E+00
   4560 T=   273. E= -.93243622E+03 F= -.93932638E+03 E0= -.93932638E+03  EK= 0.68902E+01 SP= 0.00E+00 SK= 0.00E+00
   4561 T=   272. E= -.93257556E+03 F= -.93941944E+03 E0= -.93941944E+03  EK= 0.68439E+01 SP= 0.00E+00 SK= 0.00E+00
   4562 T=   272. E= -.93268793E+03 F= -.93955558E+03 E0= -.93955558E+03  EK= 0.68676E+01 SP= 0.00E+00 SK= 0.00E+00
   4563 T=   273. E= -.93278525E+03 F= -.93965393E+03 E0= -.93965393E+03  EK= 0.68687E+01 SP= 0.00E+00 SK= 0.00E+00
   4564 T=   272. E= -.93280862E+03 F= -.93966840E+03 E0= -.93966840E+03  EK= 0.68598E+01 SP= 0.00E+00 SK= 0.00E+00
   4565 T=   270. E= -.93280118E+03 F= -.93960447E+03 E0= -.93960447E+03  EK= 0.68033E+01 SP= 0.00E+00 SK= 0.00E+00
   4566 T=   263. E= -.93286508E+03 F= -.93950014E+03 E0= -.93950014E+03  EK= 0.66351E+01 SP= 0.00E+00 SK= 0.00E+00
   4567 T=   257. E= -.93290965E+03 F= -.93939965E+03 E0= -.93939965E+03  EK= 0.64900E+01 SP= 0.00E+00 SK= 0.00E+00
   4568 T=   258. E= -.93281145E+03 F= -.93930992E+03 E0= -.93930992E+03  EK= 0.64985E+01 SP= 0.00E+00 SK= 0.00E+00
   4569 T=   259. E= -.93274037E+03 F= -.93926345E+03 E0= -.93926345E+03  EK= 0.65231E+01 SP= 0.00E+00 SK= 0.00E+00
   4570 T=   265. E= -.93266142E+03 F= -.93934783E+03 E0= -.93934783E+03  EK= 0.66864E+01 SP= 0.00E+00 SK= 0.00E+00
   4571 T=   272. E= -.93265847E+03 F= -.93952594E+03 E0= -.93952594E+03  EK= 0.68675E+01 SP= 0.00E+00 SK= 0.00E+00
   4572 T=   282. E= -.93260397E+03 F= -.93971480E+03 E0= -.93971480E+03  EK= 0.71108E+01 SP= 0.00E+00 SK= 0.00E+00
   4573 T=   286. E= -.93258178E+03 F= -.93979117E+03 E0= -.93979117E+03  EK= 0.72094E+01 SP= 0.00E+00 SK= 0.00E+00
   4574 T=   282. E= -.93263755E+03 F= -.93973777E+03 E0= -.93973777E+03  EK= 0.71002E+01 SP= 0.00E+00 SK= 0.00E+00
   4575 T=   282. E= -.93256441E+03 F= -.93966629E+03 E0= -.93966629E+03  EK= 0.71019E+01 SP= 0.00E+00 SK= 0.00E+00
   4576 T=   286. E= -.93246190E+03 F= -.93967291E+03 E0= -.93967291E+03  EK= 0.72110E+01 SP= 0.00E+00 SK= 0.00E+00
   4577 T=   292. E= -.93239469E+03 F= -.93976149E+03 E0= -.93976149E+03  EK= 0.73668E+01 SP= 0.00E+00 SK= 0.00E+00
   4578 T=   299. E= -.93230201E+03 F= -.93983172E+03 E0= -.93983172E+03  EK= 0.75297E+01 SP= 0.00E+00 SK= 0.00E+00
   4579 T=   302. E= -.93221416E+03 F= -.93981632E+03 E0= -.93981632E+03  EK= 0.76022E+01 SP= 0.00E+00 SK= 0.00E+00
   4580 T=   305. E= -.93213414E+03 F= -.93980970E+03 E0= -.93980970E+03  EK= 0.76756E+01 SP= 0.00E+00 SK= 0.00E+00
   4581 T=   305. E= -.93207880E+03 F= -.93977781E+03 E0= -.93977781E+03  EK= 0.76990E+01 SP= 0.00E+00 SK= 0.00E+00
   4582 T=   303. E= -.93208396E+03 F= -.93972576E+03 E0= -.93972576E+03  EK= 0.76418E+01 SP= 0.00E+00 SK= 0.00E+00
   4583 T=   297. E= -.93216429E+03 F= -.93964289E+03 E0= -.93964289E+03  EK= 0.74786E+01 SP= 0.00E+00 SK= 0.00E+00
   4584 T=   290. E= -.93229433E+03 F= -.93959865E+03 E0= -.93959865E+03  EK= 0.73043E+01 SP= 0.00E+00 SK= 0.00E+00
   4585 T=   287. E= -.93234271E+03 F= -.93957202E+03 E0= -.93957202E+03  EK= 0.72293E+01 SP= 0.00E+00 SK= 0.00E+00
   4586 T=   290. E= -.93224613E+03 F= -.93954405E+03 E0= -.93954405E+03  EK= 0.72979E+01 SP= 0.00E+00 SK= 0.00E+00
   4587 T=   291. E= -.93212960E+03 F= -.93946356E+03 E0= -.93946356E+03  EK= 0.73340E+01 SP= 0.00E+00 SK= 0.00E+00
   4588 T=   289. E= -.93209310E+03 F= -.93937329E+03 E0= -.93937329E+03  EK= 0.72802E+01 SP= 0.00E+00 SK= 0.00E+00
   4589 T=   287. E= -.93210138E+03 F= -.93932947E+03 E0= -.93932947E+03  EK= 0.72281E+01 SP= 0.00E+00 SK= 0.00E+00
   4590 T=   286. E= -.93212120E+03 F= -.93932031E+03 E0= -.93932031E+03  EK= 0.71991E+01 SP= 0.00E+00 SK= 0.00E+00
   4591 T=   291. E= -.93204660E+03 F= -.93937218E+03 E0= -.93937218E+03  EK= 0.73256E+01 SP= 0.00E+00 SK= 0.00E+00
   4592 T=   294. E= -.93197236E+03 F= -.93939463E+03 E0= -.93939463E+03  EK= 0.74223E+01 SP= 0.00E+00 SK= 0.00E+00
   4593 T=   291. E= -.93200921E+03 F= -.93935180E+03 E0= -.93935180E+03  EK= 0.73426E+01 SP= 0.00E+00 SK= 0.00E+00
   4594 T=   286. E= -.93198108E+03 F= -.93919548E+03 E0= -.93919548E+03  EK= 0.72144E+01 SP= 0.00E+00 SK= 0.00E+00
   4595 T=   284. E= -.93192186E+03 F= -.93908236E+03 E0= -.93908236E+03  EK= 0.71605E+01 SP= 0.00E+00 SK= 0.00E+00
   4596 T=   283. E= -.93192402E+03 F= -.93905251E+03 E0= -.93905251E+03  EK= 0.71285E+01 SP= 0.00E+00 SK= 0.00E+00
   4597 T=   280. E= -.93206534E+03 F= -.93912584E+03 E0= -.93912584E+03  EK= 0.70605E+01 SP= 0.00E+00 SK= 0.00E+00
   4598 T=   283. E= -.93209538E+03 F= -.93921893E+03 E0= -.93921893E+03  EK= 0.71235E+01 SP= 0.00E+00 SK= 0.00E+00
   4599 T=   286. E= -.93200683E+03 F= -.93921103E+03 E0= -.93921103E+03  EK= 0.72042E+01 SP= 0.00E+00 SK= 0.00E+00
   4600 T=   281. E= -.93201389E+03 F= -.93909882E+03 E0= -.93909882E+03  EK= 0.70849E+01 SP= 0.00E+00 SK= 0.00E+00
   4601 T=   271. E= -.93207050E+03 F= -.93891083E+03 E0= -.93891083E+03  EK= 0.68403E+01 SP= 0.00E+00 SK= 0.00E+00
   4602 T=   260. E= -.93216123E+03 F= -.93872611E+03 E0= -.93872611E+03  EK= 0.65649E+01 SP= 0.00E+00 SK= 0.00E+00
   4603 T=   258. E= -.93220537E+03 F= -.93870354E+03 E0= -.93870354E+03  EK= 0.64982E+01 SP= 0.00E+00 SK= 0.00E+00
   4604 T=   260. E= -.93224193E+03 F= -.93879945E+03 E0= -.93879945E+03  EK= 0.65575E+01 SP= 0.00E+00 SK= 0.00E+00
   4605 T=   265. E= -.93228503E+03 F= -.93897163E+03 E0= -.93897163E+03  EK= 0.66866E+01 SP= 0.00E+00 SK= 0.00E+00
   4606 T=   271. E= -.93225994E+03 F= -.93909994E+03 E0= -.93909994E+03  EK= 0.68400E+01 SP= 0.00E+00 SK= 0.00E+00
   4607 T=   275. E= -.93220942E+03 F= -.93914117E+03 E0= -.93914117E+03  EK= 0.69318E+01 SP= 0.00E+00 SK= 0.00E+00
   4608 T=   275. E= -.93211762E+03 F= -.93905862E+03 E0= -.93905862E+03  EK= 0.69410E+01 SP= 0.00E+00 SK= 0.00E+00
   4609 T=   282. E= -.93186866E+03 F= -.93897066E+03 E0= -.93897066E+03  EK= 0.71020E+01 SP= 0.00E+00 SK= 0.00E+00
   4610 T=   288. E= -.93164923E+03 F= -.93889936E+03 E0= -.93889936E+03  EK= 0.72501E+01 SP= 0.00E+00 SK= 0.00E+00
   4611 T=   291. E= -.93162916E+03 F= -.93895421E+03 E0= -.93895421E+03  EK= 0.73250E+01 SP= 0.00E+00 SK= 0.00E+00
   4612 T=   297. E= -.93160155E+03 F= -.93908539E+03 E0= -.93908539E+03  EK= 0.74838E+01 SP= 0.00E+00 SK= 0.00E+00
   4613 T=   301. E= -.93163868E+03 F= -.93921706E+03 E0= -.93921706E+03  EK= 0.75784E+01 SP= 0.00E+00 SK= 0.00E+00
       N       E                     dE             d eps       ncg     rms          rms(c)
DAV:   1    -0.621041144876E+03    0.30718E+03   -0.33833E+04 16238   0.341E+02
DAV:   2    -0.929790263920E+03   -0.30875E+03   -0.30703E+03 18716   0.908E+01
DAV:   3    -0.935693683087E+03   -0.59034E+01   -0.59009E+01 19324   0.137E+01
DAV:   4    -0.935795265170E+03   -0.10158E+00   -0.10157E+00 19092   0.175E+00    0.294E+01
DAV:   5    -0.928153588013E+03    0.76417E+01   -0.15048E+01 18612   0.896E+00    0.167E+01
DAV:   6    -0.927797043431E+03    0.35654E+00   -0.13393E+01 19484   0.809E+00    0.457E+00
DAV:   7    -0.928124932661E+03   -0.32789E+00   -0.24270E+00 18700   0.348E+00    0.196E+00
DAV:   8    -0.928124361453E+03    0.57121E-03   -0.21674E-01 18772   0.104E+00    0.881E-01
DAV:   9    -0.928115714848E+03    0.86466E-02   -0.51691E-02 18964   0.610E-01    0.343E-01
DAV:  10    -0.928110861797E+03    0.48531E-02   -0.12161E-02 19988   0.357E-01    0.146E-01
DAV:  11    -0.928108866806E+03    0.19950E-02   -0.67075E-03 19172   0.214E-01    0.112E-01
DAV:  12    -0.928106702404E+03    0.21644E-02   -0.17774E-03 20404   0.180E-01    0.594E-02
DAV:  13    -0.928105700089E+03    0.10023E-02   -0.11709E-03 18588   0.157E-01    0.693E-02
DAV:  14    -0.928105547955E+03    0.15213E-03   -0.14905E-03 19588   0.107E-01    0.306E-02
DAV:  15    -0.928105544269E+03    0.36860E-05   -0.26190E-04 14772   0.336E-02
   4614 T=   302. E= -.93158199E+03 F= -.93920330E+03 E0= -.93920330E+03  EK= 0.76213E+01 SP= 0.00E+00 SK= 0.00E+00
   4615 T=   303. E= -.93144597E+03 F= -.93908630E+03 E0= -.93908630E+03  EK= 0.76403E+01 SP= 0.00E+00 SK= 0.00E+00
   4616 T=   298. E= -.93140214E+03 F= -.93890672E+03 E0= -.93890672E+03  EK= 0.75046E+01 SP= 0.00E+00 SK= 0.00E+00
   4617 T=   290. E= -.93149232E+03 F= -.93880755E+03 E0= -.93880755E+03  EK= 0.73152E+01 SP= 0.00E+00 SK= 0.00E+00
   4618 T=   286. E= -.93158929E+03 F= -.93878927E+03 E0= -.93878927E+03  EK= 0.72000E+01 SP= 0.00E+00 SK= 0.00E+00
   4619 T=   285. E= -.93160280E+03 F= -.93879155E+03 E0= -.93879155E+03  EK= 0.71888E+01 SP= 0.00E+00 SK= 0.00E+00
   4620 T=   283. E= -.93159705E+03 F= -.93872144E+03 E0= -.93872144E+03  EK= 0.71244E+01 SP= 0.00E+00 SK= 0.00E+00
   4621 T=   280. E= -.93145979E+03 F= -.93851956E+03 E0= -.93851956E+03  EK= 0.70598E+01 SP= 0.00E+00 SK= 0.00E+00
   4622 T=   276. E= -.93129312E+03 F= -.93825863E+03 E0= -.93825863E+03  EK= 0.69655E+01 SP= 0.00E+00 SK= 0.00E+00
   4623 T=   271. E= -.93124267E+03 F= -.93806514E+03 E0= -.93806514E+03  EK= 0.68225E+01 SP= 0.00E+00 SK= 0.00E+00
       N       E                     dE             d eps       ncg     rms          rms(c)
DAV:   1    -0.919912915894E+03    0.81926E+01   -0.29853E+03 16238   0.107E+02
DAV:   2    -0.928116135795E+03   -0.82032E+01   -0.82007E+01 19284   0.161E+01
DAV:   3    -0.928199673638E+03   -0.83538E-01   -0.83530E-01 19572   0.169E+00
DAV:   4    -0.928201530296E+03   -0.18567E-02   -0.18566E-02 19300   0.243E-01    0.109E+01
DAV:   5    -0.927077079939E+03    0.11245E+01   -0.19972E+00 20172   0.387E+00    0.600E+00
DAV:   6    -0.926976960356E+03    0.10012E+00   -0.18850E+00 19604   0.317E+00    0.167E+00
DAV:   7    -0.926996647018E+03   -0.19687E-01   -0.37471E-01 18924   0.159E+00    0.669E-01
DAV:   8    -0.926993333338E+03    0.33137E-02   -0.42798E-02 18956   0.495E-01    0.385E-01
DAV:   9    -0.926989788869E+03    0.35445E-02   -0.21771E-02 18636   0.367E-01    0.236E-01
DAV:  10    -0.926987317435E+03    0.24714E-02   -0.43426E-03 22380   0.250E-01    0.909E-02
DAV:  11    -0.926986673070E+03    0.64437E-03   -0.34233E-03 19076   0.162E-01    0.681E-02
DAV:  12    -0.926986087811E+03    0.58526E-03   -0.55742E-04 18900   0.111E-01    0.286E-02
DAV:  13    -0.926985822450E+03    0.26536E-03   -0.36076E-04 17348   0.949E-02    0.285E-02
DAV:  14    -0.926985773117E+03    0.49333E-04   -0.32284E-04 17908   0.639E-02
   4624 T=   273. E= -.93123732E+03 F= -.93810998E+03 E0= -.93810998E+03  EK= 0.68727E+01 SP= 0.00E+00 SK= 0.00E+00
   4625 T=   279. E= -.93125993E+03 F= -.93828263E+03 E0= -.93828263E+03  EK= 0.70227E+01 SP= 0.00E+00 SK= 0.00E+00
   4626 T=   283. E= -.93142474E+03 F= -.93856712E+03 E0= -.93856712E+03  EK= 0.71424E+01 SP= 0.00E+00 SK= 0.00E+00
   4627 T=   289. E= -.93143611E+03 F= -.93873222E+03 E0= -.93873222E+03  EK= 0.72961E+01 SP= 0.00E+00 SK= 0.00E+00
   4628 T=   292. E= -.93133333E+03 F= -.93869558E+03 E0= -.93869558E+03  EK= 0.73623E+01 SP= 0.00E+00 SK= 0.00E+00
   4629 T=   280. E= -.93136650E+03 F= -.93842698E+03 E0= -.93842698E+03  EK= 0.70605E+01 SP= 0.00E+00 SK= 0.00E+00
   4630 T=   260. E= -.93152374E+03 F= -.93808820E+03 E0= -.93808820E+03  EK= 0.65645E+01 SP= 0.00E+00 SK= 0.00E+00
   4631 T=   256. E= -.93148729E+03 F= -.93794871E+03 E0= -.93794871E+03  EK= 0.64614E+01 SP= 0.00E+00 SK= 0.00E+00
   4632 T=   265. E= -.93141543E+03 F= -.93808513E+03 E0= -.93808513E+03  EK= 0.66697E+01 SP= 0.00E+00 SK= 0.00E+00
   4633 T=   270. E= -.93156277E+03 F= -.93836644E+03 E0= -.93836644E+03  EK= 0.68037E+01 SP= 0.00E+00 SK= 0.00E+00
       N       E                     dE             d eps       ncg     rms          rms(c)
DAV:   1    -0.920842663495E+03    0.61432E+01   -0.29149E+03 16238   0.106E+02
DAV:   2    -0.928668201874E+03   -0.78255E+01   -0.78232E+01 19452   0.157E+01
DAV:   3    -0.928747039505E+03   -0.78838E-01   -0.78832E-01 19556   0.164E+00
DAV:   4    -0.928748793923E+03   -0.17544E-02   -0.17543E-02 19372   0.235E-01    0.103E+01
DAV:   5    -0.927689532593E+03    0.10593E+01   -0.19553E+00 20620   0.376E+00    0.571E+00
DAV:   6    -0.927592709701E+03    0.96823E-01   -0.17577E+00 19596   0.311E+00    0.163E+00
DAV:   7    -0.927610539436E+03   -0.17830E-01   -0.32396E-01 18844   0.138E+00    0.640E-01
DAV:   8    -0.927604399198E+03    0.61402E-02   -0.32260E-02 19020   0.436E-01    0.315E-01
DAV:   9    -0.927599132799E+03    0.52664E-02   -0.10257E-02 18908   0.327E-01    0.159E-01
DAV:  10    -0.927596049672E+03    0.30831E-02   -0.32587E-03 20444   0.238E-01    0.691E-02
DAV:  11    -0.927594936279E+03    0.11134E-02   -0.24327E-03 19308   0.164E-01    0.648E-02
DAV:  12    -0.927594063213E+03    0.87307E-03   -0.64639E-04 18228   0.140E-01    0.302E-02
DAV:  13    -0.927593877477E+03    0.18574E-03   -0.66721E-04 19196   0.103E-01    0.425E-02
DAV:  14    -0.927593863777E+03    0.13700E-04   -0.56712E-04 19604   0.567E-02
   4634 T=   275. E= -.93180317E+03 F= -.93873861E+03 E0= -.93873861E+03  EK= 0.69354E+01 SP= 0.00E+00 SK= 0.00E+00
   4635 T=   280. E= -.93177035E+03 F= -.93882947E+03 E0= -.93882947E+03  EK= 0.70591E+01 SP= 0.00E+00 SK= 0.00E+00
   4636 T=   279. E= -.93175364E+03 F= -.93877490E+03 E0= -.93877490E+03  EK= 0.70213E+01 SP= 0.00E+00 SK= 0.00E+00
   4637 T=   268. E= -.93178059E+03 F= -.93853541E+03 E0= -.93853541E+03  EK= 0.67548E+01 SP= 0.00E+00 SK= 0.00E+00
   4638 T=   261. E= -.93171094E+03 F= -.93829780E+03 E0= -.93829780E+03  EK= 0.65869E+01 SP= 0.00E+00 SK= 0.00E+00
   4639 T=   260. E= -.93165802E+03 F= -.93822157E+03 E0= -.93822157E+03  EK= 0.65635E+01 SP= 0.00E+00 SK= 0.00E+00
   4640 T=   268. E= -.93161693E+03 F= -.93836403E+03 E0= -.93836403E+03  EK= 0.67471E+01 SP= 0.00E+00 SK= 0.00E+00
   4641 T=   284. E= -.93155606E+03 F= -.93870476E+03 E0= -.93870476E+03  EK= 0.71487E+01 SP= 0.00E+00 SK= 0.00E+00
   4642 T=   297. E= -.93154989E+03 F= -.93902993E+03 E0= -.93902993E+03  EK= 0.74800E+01 SP= 0.00E+00 SK= 0.00E+00
   4643 T=   309. E= -.93145379E+03 F= -.93925082E+03 E0= -.93925082E+03  EK= 0.77970E+01 SP= 0.00E+00 SK= 0.00E+00
   4644 T=   313. E= -.93141275E+03 F= -.93929856E+03 E0= -.93929856E+03  EK= 0.78858E+01 SP= 0.00E+00 SK= 0.00E+00
   4645 T=   305. E= -.93152142E+03 F= -.93921810E+03 E0= -.93921810E+03  EK= 0.76967E+01 SP= 0.00E+00 SK= 0.00E+00
   4646 T=   296. E= -.93164145E+03 F= -.93909895E+03 E0= -.93909895E+03  EK= 0.74575E+01 SP= 0.00E+00 SK= 0.00E+00
   4647 T=   295. E= -.93167104E+03 F= -.93909802E+03 E0= -.93909802E+03  EK= 0.74270E+01 SP= 0.00E+00 SK= 0.00E+00
   4648 T=   299. E= -.93170977E+03 F= -.93924235E+03 E0= -.93924235E+03  EK= 0.75326E+01 SP= 0.00E+00 SK= 0.00E+00
   4649 T=   306. E= -.93178673E+03 F= -.93950912E+03 E0= -.93950912E+03  EK= 0.77224E+01 SP= 0.00E+00 SK= 0.00E+00
   4650 T=   314. E= -.93189492E+03 F= -.93979865E+03 E0= -.93979865E+03  EK= 0.79037E+01 SP= 0.00E+00 SK= 0.00E+00
   4651 T=   313. E= -.93205760E+03 F= -.93993568E+03 E0= -.93993568E+03  EK= 0.78781E+01 SP= 0.00E+00 SK= 0.00E+00
   4652 T=   305. E= -.93213502E+03 F= -.93982490E+03 E0= -.93982490E+03  EK= 0.76899E+01 SP= 0.00E+00 SK= 0.00E+00
   4653 T=   301. E= -.93202678E+03 F= -.93961546E+03 E0= -.93961546E+03  EK= 0.75887E+01 SP= 0.00E+00 SK= 0.00E+00
   4654 T=   291. E= -.93200346E+03 F= -.93934181E+03 E0= -.93934181E+03  EK= 0.73384E+01 SP= 0.00E+00 SK= 0.00E+00
   4655 T=   278. E= -.93208657E+03 F= -.93909674E+03 E0= -.93909674E+03  EK= 0.70102E+01 SP= 0.00E+00 SK= 0.00E+00
   4656 T=   274. E= -.93209852E+03 F= -.93901586E+03 E0= -.93901586E+03  EK= 0.69173E+01 SP= 0.00E+00 SK= 0.00E+00
   4657 T=   279. E= -.93206163E+03 F= -.93908245E+03 E0= -.93908245E+03  EK= 0.70208E+01 SP= 0.00E+00 SK= 0.00E+00
   4658 T=   290. E= -.93193210E+03 F= -.93923045E+03 E0= -.93923045E+03  EK= 0.72984E+01 SP= 0.00E+00 SK= 0.00E+00
   4659 T=   293. E= -.93192513E+03 F= -.93931555E+03 E0= -.93931555E+03  EK= 0.73904E+01 SP= 0.00E+00 SK= 0.00E+00
   4660 T=   288. E= -.93202653E+03 F= -.93929778E+03 E0= -.93929778E+03  EK= 0.72713E+01 SP= 0.00E+00 SK= 0.00E+00
   4661 T=   286. E= -.93203461E+03 F= -.93924557E+03 E0= -.93924557E+03  EK= 0.72110E+01 SP= 0.00E+00 SK= 0.00E+00
   4662 T=   283. E= -.93206374E+03 F= -.93918923E+03 E0= -.93918923E+03  EK= 0.71255E+01 SP= 0.00E+00 SK= 0.00E+00
   4663 T=   280. E= -.93209189E+03 F= -.93915700E+03 E0= -.93915700E+03  EK= 0.70651E+01 SP= 0.00E+00 SK= 0.00E+00
   4664 T=   280. E= -.93212621E+03 F= -.93918066E+03 E0= -.93918066E+03  EK= 0.70545E+01 SP= 0.00E+00 SK= 0.00E+00
   4665 T=   280. E= -.93219790E+03 F= -.93924822E+03 E0= -.93924822E+03  EK= 0.70503E+01 SP= 0.00E+00 SK= 0.00E+00
   4666 T=   283. E= -.93220545E+03 F= -.93933114E+03 E0= -.93933114E+03  EK= 0.71257E+01 SP= 0.00E+00 SK= 0.00E+00
   4667 T=   287. E= -.93211475E+03 F= -.93935767E+03 E0= -.93935767E+03  EK= 0.72429E+01 SP= 0.00E+00 SK= 0.00E+00
   4668 T=   286. E= -.93209329E+03 F= -.93929787E+03 E0= -.93929787E+03  EK= 0.72046E+01 SP= 0.00E+00 SK= 0.00E+00
   4669 T=   279. E= -.93211847E+03 F= -.93916133E+03 E0= -.93916133E+03  EK= 0.70429E+01 SP= 0.00E+00 SK= 0.00E+00
   4670 T=   272. E= -.93218409E+03 F= -.93903293E+03 E0= -.93903293E+03  EK= 0.68488E+01 SP= 0.00E+00 SK= 0.00E+00
   4671 T=   271. E= -.93214415E+03 F= -.93897081E+03 E0= -.93897081E+03  EK= 0.68267E+01 SP= 0.00E+00 SK= 0.00E+00
   4672 T=   272. E= -.93210593E+03 F= -.93897400E+03 E0= -.93897400E+03  EK= 0.68681E+01 SP= 0.00E+00 SK= 0.00E+00
   4673 T=   273. E= -.93215232E+03 F= -.93904414E+03 E0= -.93904414E+03  EK= 0.68918E+01 SP= 0.00E+00 SK= 0.00E+00
   4674 T=   278. E= -.93208911E+03 F= -.93909318E+03 E0= -.93909318E+03  EK= 0.70041E+01 SP= 0.00E+00 SK= 0.00E+00
   4675 T=   278. E= -.93200708E+03 F= -.93902334E+03 E0= -.93902334E+03  EK= 0.70163E+01 SP= 0.00E+00 SK= 0.00E+00
   4676 T=   272. E= -.93197473E+03 F= -.93882629E+03 E0= -.93882629E+03  EK= 0.68516E+01 SP= 0.00E+00 SK= 0.00E+00
   4677 T=   265. E= -.93198606E+03 F= -.93866373E+03 E0= -.93866373E+03  EK= 0.66777E+01 SP= 0.00E+00 SK= 0.00E+00
   4678 T=   263. E= -.93195569E+03 F= -.93857753E+03 E0= -.93857753E+03  EK= 0.66218E+01 SP= 0.00E+00 SK= 0.00E+00
   4679 T=   265. E= -.93191636E+03 F= -.93860730E+03 E0= -.93860730E+03  EK= 0.66909E+01 SP= 0.00E+00 SK= 0.00E+00
   4680 T=   271. E= -.93186331E+03 F= -.93868408E+03 E0= -.93868408E+03  EK= 0.68208E+01 SP= 0.00E+00 SK= 0.00E+00
   4681 T=   273. E= -.93190256E+03 F= -.93877800E+03 E0= -.93877800E+03  EK= 0.68754E+01 SP= 0.00E+00 SK= 0.00E+00
   4682 T=   274. E= -.93191719E+03 F= -.93882331E+03 E0= -.93882331E+03  EK= 0.69061E+01 SP= 0.00E+00 SK= 0.00E+00
   4683 T=   276. E= -.93186958E+03 F= -.93881924E+03 E0= -.93881924E+03  EK= 0.69497E+01 SP= 0.00E+00 SK= 0.00E+00
   4684 T=   270. E= -.93189830E+03 F= -.93870388E+03 E0= -.93870388E+03  EK= 0.68056E+01 SP= 0.00E+00 SK= 0.00E+00
   4685 T=   268. E= -.93179979E+03 F= -.93855256E+03 E0= -.93855256E+03  EK= 0.67528E+01 SP= 0.00E+00 SK= 0.00E+00
   4686 T=   267. E= -.93171990E+03 F= -.93844799E+03 E0= -.93844799E+03  EK= 0.67281E+01 SP= 0.00E+00 SK= 0.00E+00
   4687 T=   262. E= -.93181346E+03 F= -.93842905E+03 E0= -.93842905E+03  EK= 0.66156E+01 SP= 0.00E+00 SK= 0.00E+00
   4688 T=   265. E= -.93182198E+03 F= -.93851083E+03 E0= -.93851083E+03  EK= 0.66888E+01 SP= 0.00E+00 SK= 0.00E+00
   4689 T=   277. E= -.93170066E+03 F= -.93867361E+03 E0= -.93867361E+03  EK= 0.69730E+01 SP= 0.00E+00 SK= 0.00E+00
   4690 T=   283. E= -.93168844E+03 F= -.93881659E+03 E0= -.93881659E+03  EK= 0.71282E+01 SP= 0.00E+00 SK= 0.00E+00
   4691 T=   281. E= -.93176287E+03 F= -.93884317E+03 E0= -.93884317E+03  EK= 0.70803E+01 SP= 0.00E+00 SK= 0.00E+00
   4692 T=   277. E= -.93182876E+03 F= -.93879878E+03 E0= -.93879878E+03  EK= 0.69700E+01 SP= 0.00E+00 SK= 0.00E+00
   4693 T=   270. E= -.93193442E+03 F= -.93874469E+03 E0= -.93874469E+03  EK= 0.68103E+01 SP= 0.00E+00 SK= 0.00E+00
   4694 T=   265. E= -.93203325E+03 F= -.93870372E+03 E0= -.93870372E+03  EK= 0.66705E+01 SP= 0.00E+00 SK= 0.00E+00
       N       E                     dE             d eps       ncg     rms          rms(c)
DAV:   1    -0.675470626386E+03    0.25212E+03   -0.28544E+04 16238   0.315E+02
DAV:   2    -0.927588624591E+03   -0.25212E+03   -0.24915E+03 19125   0.807E+01
DAV:   3    -0.932891926265E+03   -0.53033E+01   -0.53005E+01 18860   0.128E+01
DAV:   4    -0.932985663392E+03   -0.93737E-01   -0.93725E-01 19564   0.163E+00    0.277E+01
DAV:   5    -0.927198166420E+03    0.57875E+01   -0.11627E+01 18580   0.789E+00    0.158E+01
DAV:   6    -0.927240397300E+03   -0.42231E-01   -0.11732E+01 19428   0.746E+00    0.390E+00
DAV:   7    -0.927493974799E+03   -0.25358E+00   -0.19867E+00 18572   0.321E+00    0.174E+00
DAV:   8    -0.927491258484E+03    0.27163E-02   -0.18547E-01 18908   0.958E-01    0.816E-01
DAV:   9    -0.927484054700E+03    0.72038E-02   -0.51425E-02 18764   0.592E-01    0.340E-01
DAV:  10    -0.927479992134E+03    0.40626E-02   -0.10262E-02 20820   0.343E-01    0.132E-01
DAV:  11    -0.927478761855E+03    0.12303E-02   -0.59625E-03 19420   0.197E-01    0.103E-01
DAV:  12    -0.927477225917E+03    0.15359E-02   -0.12323E-03 18924   0.154E-01    0.463E-02
DAV:  13    -0.927476624363E+03    0.60155E-03   -0.90468E-04 18764   0.135E-01    0.623E-02
DAV:  14    -0.927476469779E+03    0.15458E-03   -0.10291E-03 19580   0.101E-01    0.269E-02
DAV:  15    -0.927476468167E+03    0.16115E-05   -0.26714E-04 15188   0.366E-02
   4695 T=   264. E= -.93199055E+03 F= -.93863993E+03 E0= -.93863993E+03  EK= 0.66494E+01 SP= 0.00E+00 SK= 0.00E+00
   4696 T=   264. E= -.93207972E+03 F= -.93873173E+03 E0= -.93873173E+03  EK= 0.66520E+01 SP= 0.00E+00 SK= 0.00E+00
   4697 T=   272. E= -.93198206E+03 F= -.93883724E+03 E0= -.93883724E+03  EK= 0.68552E+01 SP= 0.00E+00 SK= 0.00E+00
   4698 T=   285. E= -.93179846E+03 F= -.93896998E+03 E0= -.93896998E+03  EK= 0.71715E+01 SP= 0.00E+00 SK= 0.00E+00
   4699 T=   290. E= -.93174571E+03 F= -.93905392E+03 E0= -.93905392E+03  EK= 0.73082E+01 SP= 0.00E+00 SK= 0.00E+00
   4700 T=   294. E= -.93173853E+03 F= -.93914007E+03 E0= -.93914007E+03  EK= 0.74015E+01 SP= 0.00E+00 SK= 0.00E+00
   4701 T=   293. E= -.93177317E+03 F= -.93915255E+03 E0= -.93915255E+03  EK= 0.73794E+01 SP= 0.00E+00 SK= 0.00E+00
   4702 T=   292. E= -.93177174E+03 F= -.93914038E+03 E0= -.93914038E+03  EK= 0.73686E+01 SP= 0.00E+00 SK= 0.00E+00
   4703 T=   289. E= -.93179009E+03 F= -.93906302E+03 E0= -.93906302E+03  EK= 0.72729E+01 SP= 0.00E+00 SK= 0.00E+00
   4704 T=   290. E= -.93171751E+03 F= -.93902873E+03 E0= -.93902873E+03  EK= 0.73112E+01 SP= 0.00E+00 SK= 0.00E+00
       N       E                     dE             d eps       ncg     rms          rms(c)
DAV:   1    -0.919486521611E+03    0.79899E+01   -0.33326E+03 16238   0.112E+02
DAV:   2    -0.929008254244E+03   -0.95217E+01   -0.95187E+01 19180   0.172E+01
DAV:   3    -0.929104837278E+03   -0.96583E-01   -0.96576E-01 19476   0.181E+00
DAV:   4    -0.929106974233E+03   -0.21370E-02   -0.21369E-02 19276   0.258E-01    0.110E+01
DAV:   5    -0.927900660565E+03    0.12063E+01   -0.23935E+00 19652   0.403E+00    0.595E+00
DAV:   6    -0.927801102675E+03    0.99558E-01   -0.17172E+00 19396   0.290E+00    0.185E+00
DAV:   7    -0.927826280454E+03   -0.25178E-01   -0.32948E-01 18788   0.148E+00    0.674E-01
DAV:   8    -0.927823422100E+03    0.28584E-02   -0.38461E-02 18124   0.519E-01    0.328E-01
DAV:   9    -0.927821559988E+03    0.18621E-02   -0.16558E-02 18500   0.274E-01    0.187E-01
DAV:  10    -0.927820138386E+03    0.14216E-02   -0.28426E-03 22524   0.178E-01    0.574E-02
DAV:  11    -0.927819787040E+03    0.35135E-03   -0.13383E-03 17756   0.873E-02    0.473E-02
DAV:  12    -0.927819484413E+03    0.30263E-03   -0.17783E-04 13420   0.590E-02    0.201E-02
DAV:  13    -0.927819380135E+03    0.10428E-03   -0.28797E-04 15644   0.540E-02    0.260E-02
DAV:  14    -0.927819354337E+03    0.25798E-04   -0.10150E-04 13748   0.330E-02
   4705 T=   294. E= -.93156104E+03 F= -.93898333E+03 E0= -.93898333E+03  EK= 0.74223E+01 SP= 0.00E+00 SK= 0.00E+00
   4706 T=   295. E= -.93158038E+03 F= -.93901784E+03 E0= -.93901784E+03  EK= 0.74375E+01 SP= 0.00E+00 SK= 0.00E+00
   4707 T=   293. E= -.93158101E+03 F= -.93897742E+03 E0= -.93897742E+03  EK= 0.73964E+01 SP= 0.00E+00 SK= 0.00E+00
   4708 T=   290. E= -.93159315E+03 F= -.93890307E+03 E0= -.93890307E+03  EK= 0.73099E+01 SP= 0.00E+00 SK= 0.00E+00
   4709 T=   283. E= -.93164441E+03 F= -.93877343E+03 E0= -.93877343E+03  EK= 0.71290E+01 SP= 0.00E+00 SK= 0.00E+00
   4710 T=   281. E= -.93160298E+03 F= -.93868216E+03 E0= -.93868216E+03  EK= 0.70792E+01 SP= 0.00E+00 SK= 0.00E+00
   4711 T=   284. E= -.93154751E+03 F= -.93870571E+03 E0= -.93870571E+03  EK= 0.71582E+01 SP= 0.00E+00 SK= 0.00E+00
   4712 T=   292. E= -.93143076E+03 F= -.93878718E+03 E0= -.93878718E+03  EK= 0.73564E+01 SP= 0.00E+00 SK= 0.00E+00
   4713 T=   301. E= -.93137432E+03 F= -.93896988E+03 E0= -.93896988E+03  EK= 0.75956E+01 SP= 0.00E+00 SK= 0.00E+00
   4714 T=   303. E= -.93146528E+03 F= -.93909096E+03 E0= -.93909096E+03  EK= 0.76257E+01 SP= 0.00E+00 SK= 0.00E+00
   4715 T=   303. E= -.93147654E+03 F= -.93910445E+03 E0= -.93910445E+03  EK= 0.76279E+01 SP= 0.00E+00 SK= 0.00E+00
   4716 T=   302. E= -.93140367E+03 F= -.93902074E+03 E0= -.93902074E+03  EK= 0.76171E+01 SP= 0.00E+00 SK= 0.00E+00
   4717 T=   302. E= -.93134464E+03 F= -.93894982E+03 E0= -.93894982E+03  EK= 0.76052E+01 SP= 0.00E+00 SK= 0.00E+00
   4718 T=   303. E= -.93129391E+03 F= -.93893010E+03 E0= -.93893010E+03  EK= 0.76362E+01 SP= 0.00E+00 SK= 0.00E+00
   4719 T=   309. E= -.93123331E+03 F= -.93901744E+03 E0= -.93901744E+03  EK= 0.77841E+01 SP= 0.00E+00 SK= 0.00E+00
   4720 T=   315. E= -.93113703E+03 F= -.93907595E+03 E0= -.93907595E+03  EK= 0.79389E+01 SP= 0.00E+00 SK= 0.00E+00
   4721 T=   312. E= -.93116881E+03 F= -.93904089E+03 E0= -.93904089E+03  EK= 0.78721E+01 SP= 0.00E+00 SK= 0.00E+00
   4722 T=   305. E= -.93126915E+03 F= -.93896921E+03 E0= -.93896921E+03  EK= 0.77001E+01 SP= 0.00E+00 SK= 0.00E+00
   4723 T=   300. E= -.93139037E+03 F= -.93894462E+03 E0= -.93894462E+03  EK= 0.75543E+01 SP= 0.00E+00 SK= 0.00E+00
   4724 T=   294. E= -.93153946E+03 F= -.93894101E+03 E0= -.93894101E+03  EK= 0.74015E+01 SP= 0.00E+00 SK= 0.00E+00
       N       E                     dE             d eps       ncg     rms          rms(c)
DAV:   1    -0.892312783873E+03    0.35507E+02   -0.93213E+03 16238   0.186E+02
DAV:   2    -0.929405834929E+03   -0.37093E+02   -0.37076E+02 18940   0.328E+01
DAV:   3    -0.929805639808E+03   -0.39980E+00   -0.39976E+00 19468   0.370E+00
DAV:   4    -0.929813676483E+03   -0.80367E-02   -0.80362E-02 19108   0.509E-01    0.172E+01
DAV:   5    -0.927727745318E+03    0.20859E+01   -0.38223E+00 19052   0.514E+00    0.982E+00
DAV:   6    -0.927583837585E+03    0.14391E+00   -0.48802E+00 19500   0.497E+00    0.218E+00
DAV:   7    -0.927635622281E+03   -0.51785E-01   -0.79401E-01 18340   0.210E+00    0.951E-01
DAV:   8    -0.927634042988E+03    0.15793E-02   -0.81158E-02 18564   0.586E-01    0.523E-01
DAV:   9    -0.927629902841E+03    0.41401E-02   -0.30888E-02 18980   0.498E-01    0.307E-01
DAV:  10    -0.927626612573E+03    0.32903E-02   -0.82104E-03 18156   0.279E-01    0.105E-01
DAV:  11    -0.927626186808E+03    0.42576E-03   -0.44351E-03 19308   0.151E-01    0.714E-02
DAV:  12    -0.927625761277E+03    0.42553E-03   -0.44365E-04 17684   0.656E-02    0.352E-02
DAV:  13    -0.927625475729E+03    0.28555E-03   -0.38100E-04 16940   0.724E-02    0.280E-02
DAV:  14    -0.927625414817E+03    0.60912E-04   -0.16205E-04 13652   0.488E-02
   4725 T=   294. E= -.93141811E+03 F= -.93882431E+03 E0= -.93882431E+03  EK= 0.74062E+01 SP= 0.00E+00 SK= 0.00E+00
   4726 T=   293. E= -.93147591E+03 F= -.93885865E+03 E0= -.93885865E+03  EK= 0.73827E+01 SP= 0.00E+00 SK= 0.00E+00
   4727 T=   296. E= -.93135997E+03 F= -.93881438E+03 E0= -.93881438E+03  EK= 0.74544E+01 SP= 0.00E+00 SK= 0.00E+00
   4728 T=   306. E= -.93110627E+03 F= -.93881190E+03 E0= -.93881190E+03  EK= 0.77056E+01 SP= 0.00E+00 SK= 0.00E+00
   4729 T=   310. E= -.93102393E+03 F= -.93885018E+03 E0= -.93885018E+03  EK= 0.78263E+01 SP= 0.00E+00 SK= 0.00E+00
   4730 T=   314. E= -.93095401E+03 F= -.93886298E+03 E0= -.93886298E+03  EK= 0.79090E+01 SP= 0.00E+00 SK= 0.00E+00
   4731 T=   316. E= -.93087507E+03 F= -.93884197E+03 E0= -.93884197E+03  EK= 0.79669E+01 SP= 0.00E+00 SK= 0.00E+00
   4732 T=   310. E= -.93096324E+03 F= -.93877155E+03 E0= -.93877155E+03  EK= 0.78083E+01 SP= 0.00E+00 SK= 0.00E+00
   4733 T=   304. E= -.93107855E+03 F= -.93873775E+03 E0= -.93873775E+03  EK= 0.76592E+01 SP= 0.00E+00 SK= 0.00E+00
   4734 T=   299. E= -.93120251E+03 F= -.93872821E+03 E0= -.93872821E+03  EK= 0.75257E+01 SP= 0.00E+00 SK= 0.00E+00
   4735 T=   297. E= -.93124950E+03 F= -.93873679E+03 E0= -.93873679E+03  EK= 0.74873E+01 SP= 0.00E+00 SK= 0.00E+00
   4736 T=   295. E= -.93132885E+03 F= -.93876446E+03 E0= -.93876446E+03  EK= 0.74356E+01 SP= 0.00E+00 SK= 0.00E+00
   4737 T=   291. E= -.93143333E+03 F= -.93877770E+03 E0= -.93877770E+03  EK= 0.73444E+01 SP= 0.00E+00 SK= 0.00E+00
   4738 T=   292. E= -.93144453E+03 F= -.93880623E+03 E0= -.93880623E+03  EK= 0.73617E+01 SP= 0.00E+00 SK= 0.00E+00
   4739 T=   291. E= -.93147095E+03 F= -.93879602E+03 E0= -.93879602E+03  EK= 0.73251E+01 SP= 0.00E+00 SK= 0.00E+00
   4740 T=   287. E= -.93146326E+03 F= -.93869071E+03 E0= -.93869071E+03  EK= 0.72274E+01 SP= 0.00E+00 SK= 0.00E+00
   4741 T=   283. E= -.93137363E+03 F= -.93851089E+03 E0= -.93851089E+03  EK= 0.71373E+01 SP= 0.00E+00 SK= 0.00E+00
   4742 T=   275. E= -.93136914E+03 F= -.93829167E+03 E0= -.93829167E+03  EK= 0.69225E+01 SP= 0.00E+00 SK= 0.00E+00
       N       E                     dE             d eps       ncg     rms          rms(c)
DAV:   1    -0.899162733618E+03    0.28463E+02   -0.80168E+03 16238   0.173E+02
DAV:   2    -0.928815948768E+03   -0.29653E+02   -0.29637E+02 19068   0.295E+01
DAV:   3    -0.929126714805E+03   -0.31077E+00   -0.31073E+00 19460   0.330E+00
DAV:   4    -0.929132842935E+03   -0.61281E-02   -0.61278E-02 19244   0.449E-01    0.165E+01
DAV:   5    -0.926993013949E+03    0.21398E+01   -0.36538E+00 19588   0.488E+00    0.938E+00
DAV:   6    -0.926876233848E+03    0.11678E+00   -0.45151E+00 19460   0.472E+00    0.212E+00
DAV:   7    -0.926930066798E+03   -0.53833E-01   -0.78354E-01 18556   0.206E+00    0.918E-01
DAV:   8    -0.926924538946E+03    0.55279E-02   -0.64035E-02 18516   0.585E-01    0.489E-01
DAV:   9    -0.926920894525E+03    0.36444E-02   -0.30776E-02 18380   0.436E-01    0.282E-01
DAV:  10    -0.926918105238E+03    0.27893E-02   -0.71996E-03 21428   0.270E-01    0.884E-02
DAV:  11    -0.926917502482E+03    0.60276E-03   -0.29916E-03 18868   0.139E-01    0.604E-02
DAV:  12    -0.926916991730E+03    0.51075E-03   -0.40110E-04 17172   0.752E-02    0.372E-02
DAV:  13    -0.926916663890E+03    0.32784E-03   -0.46362E-04 17116   0.909E-02    0.324E-02
DAV:  14    -0.926916603765E+03    0.60124E-04   -0.27562E-04 16092   0.551E-02
   4743 T=   268. E= -.93139266E+03 F= -.93814045E+03 E0= -.93814045E+03  EK= 0.67478E+01 SP= 0.00E+00 SK= 0.00E+00
   4744 T=   269. E= -.93146519E+03 F= -.93823937E+03 E0= -.93823937E+03  EK= 0.67742E+01 SP= 0.00E+00 SK= 0.00E+00
   4745 T=   277. E= -.93143745E+03 F= -.93841325E+03 E0= -.93841325E+03  EK= 0.69758E+01 SP= 0.00E+00 SK= 0.00E+00
   4746 T=   285. E= -.93142255E+03 F= -.93860348E+03 E0= -.93860348E+03  EK= 0.71809E+01 SP= 0.00E+00 SK= 0.00E+00
   4747 T=   289. E= -.93147185E+03 F= -.93874384E+03 E0= -.93874384E+03  EK= 0.72720E+01 SP= 0.00E+00 SK= 0.00E+00
   4748 T=   288. E= -.93151180E+03 F= -.93877278E+03 E0= -.93877278E+03  EK= 0.72610E+01 SP= 0.00E+00 SK= 0.00E+00
   4749 T=   284. E= -.93151741E+03 F= -.93867986E+03 E0= -.93867986E+03  EK= 0.71625E+01 SP= 0.00E+00 SK= 0.00E+00
   4750 T=   281. E= -.93143943E+03 F= -.93851023E+03 E0= -.93851023E+03  EK= 0.70708E+01 SP= 0.00E+00 SK= 0.00E+00
   4751 T=   278. E= -.93132384E+03 F= -.93833325E+03 E0= -.93833325E+03  EK= 0.70094E+01 SP= 0.00E+00 SK= 0.00E+00
   4752 T=   274. E= -.93138444E+03 F= -.93829556E+03 E0= -.93829556E+03  EK= 0.69111E+01 SP= 0.00E+00 SK= 0.00E+00
       N       E                     dE             d eps       ncg     rms          rms(c)
DAV:   1    -0.919212504133E+03    0.77042E+01   -0.32558E+03 16238   0.112E+02
DAV:   2    -0.928346356969E+03   -0.91339E+01   -0.91312E+01 19132   0.168E+01
DAV:   3    -0.928438777147E+03   -0.92420E-01   -0.92414E-01 19524   0.177E+00
DAV:   4    -0.928440817967E+03   -0.20408E-02   -0.20407E-02 19244   0.254E-01    0.113E+01
DAV:   5    -0.927233870346E+03    0.12069E+01   -0.23871E+00 20100   0.406E+00    0.608E+00
DAV:   6    -0.927120068556E+03    0.11380E+00   -0.17654E+00 19436   0.296E+00    0.180E+00
DAV:   7    -0.927148336639E+03   -0.28268E-01   -0.33869E-01 19156   0.143E+00    0.690E-01
DAV:   8    -0.927145049289E+03    0.32873E-02   -0.34195E-02 18788   0.461E-01    0.344E-01
DAV:   9    -0.927142650744E+03    0.23985E-02   -0.13213E-02 18444   0.268E-01    0.165E-01
DAV:  10    -0.927141278176E+03    0.13726E-02   -0.28658E-03 22220   0.189E-01    0.543E-02
DAV:  11    -0.927140988216E+03    0.28996E-03   -0.12734E-03 18964   0.866E-02    0.488E-02
DAV:  12    -0.927140644915E+03    0.34330E-03   -0.19669E-04 13996   0.680E-02    0.178E-02
DAV:  13    -0.927140550912E+03    0.94004E-04   -0.26687E-04 15804   0.587E-02
   4753 T=   273. E= -.93142466E+03 F= -.93831736E+03 E0= -.93831736E+03  EK= 0.68927E+01 SP= 0.00E+00 SK= 0.00E+00
   4754 T=   279. E= -.93160569E+03 F= -.93863191E+03 E0= -.93863191E+03  EK= 0.70262E+01 SP= 0.00E+00 SK= 0.00E+00
   4755 T=   281. E= -.93170988E+03 F= -.93878387E+03 E0= -.93878387E+03  EK= 0.70740E+01 SP= 0.00E+00 SK= 0.00E+00
   4756 T=   283. E= -.93163901E+03 F= -.93876786E+03 E0= -.93876786E+03  EK= 0.71289E+01 SP= 0.00E+00 SK= 0.00E+00
   4757 T=   282. E= -.93158954E+03 F= -.93869880E+03 E0= -.93869880E+03  EK= 0.71093E+01 SP= 0.00E+00 SK= 0.00E+00
   4758 T=   277. E= -.93170967E+03 F= -.93868177E+03 E0= -.93868177E+03  EK= 0.69721E+01 SP= 0.00E+00 SK= 0.00E+00
   4759 T=   279. E= -.93174166E+03 F= -.93876915E+03 E0= -.93876915E+03  EK= 0.70275E+01 SP= 0.00E+00 SK= 0.00E+00
   4760 T=   285. E= -.93167458E+03 F= -.93886161E+03 E0= -.93886161E+03  EK= 0.71870E+01 SP= 0.00E+00 SK= 0.00E+00
   4761 T=   283. E= -.93172941E+03 F= -.93887123E+03 E0= -.93887123E+03  EK= 0.71418E+01 SP= 0.00E+00 SK= 0.00E+00
   4762 T=   280. E= -.93176685E+03 F= -.93882691E+03 E0= -.93882691E+03  EK= 0.70601E+01 SP= 0.00E+00 SK= 0.00E+00
   4763 T=   283. E= -.93169913E+03 F= -.93883534E+03 E0= -.93883534E+03  EK= 0.71362E+01 SP= 0.00E+00 SK= 0.00E+00
   4764 T=   291. E= -.93162983E+03 F= -.93895345E+03 E0= -.93895345E+03  EK= 0.73236E+01 SP= 0.00E+00 SK= 0.00E+00
   4765 T=   294. E= -.93167785E+03 F= -.93907614E+03 E0= -.93907614E+03  EK= 0.73983E+01 SP= 0.00E+00 SK= 0.00E+00
   4766 T=   295. E= -.93174429E+03 F= -.93916943E+03 E0= -.93916943E+03  EK= 0.74251E+01 SP= 0.00E+00 SK= 0.00E+00
   4767 T=   294. E= -.93175282E+03 F= -.93915624E+03 E0= -.93915624E+03  EK= 0.74034E+01 SP= 0.00E+00 SK= 0.00E+00
   4768 T=   289. E= -.93174915E+03 F= -.93903204E+03 E0= -.93903204E+03  EK= 0.72829E+01 SP= 0.00E+00 SK= 0.00E+00
   4769 T=   281. E= -.93177478E+03 F= -.93885670E+03 E0= -.93885670E+03  EK= 0.70819E+01 SP= 0.00E+00 SK= 0.00E+00
   4770 T=   275. E= -.93179352E+03 F= -.93872116E+03 E0= -.93872116E+03  EK= 0.69276E+01 SP= 0.00E+00 SK= 0.00E+00
   4771 T=   275. E= -.93173209E+03 F= -.93865850E+03 E0= -.93865850E+03  EK= 0.69264E+01 SP= 0.00E+00 SK= 0.00E+00
   4772 T=   278. E= -.93170557E+03 F= -.93871159E+03 E0= -.93871159E+03  EK= 0.70060E+01 SP= 0.00E+00 SK= 0.00E+00
   4773 T=   283. E= -.93171774E+03 F= -.93884474E+03 E0= -.93884474E+03  EK= 0.71270E+01 SP= 0.00E+00 SK= 0.00E+00
   4774 T=   289. E= -.93170303E+03 F= -.93898776E+03 E0= -.93898776E+03  EK= 0.72847E+01 SP= 0.00E+00 SK= 0.00E+00
   4775 T=   292. E= -.93174158E+03 F= -.93909512E+03 E0= -.93909512E+03  EK= 0.73535E+01 SP= 0.00E+00 SK= 0.00E+00
   4776 T=   292. E= -.93172698E+03 F= -.93908731E+03 E0= -.93908731E+03  EK= 0.73603E+01 SP= 0.00E+00 SK= 0.00E+00
       N       E                     dE             d eps       ncg     rms          rms(c)
DAV:   1    -0.875804159048E+03    0.51336E+02   -0.11746E+04 16238   0.208E+02
DAV:   2    -0.930450237191E+03   -0.54646E+02   -0.54614E+02 19100   0.395E+01
DAV:   3    -0.931052973095E+03   -0.60274E+00   -0.60264E+00 19436   0.456E+00
DAV:   4    -0.931064506127E+03   -0.11533E-01   -0.11532E-01 19164   0.613E-01    0.198E+01
DAV:   5    -0.927973837435E+03    0.30907E+01   -0.52758E+00 19244   0.578E+00    0.113E+01
DAV:   6    -0.927657327834E+03    0.31651E+00   -0.58273E+00 19556   0.561E+00    0.257E+00
DAV:   7    -0.927738152927E+03   -0.80825E-01   -0.10853E+00 18620   0.236E+00    0.123E+00
DAV:   8    -0.927726909706E+03    0.11243E-01   -0.10209E-01 18956   0.683E-01    0.662E-01
DAV:   9    -0.927718093591E+03    0.88161E-02   -0.37426E-02 18420   0.541E-01    0.314E-01
DAV:  10    -0.927713328863E+03    0.47647E-02   -0.85982E-03 20004   0.318E-01    0.130E-01
DAV:  11    -0.927712183285E+03    0.11456E-02   -0.63533E-03 19572   0.209E-01    0.965E-02
DAV:  12    -0.927711304148E+03    0.87914E-03   -0.11563E-03 19092   0.120E-01    0.401E-02
DAV:  13    -0.927710809161E+03    0.49499E-03   -0.48454E-04 17572   0.113E-01    0.439E-02
DAV:  14    -0.927710676931E+03    0.13223E-03   -0.47221E-04 18540   0.855E-02    0.259E-02
DAV:  15    -0.927710681773E+03   -0.48420E-05   -0.28887E-04 16604   0.353E-02
   4777 T=   286. E= -.93165669E+03 F= -.93886871E+03 E0= -.93886871E+03  EK= 0.72120E+01 SP= 0.00E+00 SK= 0.00E+00
   4778 T=   273. E= -.93172950E+03 F= -.93860359E+03 E0= -.93860359E+03  EK= 0.68741E+01 SP= 0.00E+00 SK= 0.00E+00
   4779 T=   265. E= -.93164591E+03 F= -.93831513E+03 E0= -.93831513E+03  EK= 0.66692E+01 SP= 0.00E+00 SK= 0.00E+00
   4780 T=   259. E= -.93166125E+03 F= -.93820054E+03 E0= -.93820054E+03  EK= 0.65393E+01 SP= 0.00E+00 SK= 0.00E+00
   4781 T=   263. E= -.93168910E+03 F= -.93832278E+03 E0= -.93832278E+03  EK= 0.66337E+01 SP= 0.00E+00 SK= 0.00E+00
   4782 T=   274. E= -.93166879E+03 F= -.93858405E+03 E0= -.93858405E+03  EK= 0.69153E+01 SP= 0.00E+00 SK= 0.00E+00
   4783 T=   277. E= -.93180584E+03 F= -.93877762E+03 E0= -.93877762E+03  EK= 0.69718E+01 SP= 0.00E+00 SK= 0.00E+00
   4784 T=   274. E= -.93180555E+03 F= -.93871974E+03 E0= -.93871974E+03  EK= 0.69142E+01 SP= 0.00E+00 SK= 0.00E+00
   4785 T=   266. E= -.93171690E+03 F= -.93842770E+03 E0= -.93842770E+03  EK= 0.67108E+01 SP= 0.00E+00 SK= 0.00E+00
   4786 T=   253. E= -.93172665E+03 F= -.93810988E+03 E0= -.93810988E+03  EK= 0.63832E+01 SP= 0.00E+00 SK= 0.00E+00
   4787 T=   252. E= -.93161053E+03 F= -.93796823E+03 E0= -.93796823E+03  EK= 0.63577E+01 SP= 0.00E+00 SK= 0.00E+00
   4788 T=   261. E= -.93148871E+03 F= -.93805530E+03 E0= -.93805530E+03  EK= 0.65666E+01 SP= 0.00E+00 SK= 0.00E+00
   4789 T=   268. E= -.93150050E+03 F= -.93826038E+03 E0= -.93826038E+03  EK= 0.67599E+01 SP= 0.00E+00 SK= 0.00E+00
   4790 T=   275. E= -.93152562E+03 F= -.93845920E+03 E0= -.93845920E+03  EK= 0.69336E+01 SP= 0.00E+00 SK= 0.00E+00
   4791 T=   282. E= -.93147175E+03 F= -.93858214E+03 E0= -.93858214E+03  EK= 0.71104E+01 SP= 0.00E+00 SK= 0.00E+00
   4792 T=   285. E= -.93143271E+03 F= -.93861793E+03 E0= -.93861793E+03  EK= 0.71852E+01 SP= 0.00E+00 SK= 0.00E+00
   4793 T=   281. E= -.93147889E+03 F= -.93855275E+03 E0= -.93855275E+03  EK= 0.70739E+01 SP= 0.00E+00 SK= 0.00E+00
   4794 T=   275. E= -.93154205E+03 F= -.93848382E+03 E0= -.93848382E+03  EK= 0.69418E+01 SP= 0.00E+00 SK= 0.00E+00
   4795 T=   269. E= -.93163955E+03 F= -.93842238E+03 E0= -.93842238E+03  EK= 0.67828E+01 SP= 0.00E+00 SK= 0.00E+00
   4796 T=   265. E= -.93168886E+03 F= -.93836469E+03 E0= -.93836469E+03  EK= 0.66758E+01 SP= 0.00E+00 SK= 0.00E+00
   4797 T=   268. E= -.93161065E+03 F= -.93837460E+03 E0= -.93837460E+03  EK= 0.67639E+01 SP= 0.00E+00 SK= 0.00E+00
   4798 T=   273. E= -.93153738E+03 F= -.93841325E+03 E0= -.93841325E+03  EK= 0.68759E+01 SP= 0.00E+00 SK= 0.00E+00
   4799 T=   275. E= -.93154799E+03 F= -.93847128E+03 E0= -.93847128E+03  EK= 0.69233E+01 SP= 0.00E+00 SK= 0.00E+00
   4800 T=   271. E= -.93166035E+03 F= -.93848957E+03 E0= -.93848957E+03  EK= 0.68292E+01 SP= 0.00E+00 SK= 0.00E+00
   4801 T=   264. E= -.93180140E+03 F= -.93844356E+03 E0= -.93844356E+03  EK= 0.66422E+01 SP= 0.00E+00 SK= 0.00E+00
   4802 T=   258. E= -.93183467E+03 F= -.93834486E+03 E0= -.93834486E+03  EK= 0.65102E+01 SP= 0.00E+00 SK= 0.00E+00
   4803 T=   260. E= -.93179726E+03 F= -.93833873E+03 E0= -.93833873E+03  EK= 0.65415E+01 SP= 0.00E+00 SK= 0.00E+00
   4804 T=   267. E= -.93173677E+03 F= -.93847376E+03 E0= -.93847376E+03  EK= 0.67370E+01 SP= 0.00E+00 SK= 0.00E+00
   4805 T=   277. E= -.93167048E+03 F= -.93866390E+03 E0= -.93866390E+03  EK= 0.69934E+01 SP= 0.00E+00 SK= 0.00E+00
   4806 T=   283. E= -.93166360E+03 F= -.93880314E+03 E0= -.93880314E+03  EK= 0.71395E+01 SP= 0.00E+00 SK= 0.00E+00
   4807 T=   283. E= -.93169698E+03 F= -.93882039E+03 E0= -.93882039E+03  EK= 0.71234E+01 SP= 0.00E+00 SK= 0.00E+00
   4808 T=   276. E= -.93177452E+03 F= -.93873809E+03 E0= -.93873809E+03  EK= 0.69636E+01 SP= 0.00E+00 SK= 0.00E+00
   4809 T=   271. E= -.93181695E+03 F= -.93865007E+03 E0= -.93865007E+03  EK= 0.68331E+01 SP= 0.00E+00 SK= 0.00E+00
   4810 T=   272. E= -.93179714E+03 F= -.93864484E+03 E0= -.93864484E+03  EK= 0.68477E+01 SP= 0.00E+00 SK= 0.00E+00
   4811 T=   277. E= -.93178459E+03 F= -.93877511E+03 E0= -.93877511E+03  EK= 0.69905E+01 SP= 0.00E+00 SK= 0.00E+00
   4812 T=   286. E= -.93175682E+03 F= -.93897095E+03 E0= -.93897095E+03  EK= 0.72141E+01 SP= 0.00E+00 SK= 0.00E+00
   4813 T=   300. E= -.93159390E+03 F= -.93915659E+03 E0= -.93915659E+03  EK= 0.75627E+01 SP= 0.00E+00 SK= 0.00E+00
   4814 T=   307. E= -.93148434E+03 F= -.93922994E+03 E0= -.93922994E+03  EK= 0.77456E+01 SP= 0.00E+00 SK= 0.00E+00
   4815 T=   304. E= -.93150166E+03 F= -.93915507E+03 E0= -.93915507E+03  EK= 0.76534E+01 SP= 0.00E+00 SK= 0.00E+00
   4816 T=   301. E= -.93142168E+03 F= -.93899629E+03 E0= -.93899629E+03  EK= 0.75746E+01 SP= 0.00E+00 SK= 0.00E+00
   4817 T=   295. E= -.93138102E+03 F= -.93882782E+03 E0= -.93882782E+03  EK= 0.74468E+01 SP= 0.00E+00 SK= 0.00E+00
   4818 T=   296. E= -.93130132E+03 F= -.93877112E+03 E0= -.93877112E+03  EK= 0.74698E+01 SP= 0.00E+00 SK= 0.00E+00
   4819 T=   303. E= -.93117542E+03 F= -.93881521E+03 E0= -.93881521E+03  EK= 0.76398E+01 SP= 0.00E+00 SK= 0.00E+00
   4820 T=   311. E= -.93108983E+03 F= -.93892672E+03 E0= -.93892672E+03  EK= 0.78369E+01 SP= 0.00E+00 SK= 0.00E+00
   4821 T=   319. E= -.93100313E+03 F= -.93903513E+03 E0= -.93903513E+03  EK= 0.80320E+01 SP= 0.00E+00 SK= 0.00E+00
   4822 T=   315. E= -.93104704E+03 F= -.93899804E+03 E0= -.93899804E+03  EK= 0.79510E+01 SP= 0.00E+00 SK= 0.00E+00
   4823 T=   302. E= -.93118430E+03 F= -.93879356E+03 E0= -.93879356E+03  EK= 0.76093E+01 SP= 0.00E+00 SK= 0.00E+00
   4824 T=   283. E= -.93137646E+03 F= -.93852019E+03 E0= -.93852019E+03  EK= 0.71437E+01 SP= 0.00E+00 SK= 0.00E+00
   4825 T=   273. E= -.93144831E+03 F= -.93833791E+03 E0= -.93833791E+03  EK= 0.68896E+01 SP= 0.00E+00 SK= 0.00E+00
   4826 T=   270. E= -.93149420E+03 F= -.93830086E+03 E0= -.93830086E+03  EK= 0.68067E+01 SP= 0.00E+00 SK= 0.00E+00
   4827 T=   271. E= -.93156128E+03 F= -.93838288E+03 E0= -.93838288E+03  EK= 0.68216E+01 SP= 0.00E+00 SK= 0.00E+00
   4828 T=   273. E= -.93157887E+03 F= -.93847263E+03 E0= -.93847263E+03  EK= 0.68938E+01 SP= 0.00E+00 SK= 0.00E+00
   4829 T=   272. E= -.93169630E+03 F= -.93854222E+03 E0= -.93854222E+03  EK= 0.68459E+01 SP= 0.00E+00 SK= 0.00E+00
   4830 T=   267. E= -.93185292E+03 F= -.93857598E+03 E0= -.93857598E+03  EK= 0.67231E+01 SP= 0.00E+00 SK= 0.00E+00
       N       E                     dE             d eps       ncg     rms          rms(c)
DAV:   1    -0.750183075263E+03    0.17753E+03   -0.23790E+04 16238   0.289E+02
DAV:   2    -0.929511167879E+03   -0.17933E+03   -0.17857E+03 18852   0.697E+01
DAV:   3    -0.932432079864E+03   -0.29209E+01   -0.29201E+01 19380   0.991E+00
DAV:   4    -0.932485036789E+03   -0.52957E-01   -0.52952E-01 18996   0.129E+00    0.260E+01
DAV:   5    -0.927226594413E+03    0.52584E+01   -0.10462E+01 18524   0.761E+00    0.148E+01
DAV:   6    -0.927162272586E+03    0.64322E-01   -0.10065E+01 19380   0.683E+00    0.378E+00
DAV:   7    -0.927389573252E+03   -0.22730E+00   -0.16658E+00 18428   0.295E+00    0.156E+00
DAV:   8    -0.927393811832E+03   -0.42386E-02   -0.16270E-01 18660   0.879E-01    0.752E-01
DAV:   9    -0.927390456456E+03    0.33554E-02   -0.45375E-02 18788   0.532E-01    0.334E-01
DAV:  10    -0.927388412589E+03    0.20439E-02   -0.87160E-03 20436   0.291E-01    0.114E-01
DAV:  11    -0.927387881553E+03    0.53104E-03   -0.43604E-03 19532   0.160E-01    0.804E-02
DAV:  12    -0.927387286148E+03    0.59541E-03   -0.59594E-04 18388   0.852E-02    0.321E-02
DAV:  13    -0.927386923151E+03    0.36300E-03   -0.42809E-04 17212   0.935E-02    0.372E-02
DAV:  14    -0.927386839736E+03    0.83415E-04   -0.38291E-04 17276   0.657E-02
   4831 T=   266. E= -.93186389E+03 F= -.93856073E+03 E0= -.93856073E+03  EK= 0.66968E+01 SP= 0.00E+00 SK= 0.00E+00
   4832 T=   265. E= -.93194746E+03 F= -.93862640E+03 E0= -.93862640E+03  EK= 0.66789E+01 SP= 0.00E+00 SK= 0.00E+00
   4833 T=   263. E= -.93205787E+03 F= -.93867654E+03 E0= -.93867654E+03  EK= 0.66187E+01 SP= 0.00E+00 SK= 0.00E+00
   4834 T=   264. E= -.93211493E+03 F= -.93877268E+03 E0= -.93877268E+03  EK= 0.66578E+01 SP= 0.00E+00 SK= 0.00E+00
   4835 T=   271. E= -.93205715E+03 F= -.93887982E+03 E0= -.93887982E+03  EK= 0.68227E+01 SP= 0.00E+00 SK= 0.00E+00
   4836 T=   275. E= -.93202193E+03 F= -.93896025E+03 E0= -.93896025E+03  EK= 0.69383E+01 SP= 0.00E+00 SK= 0.00E+00
   4837 T=   272. E= -.93213424E+03 F= -.93899495E+03 E0= -.93899495E+03  EK= 0.68607E+01 SP= 0.00E+00 SK= 0.00E+00
   4838 T=   270. E= -.93217212E+03 F= -.93898754E+03 E0= -.93898754E+03  EK= 0.68154E+01 SP= 0.00E+00 SK= 0.00E+00
   4839 T=   268. E= -.93221258E+03 F= -.93897040E+03 E0= -.93897040E+03  EK= 0.67578E+01 SP= 0.00E+00 SK= 0.00E+00
   4840 T=   269. E= -.93220144E+03 F= -.93897230E+03 E0= -.93897230E+03  EK= 0.67709E+01 SP= 0.00E+00 SK= 0.00E+00
       N       E                     dE             d eps       ncg     rms          rms(c)
DAV:   1    -0.920694225803E+03    0.66927E+01   -0.29644E+03 16238   0.107E+02
DAV:   2    -0.928765269290E+03   -0.80710E+01   -0.80690E+01 19116   0.158E+01
DAV:   3    -0.928847738642E+03   -0.82469E-01   -0.82465E-01 19492   0.166E+00
DAV:   4    -0.928849556805E+03   -0.18182E-02   -0.18181E-02 19188   0.238E-01    0.104E+01
DAV:   5    -0.927890435402E+03    0.95912E+00   -0.18327E+00 19492   0.359E+00    0.575E+00
DAV:   6    -0.927814864363E+03    0.75571E-01   -0.16730E+00 19572   0.293E+00    0.160E+00
DAV:   7    -0.927830815722E+03   -0.15951E-01   -0.32217E-01 18700   0.146E+00    0.647E-01
DAV:   8    -0.927826728611E+03    0.40871E-02   -0.38635E-02 18860   0.482E-01    0.318E-01
DAV:   9    -0.927823446079E+03    0.32825E-02   -0.13402E-02 18244   0.270E-01    0.180E-01
DAV:  10    -0.927821243209E+03    0.22029E-02   -0.34981E-03 21644   0.220E-01    0.560E-02
DAV:  11    -0.927820778227E+03    0.46498E-03   -0.17478E-03 19356   0.110E-01    0.566E-02
DAV:  12    -0.927820375234E+03    0.40299E-03   -0.28720E-04 14980   0.615E-02    0.253E-02
DAV:  13    -0.927820163317E+03    0.21192E-03   -0.31325E-04 16444   0.793E-02    0.342E-02
DAV:  14    -0.927820137319E+03    0.25998E-04   -0.29431E-04 17156   0.491E-02
   4841 T=   273. E= -.93211188E+03 F= -.93898583E+03 E0= -.93898583E+03  EK= 0.68739E+01 SP= 0.00E+00 SK= 0.00E+00
   4842 T=   277. E= -.93212717E+03 F= -.93910366E+03 E0= -.93910366E+03  EK= 0.69765E+01 SP= 0.00E+00 SK= 0.00E+00
   4843 T=   281. E= -.93207879E+03 F= -.93916102E+03 E0= -.93916102E+03  EK= 0.70822E+01 SP= 0.00E+00 SK= 0.00E+00
   4844 T=   285. E= -.93199126E+03 F= -.93918353E+03 E0= -.93918353E+03  EK= 0.71923E+01 SP= 0.00E+00 SK= 0.00E+00
   4845 T=   284. E= -.93198118E+03 F= -.93914662E+03 E0= -.93914662E+03  EK= 0.71654E+01 SP= 0.00E+00 SK= 0.00E+00
   4846 T=   282. E= -.93199170E+03 F= -.93909270E+03 E0= -.93909270E+03  EK= 0.71010E+01 SP= 0.00E+00 SK= 0.00E+00
   4847 T=   284. E= -.93191565E+03 F= -.93907438E+03 E0= -.93907438E+03  EK= 0.71587E+01 SP= 0.00E+00 SK= 0.00E+00
   4848 T=   290. E= -.93185437E+03 F= -.93916055E+03 E0= -.93916055E+03  EK= 0.73062E+01 SP= 0.00E+00 SK= 0.00E+00
   4849 T=   296. E= -.93179432E+03 F= -.93926650E+03 E0= -.93926650E+03  EK= 0.74722E+01 SP= 0.00E+00 SK= 0.00E+00
   4850 T=   298. E= -.93179665E+03 F= -.93929788E+03 E0= -.93929788E+03  EK= 0.75012E+01 SP= 0.00E+00 SK= 0.00E+00
   4851 T=   295. E= -.93180588E+03 F= -.93924757E+03 E0= -.93924757E+03  EK= 0.74417E+01 SP= 0.00E+00 SK= 0.00E+00
   4852 T=   294. E= -.93179678E+03 F= -.93919935E+03 E0= -.93919935E+03  EK= 0.74026E+01 SP= 0.00E+00 SK= 0.00E+00
   4853 T=   293. E= -.93181057E+03 F= -.93918891E+03 E0= -.93918891E+03  EK= 0.73783E+01 SP= 0.00E+00 SK= 0.00E+00
   4854 T=   296. E= -.93176626E+03 F= -.93921572E+03 E0= -.93921572E+03  EK= 0.74495E+01 SP= 0.00E+00 SK= 0.00E+00
   4855 T=   296. E= -.93173064E+03 F= -.93918440E+03 E0= -.93918440E+03  EK= 0.74538E+01 SP= 0.00E+00 SK= 0.00E+00
       N       E                     dE             d eps       ncg     rms          rms(c)
DAV:   1    -0.911162897728E+03    0.16657E+02   -0.56033E+03 16238   0.145E+02
DAV:   2    -0.929013827754E+03   -0.17851E+02   -0.17844E+02 19012   0.231E+01
DAV:   3    -0.929202645449E+03   -0.18882E+00   -0.18880E+00 19476   0.256E+00
DAV:   4    -0.929206683383E+03   -0.40379E-02   -0.40378E-02 19236   0.358E-01    0.138E+01
DAV:   5    -0.927949664355E+03    0.12570E+01   -0.20807E+00 18708   0.363E+00    0.801E+00
DAV:   6    -0.927880877013E+03    0.68787E-01   -0.32010E+00 19556   0.404E+00    0.155E+00
DAV:   7    -0.927899656208E+03   -0.18779E-01   -0.55882E-01 18236   0.169E+00    0.762E-01
DAV:   8    -0.927894923026E+03    0.47332E-02   -0.44264E-02 19468   0.450E-01    0.423E-01
DAV:   9    -0.927891427849E+03    0.34952E-02   -0.20433E-02 18388   0.377E-01    0.243E-01
DAV:  10    -0.927888812127E+03    0.26157E-02   -0.51602E-03 20052   0.231E-01    0.856E-02
DAV:  11    -0.927888307547E+03    0.50458E-03   -0.29917E-03 19500   0.132E-01    0.632E-02
DAV:  12    -0.927887811659E+03    0.49589E-03   -0.41229E-04 17404   0.704E-02    0.313E-02
DAV:  13    -0.927887598912E+03    0.21275E-03   -0.40075E-04 17428   0.709E-02    0.341E-02
DAV:  14    -0.927887539127E+03    0.59785E-04   -0.16125E-04 13604   0.473E-02
   4856 T=   297. E= -.93160619E+03 F= -.93908271E+03 E0= -.93908271E+03  EK= 0.74765E+01 SP= 0.00E+00 SK= 0.00E+00
   4857 T=   300. E= -.93154356E+03 F= -.93910268E+03 E0= -.93910268E+03  EK= 0.75591E+01 SP= 0.00E+00 SK= 0.00E+00
   4858 T=   299. E= -.93152193E+03 F= -.93904972E+03 E0= -.93904972E+03  EK= 0.75278E+01 SP= 0.00E+00 SK= 0.00E+00
   4859 T=   291. E= -.93160476E+03 F= -.93892738E+03 E0= -.93892738E+03  EK= 0.73226E+01 SP= 0.00E+00 SK= 0.00E+00
   4860 T=   286. E= -.93163152E+03 F= -.93883061E+03 E0= -.93883061E+03  EK= 0.71991E+01 SP= 0.00E+00 SK= 0.00E+00
   4861 T=   291. E= -.93148941E+03 F= -.93883650E+03 E0= -.93883650E+03  EK= 0.73471E+01 SP= 0.00E+00 SK= 0.00E+00
   4862 T=   298. E= -.93139685E+03 F= -.93891115E+03 E0= -.93891115E+03  EK= 0.75143E+01 SP= 0.00E+00 SK= 0.00E+00
   4863 T=   301. E= -.93135459E+03 F= -.93894423E+03 E0= -.93894423E+03  EK= 0.75896E+01 SP= 0.00E+00 SK= 0.00E+00
   4864 T=   300. E= -.93127429E+03 F= -.93882767E+03 E0= -.93882767E+03  EK= 0.75534E+01 SP= 0.00E+00 SK= 0.00E+00
   4865 T=   288. E= -.93135508E+03 F= -.93860893E+03 E0= -.93860893E+03  EK= 0.72539E+01 SP= 0.00E+00 SK= 0.00E+00
   4866 T=   278. E= -.93150189E+03 F= -.93849971E+03 E0= -.93849971E+03  EK= 0.69978E+01 SP= 0.00E+00 SK= 0.00E+00
   4867 T=   280. E= -.93148818E+03 F= -.93854339E+03 E0= -.93854339E+03  EK= 0.70552E+01 SP= 0.00E+00 SK= 0.00E+00
   4868 T=   287. E= -.93144502E+03 F= -.93868828E+03 E0= -.93868828E+03  EK= 0.72433E+01 SP= 0.00E+00 SK= 0.00E+00
   4869 T=   294. E= -.93139431E+03 F= -.93880236E+03 E0= -.93880236E+03  EK= 0.74081E+01 SP= 0.00E+00 SK= 0.00E+00
   4870 T=   294. E= -.93144660E+03 F= -.93885406E+03 E0= -.93885406E+03  EK= 0.74075E+01 SP= 0.00E+00 SK= 0.00E+00
   4871 T=   292. E= -.93152695E+03 F= -.93889726E+03 E0= -.93889726E+03  EK= 0.73703E+01 SP= 0.00E+00 SK= 0.00E+00
   4872 T=   293. E= -.93152722E+03 F= -.93890551E+03 E0= -.93890551E+03  EK= 0.73783E+01 SP= 0.00E+00 SK= 0.00E+00
   4873 T=   290. E= -.93156029E+03 F= -.93886469E+03 E0= -.93886469E+03  EK= 0.73044E+01 SP= 0.00E+00 SK= 0.00E+00
   4874 T=   285. E= -.93159014E+03 F= -.93878198E+03 E0= -.93878198E+03  EK= 0.71918E+01 SP= 0.00E+00 SK= 0.00E+00
   4875 T=   284. E= -.93156698E+03 F= -.93873656E+03 E0= -.93873656E+03  EK= 0.71696E+01 SP= 0.00E+00 SK= 0.00E+00
   4876 T=   284. E= -.93156032E+03 F= -.93872367E+03 E0= -.93872367E+03  EK= 0.71633E+01 SP= 0.00E+00 SK= 0.00E+00
       N       E                     dE             d eps       ncg     rms          rms(c)
DAV:   1    -0.887345001306E+03    0.40543E+02   -0.10293E+04 16238   0.196E+02
DAV:   2    -0.929883435457E+03   -0.42538E+02   -0.42516E+02 19036   0.352E+01
DAV:   3    -0.930331888477E+03   -0.44845E+00   -0.44839E+00 19444   0.394E+00
DAV:   4    -0.930340688239E+03   -0.87998E-02   -0.87991E-02 19188   0.536E-01    0.182E+01
DAV:   5    -0.927659070681E+03    0.26816E+01   -0.44618E+00 19188   0.534E+00    0.104E+01
DAV:   6    -0.927437138723E+03    0.22193E+00   -0.52515E+00 19468   0.511E+00    0.237E+00
DAV:   7    -0.927505401586E+03   -0.68263E-01   -0.88652E-01 18308   0.216E+00    0.105E+00
DAV:   8    -0.927500027422E+03    0.53742E-02   -0.81703E-02 18676   0.602E-01    0.563E-01
DAV:   9    -0.927494499871E+03    0.55276E-02   -0.30328E-02 18420   0.475E-01    0.286E-01
DAV:  10    -0.927491228931E+03    0.32709E-02   -0.69637E-03 18804   0.254E-01    0.108E-01
DAV:  11    -0.927490635066E+03    0.59387E-03   -0.40192E-03 19388   0.144E-01    0.708E-02
DAV:  12    -0.927490129727E+03    0.50534E-03   -0.53291E-04 17884   0.736E-02    0.298E-02
DAV:  13    -0.927489920634E+03    0.20909E-03   -0.35364E-04 16852   0.590E-02    0.337E-02
DAV:  14    -0.927489854132E+03    0.66502E-04   -0.11887E-04 13676   0.422E-02
   4877 T=   286. E= -.93149724E+03 F= -.93869923E+03 E0= -.93869923E+03  EK= 0.72020E+01 SP= 0.00E+00 SK= 0.00E+00
   4878 T=   292. E= -.93149692E+03 F= -.93886263E+03 E0= -.93886263E+03  EK= 0.73657E+01 SP= 0.00E+00 SK= 0.00E+00
   4879 T=   300. E= -.93138655E+03 F= -.93895536E+03 E0= -.93895536E+03  EK= 0.75688E+01 SP= 0.00E+00 SK= 0.00E+00
   4880 T=   299. E= -.93135671E+03 F= -.93889297E+03 E0= -.93889297E+03  EK= 0.75363E+01 SP= 0.00E+00 SK= 0.00E+00
   4881 T=   289. E= -.93142260E+03 F= -.93869755E+03 E0= -.93869755E+03  EK= 0.72750E+01 SP= 0.00E+00 SK= 0.00E+00
   4882 T=   276. E= -.93150377E+03 F= -.93847120E+03 E0= -.93847120E+03  EK= 0.69674E+01 SP= 0.00E+00 SK= 0.00E+00
   4883 T=   269. E= -.93154243E+03 F= -.93831555E+03 E0= -.93831555E+03  EK= 0.67731E+01 SP= 0.00E+00 SK= 0.00E+00
   4884 T=   270. E= -.93151743E+03 F= -.93831331E+03 E0= -.93831331E+03  EK= 0.67959E+01 SP= 0.00E+00 SK= 0.00E+00
   4885 T=   282. E= -.93136127E+03 F= -.93846698E+03 E0= -.93846698E+03  EK= 0.71057E+01 SP= 0.00E+00 SK= 0.00E+00
   4886 T=   298. E= -.93115002E+03 F= -.93866349E+03 E0= -.93866349E+03  EK= 0.75135E+01 SP= 0.00E+00 SK= 0.00E+00
   4887 T=   300. E= -.93122907E+03 F= -.93877952E+03 E0= -.93877952E+03  EK= 0.75505E+01 SP= 0.00E+00 SK= 0.00E+00
   4888 T=   299. E= -.93126163E+03 F= -.93880493E+03 E0= -.93880493E+03  EK= 0.75433E+01 SP= 0.00E+00 SK= 0.00E+00
   4889 T=   300. E= -.93119335E+03 F= -.93876618E+03 E0= -.93876618E+03  EK= 0.75728E+01 SP= 0.00E+00 SK= 0.00E+00
   4890 T=   296. E= -.93121501E+03 F= -.93867623E+03 E0= -.93867623E+03  EK= 0.74612E+01 SP= 0.00E+00 SK= 0.00E+00
   4891 T=   290. E= -.93122509E+03 F= -.93853647E+03 E0= -.93853647E+03  EK= 0.73114E+01 SP= 0.00E+00 SK= 0.00E+00
   4892 T=   286. E= -.93123374E+03 F= -.93844267E+03 E0= -.93844267E+03  EK= 0.72089E+01 SP= 0.00E+00 SK= 0.00E+00
   4893 T=   287. E= -.93122119E+03 F= -.93845472E+03 E0= -.93845472E+03  EK= 0.72335E+01 SP= 0.00E+00 SK= 0.00E+00
   4894 T=   286. E= -.93131087E+03 F= -.93851259E+03 E0= -.93851259E+03  EK= 0.72017E+01 SP= 0.00E+00 SK= 0.00E+00
   4895 T=   281. E= -.93151197E+03 F= -.93860120E+03 E0= -.93860120E+03  EK= 0.70892E+01 SP= 0.00E+00 SK= 0.00E+00
   4896 T=   284. E= -.93155402E+03 F= -.93870252E+03 E0= -.93870252E+03  EK= 0.71485E+01 SP= 0.00E+00 SK= 0.00E+00
   4897 T=   283. E= -.93161209E+03 F= -.93873440E+03 E0= -.93873440E+03  EK= 0.71223E+01 SP= 0.00E+00 SK= 0.00E+00
   4898 T=   279. E= -.93168329E+03 F= -.93871641E+03 E0= -.93871641E+03  EK= 0.70331E+01 SP= 0.00E+00 SK= 0.00E+00
   4899 T=   279. E= -.93164681E+03 F= -.93867566E+03 E0= -.93867566E+03  EK= 0.70288E+01 SP= 0.00E+00 SK= 0.00E+00
   4900 T=   278. E= -.93160163E+03 F= -.93861243E+03 E0= -.93861243E+03  EK= 0.70108E+01 SP= 0.00E+00 SK= 0.00E+00
   4901 T=   277. E= -.93156510E+03 F= -.93854022E+03 E0= -.93854022E+03  EK= 0.69751E+01 SP= 0.00E+00 SK= 0.00E+00
   4902 T=   278. E= -.93148953E+03 F= -.93850857E+03 E0= -.93850857E+03  EK= 0.70190E+01 SP= 0.00E+00 SK= 0.00E+00
   4903 T=   284. E= -.93139504E+03 F= -.93856532E+03 E0= -.93856532E+03  EK= 0.71703E+01 SP= 0.00E+00 SK= 0.00E+00
   4904 T=   295. E= -.93126806E+03 F= -.93869642E+03 E0= -.93869642E+03  EK= 0.74284E+01 SP= 0.00E+00 SK= 0.00E+00
   4905 T=   307. E= -.93113089E+03 F= -.93886248E+03 E0= -.93886248E+03  EK= 0.77316E+01 SP= 0.00E+00 SK= 0.00E+00
   4906 T=   312. E= -.93115307E+03 F= -.93901806E+03 E0= -.93901806E+03  EK= 0.78650E+01 SP= 0.00E+00 SK= 0.00E+00
   4907 T=   315. E= -.93111175E+03 F= -.93904334E+03 E0= -.93904334E+03  EK= 0.79316E+01 SP= 0.00E+00 SK= 0.00E+00
   4908 T=   313. E= -.93099431E+03 F= -.93889349E+03 E0= -.93889349E+03  EK= 0.78992E+01 SP= 0.00E+00 SK= 0.00E+00
   4909 T=   306. E= -.93096590E+03 F= -.93868904E+03 E0= -.93868904E+03  EK= 0.77231E+01 SP= 0.00E+00 SK= 0.00E+00
   4910 T=   300. E= -.93096828E+03 F= -.93852277E+03 E0= -.93852277E+03  EK= 0.75545E+01 SP= 0.00E+00 SK= 0.00E+00
   4911 T=   296. E= -.93101740E+03 F= -.93847320E+03 E0= -.93847320E+03  EK= 0.74558E+01 SP= 0.00E+00 SK= 0.00E+00
   4912 T=   297. E= -.93109421E+03 F= -.93857849E+03 E0= -.93857849E+03  EK= 0.74843E+01 SP= 0.00E+00 SK= 0.00E+00
   4913 T=   300. E= -.93114282E+03 F= -.93871111E+03 E0= -.93871111E+03  EK= 0.75683E+01 SP= 0.00E+00 SK= 0.00E+00
   4914 T=   307. E= -.93114430E+03 F= -.93887030E+03 E0= -.93887030E+03  EK= 0.77260E+01 SP= 0.00E+00 SK= 0.00E+00
   4915 T=   308. E= -.93114875E+03 F= -.93892331E+03 E0= -.93892331E+03  EK= 0.77746E+01 SP= 0.00E+00 SK= 0.00E+00
   4916 T=   304. E= -.93115048E+03 F= -.93880838E+03 E0= -.93880838E+03  EK= 0.76579E+01 SP= 0.00E+00 SK= 0.00E+00
       N       E                     dE             d eps       ncg     rms          rms(c)
DAV:   1    -0.789495084568E+03    0.13799E+03   -0.20432E+04 16238   0.270E+02
DAV:   2    -0.929429201301E+03   -0.13993E+03   -0.13953E+03 18852   0.612E+01
DAV:   3    -0.931526539475E+03   -0.20973E+01   -0.20968E+01 19396   0.834E+00
DAV:   4    -0.931565234883E+03   -0.38695E-01   -0.38692E-01 19076   0.109E+00    0.243E+01
DAV:   5    -0.927368278229E+03    0.41970E+01   -0.77842E+00 18516   0.663E+00    0.140E+01
DAV:   6    -0.927285467953E+03    0.82810E-01   -0.90191E+00 19404   0.676E+00    0.311E+00
DAV:   7    -0.927430825064E+03   -0.14536E+00   -0.16339E+00 18532   0.289E+00    0.151E+00
DAV:   8    -0.927420384283E+03    0.10441E-01   -0.14836E-01 18956   0.824E-01    0.777E-01
DAV:   9    -0.927410961451E+03    0.94228E-02   -0.49652E-02 18212   0.570E-01    0.349E-01
DAV:  10    -0.927405667184E+03    0.52943E-02   -0.10150E-02 19700   0.337E-01    0.142E-01
DAV:  11    -0.927404562047E+03    0.11051E-02   -0.78452E-03 19668   0.217E-01    0.110E-01
DAV:  12    -0.927403548402E+03    0.10136E-02   -0.15303E-03 18540   0.125E-01    0.431E-02
DAV:  13    -0.927403100860E+03    0.44754E-03   -0.60800E-04 18524   0.104E-01    0.550E-02
DAV:  14    -0.927402969138E+03    0.13172E-03   -0.52301E-04 19100   0.779E-02    0.252E-02
DAV:  15    -0.927402971852E+03   -0.27141E-05   -0.21429E-04 14252   0.304E-02
   4917 T=   294. E= -.93118890E+03 F= -.93860365E+03 E0= -.93860365E+03  EK= 0.74148E+01 SP= 0.00E+00 SK= 0.00E+00
   4918 T=   285. E= -.93125650E+03 F= -.93842877E+03 E0= -.93842877E+03  EK= 0.71723E+01 SP= 0.00E+00 SK= 0.00E+00
   4919 T=   279. E= -.93130171E+03 F= -.93833069E+03 E0= -.93833069E+03  EK= 0.70290E+01 SP= 0.00E+00 SK= 0.00E+00
   4920 T=   277. E= -.93138406E+03 F= -.93835922E+03 E0= -.93835922E+03  EK= 0.69752E+01 SP= 0.00E+00 SK= 0.00E+00
   4921 T=   278. E= -.93151775E+03 F= -.93853088E+03 E0= -.93853088E+03  EK= 0.70131E+01 SP= 0.00E+00 SK= 0.00E+00
   4922 T=   282. E= -.93158777E+03 F= -.93868833E+03 E0= -.93868833E+03  EK= 0.71006E+01 SP= 0.00E+00 SK= 0.00E+00
   4923 T=   285. E= -.93160049E+03 F= -.93877740E+03 E0= -.93877740E+03  EK= 0.71769E+01 SP= 0.00E+00 SK= 0.00E+00
   4924 T=   283. E= -.93166294E+03 F= -.93878387E+03 E0= -.93878387E+03  EK= 0.71209E+01 SP= 0.00E+00 SK= 0.00E+00
   4925 T=   283. E= -.93165101E+03 F= -.93877188E+03 E0= -.93877188E+03  EK= 0.71209E+01 SP= 0.00E+00 SK= 0.00E+00
   4926 T=   283. E= -.93160910E+03 F= -.93873651E+03 E0= -.93873651E+03  EK= 0.71274E+01 SP= 0.00E+00 SK= 0.00E+00
       N       E                     dE             d eps       ncg     rms          rms(c)
DAV:   1    -0.919126797042E+03    0.82762E+01   -0.33421E+03 16238   0.113E+02
DAV:   2    -0.928707122378E+03   -0.95803E+01   -0.95777E+01 19220   0.172E+01
DAV:   3    -0.928803608682E+03   -0.96486E-01   -0.96479E-01 19556   0.181E+00
DAV:   4    -0.928805737229E+03   -0.21285E-02   -0.21285E-02 19236   0.258E-01    0.111E+01
DAV:   5    -0.927592291922E+03    0.12134E+01   -0.23765E+00 20060   0.418E+00    0.600E+00
DAV:   6    -0.927488509774E+03    0.10378E+00   -0.17918E+00 19404   0.298E+00    0.185E+00
DAV:   7    -0.927508752315E+03   -0.20243E-01   -0.34743E-01 18868   0.152E+00    0.675E-01
DAV:   8    -0.927503477659E+03    0.52747E-02   -0.39543E-02 19188   0.549E-01    0.322E-01
DAV:   9    -0.927500278090E+03    0.31996E-02   -0.16829E-02 18260   0.293E-01    0.195E-01
DAV:  10    -0.927498386697E+03    0.18914E-02   -0.42452E-03 22460   0.226E-01    0.557E-02
DAV:  11    -0.927497939976E+03    0.44672E-03   -0.16155E-03 18892   0.103E-01    0.574E-02
DAV:  12    -0.927497415814E+03    0.52416E-03   -0.26588E-04 15044   0.890E-02    0.215E-02
DAV:  13    -0.927497268702E+03    0.14711E-03   -0.48325E-04 17748   0.834E-02    0.335E-02
DAV:  14    -0.927497250726E+03    0.17976E-04   -0.28592E-04 16396   0.452E-02
   4927 T=   279. E= -.93167188E+03 F= -.93870611E+03 E0= -.93870611E+03  EK= 0.70342E+01 SP= 0.00E+00 SK= 0.00E+00
   4928 T=   276. E= -.93168683E+03 F= -.93863469E+03 E0= -.93863469E+03  EK= 0.69479E+01 SP= 0.00E+00 SK= 0.00E+00
   4929 T=   274. E= -.93171346E+03 F= -.93861621E+03 E0= -.93861621E+03  EK= 0.69027E+01 SP= 0.00E+00 SK= 0.00E+00
   4930 T=   276. E= -.93170383E+03 F= -.93866607E+03 E0= -.93866607E+03  EK= 0.69622E+01 SP= 0.00E+00 SK= 0.00E+00
   4931 T=   285. E= -.93162839E+03 F= -.93880761E+03 E0= -.93880761E+03  EK= 0.71792E+01 SP= 0.00E+00 SK= 0.00E+00
   4932 T=   292. E= -.93158135E+03 F= -.93894168E+03 E0= -.93894168E+03  EK= 0.73603E+01 SP= 0.00E+00 SK= 0.00E+00
   4933 T=   295. E= -.93160286E+03 F= -.93902996E+03 E0= -.93902996E+03  EK= 0.74271E+01 SP= 0.00E+00 SK= 0.00E+00
   4934 T=   297. E= -.93154962E+03 F= -.93903512E+03 E0= -.93903512E+03  EK= 0.74855E+01 SP= 0.00E+00 SK= 0.00E+00
   4935 T=   297. E= -.93144597E+03 F= -.93892557E+03 E0= -.93892557E+03  EK= 0.74796E+01 SP= 0.00E+00 SK= 0.00E+00
   4936 T=   287. E= -.93144879E+03 F= -.93869409E+03 E0= -.93869409E+03  EK= 0.72453E+01 SP= 0.00E+00 SK= 0.00E+00
       N       E                     dE             d eps       ncg     rms          rms(c)
DAV:   1    -0.919227400810E+03    0.82699E+01   -0.32608E+03 16238   0.111E+02
DAV:   2    -0.928604375324E+03   -0.93770E+01   -0.93740E+01 19308   0.170E+01
DAV:   3    -0.928700361575E+03   -0.95986E-01   -0.95979E-01 19500   0.178E+00
DAV:   4    -0.928702488738E+03   -0.21272E-02   -0.21271E-02 19348   0.255E-01    0.112E+01
DAV:   5    -0.927352277661E+03    0.13502E+01   -0.27039E+00 20500   0.441E+00    0.598E+00
DAV:   6    -0.927206111916E+03    0.14617E+00   -0.17919E+00 19572   0.313E+00    0.198E+00
DAV:   7    -0.927215688650E+03   -0.95767E-02   -0.38361E-01 19172   0.160E+00    0.698E-01
DAV:   8    -0.927206561744E+03    0.91269E-02   -0.42986E-02 18740   0.540E-01    0.358E-01
DAV:   9    -0.927199036797E+03    0.75249E-02   -0.17646E-02 18340   0.346E-01    0.184E-01
DAV:  10    -0.927196247281E+03    0.27895E-02   -0.39917E-03 21836   0.235E-01    0.811E-02
DAV:  11    -0.927195108277E+03    0.11390E-02   -0.25418E-03 18724   0.159E-01    0.723E-02
DAV:  12    -0.927194390426E+03    0.71785E-03   -0.65071E-04 19660   0.127E-01    0.344E-02
DAV:  13    -0.927194100108E+03    0.29032E-03   -0.49099E-04 17820   0.105E-01    0.335E-02
DAV:  14    -0.927194070838E+03    0.29270E-04   -0.43119E-04 18828   0.584E-02
   4937 T=   275. E= -.93149402E+03 F= -.93842370E+03 E0= -.93842370E+03  EK= 0.69297E+01 SP= 0.00E+00 SK= 0.00E+00
   4938 T=   274. E= -.93148078E+03 F= -.93839033E+03 E0= -.93839033E+03  EK= 0.69096E+01 SP= 0.00E+00 SK= 0.00E+00
   4939 T=   285. E= -.93141479E+03 F= -.93859961E+03 E0= -.93859961E+03  EK= 0.71848E+01 SP= 0.00E+00 SK= 0.00E+00
   4940 T=   300. E= -.93138004E+03 F= -.93894161E+03 E0= -.93894161E+03  EK= 0.75616E+01 SP= 0.00E+00 SK= 0.00E+00
   4941 T=   312. E= -.93127927E+03 F= -.93914356E+03 E0= -.93914356E+03  EK= 0.78643E+01 SP= 0.00E+00 SK= 0.00E+00
   4942 T=   317. E= -.93122231E+03 F= -.93921856E+03 E0= -.93921856E+03  EK= 0.79963E+01 SP= 0.00E+00 SK= 0.00E+00
   4943 T=   309. E= -.93127244E+03 F= -.93906891E+03 E0= -.93906891E+03  EK= 0.77965E+01 SP= 0.00E+00 SK= 0.00E+00
   4944 T=   301. E= -.93127134E+03 F= -.93884981E+03 E0= -.93884981E+03  EK= 0.75785E+01 SP= 0.00E+00 SK= 0.00E+00
   4945 T=   295. E= -.93128742E+03 F= -.93871841E+03 E0= -.93871841E+03  EK= 0.74310E+01 SP= 0.00E+00 SK= 0.00E+00
   4946 T=   296. E= -.93133934E+03 F= -.93880962E+03 E0= -.93880962E+03  EK= 0.74703E+01 SP= 0.00E+00 SK= 0.00E+00
       N       E                     dE             d eps       ncg     rms          rms(c)
DAV:   1    -0.920129491348E+03    0.70646E+01   -0.31863E+03 16238   0.111E+02
DAV:   2    -0.928934123970E+03   -0.88046E+01   -0.88018E+01 19244   0.166E+01
DAV:   3    -0.929021663222E+03   -0.87539E-01   -0.87532E-01 19492   0.173E+00
DAV:   4    -0.929023553134E+03   -0.18899E-02   -0.18898E-02 19236   0.246E-01    0.115E+01
DAV:   5    -0.927803476002E+03    0.12201E+01   -0.26397E+00 20260   0.415E+00    0.619E+00
DAV:   6    -0.927724914046E+03    0.78562E-01   -0.17291E+00 19404   0.297E+00    0.194E+00
DAV:   7    -0.927753397919E+03   -0.28484E-01   -0.35829E-01 19180   0.155E+00    0.690E-01
DAV:   8    -0.927748684846E+03    0.47131E-02   -0.41334E-02 19028   0.522E-01    0.342E-01
DAV:   9    -0.927744756318E+03    0.39285E-02   -0.14404E-02 18652   0.304E-01    0.173E-01
DAV:  10    -0.927742580327E+03    0.21760E-02   -0.34765E-03 21940   0.230E-01    0.656E-02
DAV:  11    -0.927741896499E+03    0.68383E-03   -0.21214E-03 19076   0.134E-01    0.644E-02
DAV:  12    -0.927741278667E+03    0.61783E-03   -0.34305E-04 15700   0.102E-01    0.256E-02
DAV:  13    -0.927741014957E+03    0.26371E-03   -0.49580E-04 17756   0.109E-01    0.391E-02
DAV:  14    -0.927740997090E+03    0.17867E-04   -0.55807E-04 19468   0.634E-02
   4947 T=   302. E= -.93136728E+03 F= -.93896917E+03 E0= -.93896917E+03  EK= 0.76019E+01 SP= 0.00E+00 SK= 0.00E+00
   4948 T=   304. E= -.93158897E+03 F= -.93924826E+03 E0= -.93924826E+03  EK= 0.76593E+01 SP= 0.00E+00 SK= 0.00E+00
   4949 T=   301. E= -.93180228E+03 F= -.93939274E+03 E0= -.93939274E+03  EK= 0.75905E+01 SP= 0.00E+00 SK= 0.00E+00
   4950 T=   298. E= -.93192742E+03 F= -.93944955E+03 E0= -.93944955E+03  EK= 0.75221E+01 SP= 0.00E+00 SK= 0.00E+00
   4951 T=   293. E= -.93200218E+03 F= -.93938589E+03 E0= -.93938589E+03  EK= 0.73837E+01 SP= 0.00E+00 SK= 0.00E+00
   4952 T=   288. E= -.93201276E+03 F= -.93926301E+03 E0= -.93926301E+03  EK= 0.72502E+01 SP= 0.00E+00 SK= 0.00E+00
   4953 T=   284. E= -.93190521E+03 F= -.93907170E+03 E0= -.93907170E+03  EK= 0.71665E+01 SP= 0.00E+00 SK= 0.00E+00
   4954 T=   281. E= -.93182375E+03 F= -.93891262E+03 E0= -.93891262E+03  EK= 0.70889E+01 SP= 0.00E+00 SK= 0.00E+00
   4955 T=   283. E= -.93181489E+03 F= -.93895381E+03 E0= -.93895381E+03  EK= 0.71389E+01 SP= 0.00E+00 SK= 0.00E+00
   4956 T=   292. E= -.93177904E+03 F= -.93913845E+03 E0= -.93913845E+03  EK= 0.73594E+01 SP= 0.00E+00 SK= 0.00E+00
   4957 T=   297. E= -.93176068E+03 F= -.93924923E+03 E0= -.93924923E+03  EK= 0.74885E+01 SP= 0.00E+00 SK= 0.00E+00
   4958 T=   294. E= -.93174018E+03 F= -.93915706E+03 E0= -.93915706E+03  EK= 0.74169E+01 SP= 0.00E+00 SK= 0.00E+00
   4959 T=   283. E= -.93174127E+03 F= -.93886791E+03 E0= -.93886791E+03  EK= 0.71266E+01 SP= 0.00E+00 SK= 0.00E+00
   4960 T=   271. E= -.93174116E+03 F= -.93857396E+03 E0= -.93857396E+03  EK= 0.68328E+01 SP= 0.00E+00 SK= 0.00E+00
   4961 T=   267. E= -.93175758E+03 F= -.93848418E+03 E0= -.93848418E+03  EK= 0.67266E+01 SP= 0.00E+00 SK= 0.00E+00
   4962 T=   271. E= -.93179790E+03 F= -.93863956E+03 E0= -.93863956E+03  EK= 0.68417E+01 SP= 0.00E+00 SK= 0.00E+00
   4963 T=   281. E= -.93182337E+03 F= -.93890640E+03 E0= -.93890640E+03  EK= 0.70830E+01 SP= 0.00E+00 SK= 0.00E+00
   4964 T=   286. E= -.93181377E+03 F= -.93902718E+03 E0= -.93902718E+03  EK= 0.72134E+01 SP= 0.00E+00 SK= 0.00E+00
   4965 T=   283. E= -.93184486E+03 F= -.93897831E+03 E0= -.93897831E+03  EK= 0.71335E+01 SP= 0.00E+00 SK= 0.00E+00
   4966 T=   271. E= -.93199384E+03 F= -.93882558E+03 E0= -.93882558E+03  EK= 0.68317E+01 SP= 0.00E+00 SK= 0.00E+00
   4967 T=   263. E= -.93207639E+03 F= -.93870910E+03 E0= -.93870910E+03  EK= 0.66327E+01 SP= 0.00E+00 SK= 0.00E+00
   4968 T=   267. E= -.93198965E+03 F= -.93871279E+03 E0= -.93871279E+03  EK= 0.67231E+01 SP= 0.00E+00 SK= 0.00E+00
   4969 T=   271. E= -.93195548E+03 F= -.93878187E+03 E0= -.93878187E+03  EK= 0.68264E+01 SP= 0.00E+00 SK= 0.00E+00
   4970 T=   276. E= -.93197332E+03 F= -.93892927E+03 E0= -.93892927E+03  EK= 0.69559E+01 SP= 0.00E+00 SK= 0.00E+00
   4971 T=   280. E= -.93199737E+03 F= -.93906127E+03 E0= -.93906127E+03  EK= 0.70639E+01 SP= 0.00E+00 SK= 0.00E+00
   4972 T=   282. E= -.93203461E+03 F= -.93915038E+03 E0= -.93915038E+03  EK= 0.71158E+01 SP= 0.00E+00 SK= 0.00E+00
   4973 T=   287. E= -.93191393E+03 F= -.93915328E+03 E0= -.93915328E+03  EK= 0.72393E+01 SP= 0.00E+00 SK= 0.00E+00
   4974 T=   292. E= -.93171883E+03 F= -.93908615E+03 E0= -.93908615E+03  EK= 0.73673E+01 SP= 0.00E+00 SK= 0.00E+00
   4975 T=   295. E= -.93158524E+03 F= -.93902404E+03 E0= -.93902404E+03  EK= 0.74388E+01 SP= 0.00E+00 SK= 0.00E+00
       N       E                     dE             d eps       ncg     rms          rms(c)
DAV:   1    -0.843542954672E+03    0.84198E+02   -0.15473E+04 16238   0.235E+02
DAV:   2    -0.930614470450E+03   -0.87072E+02   -0.86965E+02 18988   0.485E+01
DAV:   3    -0.931743883232E+03   -0.11294E+01   -0.11292E+01 19492   0.617E+00
DAV:   4    -0.931765320913E+03   -0.21438E-01   -0.21436E-01 19148   0.815E-01    0.211E+01
DAV:   5    -0.928107155945E+03    0.36582E+01   -0.66838E+00 19084   0.645E+00    0.120E+01
DAV:   6    -0.927721501869E+03    0.38565E+00   -0.73608E+00 19628   0.613E+00    0.292E+00
DAV:   7    -0.927808780919E+03   -0.87279E-01   -0.13902E+00 18908   0.283E+00    0.131E+00
DAV:   8    -0.927796603806E+03    0.12177E-01   -0.14139E-01 19020   0.808E-01    0.716E-01
DAV:   9    -0.927784941198E+03    0.11663E-01   -0.48895E-02 18460   0.533E-01    0.360E-01
DAV:  10    -0.927777526270E+03    0.74149E-02   -0.95538E-03 21148   0.399E-01    0.143E-01
DAV:  11    -0.927775945789E+03    0.15805E-02   -0.99283E-03 19644   0.261E-01    0.125E-01
DAV:  12    -0.927774412191E+03    0.15336E-02   -0.17200E-03 18548   0.130E-01    0.516E-02
DAV:  13    -0.927773486654E+03    0.92554E-03   -0.10560E-03 17908   0.152E-01    0.674E-02
DAV:  14    -0.927773290271E+03    0.19638E-03   -0.92190E-04 19772   0.111E-01    0.355E-02
DAV:  15    -0.927773306989E+03   -0.16718E-04   -0.46622E-04 18780   0.428E-02
   4976 T=   296. E= -.93148880E+03 F= -.93895119E+03 E0= -.93895119E+03  EK= 0.74624E+01 SP= 0.00E+00 SK= 0.00E+00
   4977 T=   294. E= -.93153691E+03 F= -.93894175E+03 E0= -.93894175E+03  EK= 0.74048E+01 SP= 0.00E+00 SK= 0.00E+00
   4978 T=   290. E= -.93157417E+03 F= -.93889611E+03 E0= -.93889611E+03  EK= 0.73219E+01 SP= 0.00E+00 SK= 0.00E+00
   4979 T=   290. E= -.93152289E+03 F= -.93883543E+03 E0= -.93883543E+03  EK= 0.73125E+01 SP= 0.00E+00 SK= 0.00E+00
   4980 T=   292. E= -.93143988E+03 F= -.93878748E+03 E0= -.93878748E+03  EK= 0.73476E+01 SP= 0.00E+00 SK= 0.00E+00
   4981 T=   291. E= -.93140850E+03 F= -.93874798E+03 E0= -.93874798E+03  EK= 0.73395E+01 SP= 0.00E+00 SK= 0.00E+00
   4982 T=   287. E= -.93144857E+03 F= -.93869050E+03 E0= -.93869050E+03  EK= 0.72419E+01 SP= 0.00E+00 SK= 0.00E+00
   4983 T=   285. E= -.93149499E+03 F= -.93868784E+03 E0= -.93868784E+03  EK= 0.71928E+01 SP= 0.00E+00 SK= 0.00E+00
   4984 T=   283. E= -.93153126E+03 F= -.93867685E+03 E0= -.93867685E+03  EK= 0.71456E+01 SP= 0.00E+00 SK= 0.00E+00
   4985 T=   283. E= -.93155248E+03 F= -.93868294E+03 E0= -.93868294E+03  EK= 0.71305E+01 SP= 0.00E+00 SK= 0.00E+00
   4986 T=   281. E= -.93162298E+03 F= -.93870061E+03 E0= -.93870061E+03  EK= 0.70776E+01 SP= 0.00E+00 SK= 0.00E+00
   4987 T=   277. E= -.93166996E+03 F= -.93866051E+03 E0= -.93866051E+03  EK= 0.69905E+01 SP= 0.00E+00 SK= 0.00E+00
   4988 T=   274. E= -.93167708E+03 F= -.93859051E+03 E0= -.93859051E+03  EK= 0.69134E+01 SP= 0.00E+00 SK= 0.00E+00
   4989 T=   278. E= -.93157245E+03 F= -.93857920E+03 E0= -.93857920E+03  EK= 0.70067E+01 SP= 0.00E+00 SK= 0.00E+00
   4990 T=   281. E= -.93152794E+03 F= -.93861943E+03 E0= -.93861943E+03  EK= 0.70915E+01 SP= 0.00E+00 SK= 0.00E+00
   4991 T=   284. E= -.93148587E+03 F= -.93863434E+03 E0= -.93863434E+03  EK= 0.71485E+01 SP= 0.00E+00 SK= 0.00E+00
   4992 T=   286. E= -.93141481E+03 F= -.93862104E+03 E0= -.93862104E+03  EK= 0.72062E+01 SP= 0.00E+00 SK= 0.00E+00
       N       E                     dE             d eps       ncg     rms          rms(c)
DAV:   1    -0.904807526990E+03    0.22966E+02   -0.67903E+03 16238   0.159E+02
DAV:   2    -0.928851622893E+03   -0.24044E+02   -0.24033E+02 19132   0.264E+01
DAV:   3    -0.929114130466E+03   -0.26251E+00   -0.26248E+00 19524   0.299E+00
DAV:   4    -0.929119619443E+03   -0.54890E-02   -0.54886E-02 19204   0.416E-01    0.148E+01
DAV:   5    -0.927498925071E+03    0.16207E+01   -0.25918E+00 18652   0.407E+00    0.852E+00
DAV:   6    -0.927383203756E+03    0.11572E+00   -0.37495E+00 19548   0.430E+00    0.176E+00
DAV:   7    -0.927403950012E+03   -0.20746E-01   -0.64141E-01 18548   0.190E+00    0.817E-01
DAV:   8    -0.927397958498E+03    0.59915E-02   -0.60706E-02 19340   0.528E-01    0.446E-01
DAV:   9    -0.927392338191E+03    0.56203E-02   -0.22989E-02 18444   0.419E-01    0.256E-01
DAV:  10    -0.927388475671E+03    0.38625E-02   -0.60920E-03 20052   0.284E-01    0.949E-02
DAV:  11    -0.927387721314E+03    0.75436E-03   -0.43425E-03 19676   0.170E-01    0.788E-02
DAV:  12    -0.927386943758E+03    0.77756E-03   -0.57282E-04 18428   0.917E-02    0.352E-02
DAV:  13    -0.927386555013E+03    0.38875E-03   -0.55362E-04 17796   0.109E-01    0.395E-02
DAV:  14    -0.927386496057E+03    0.58956E-04   -0.47215E-04 18460   0.704E-02
   4993 T=   276. E= -.93160695E+03 F= -.93856255E+03 E0= -.93856255E+03  EK= 0.69556E+01 SP= 0.00E+00 SK= 0.00E+00
   4994 T=   268. E= -.93164883E+03 F= -.93839514E+03 E0= -.93839514E+03  EK= 0.67463E+01 SP= 0.00E+00 SK= 0.00E+00
   4995 T=   270. E= -.93152184E+03 F= -.93832748E+03 E0= -.93832748E+03  EK= 0.68056E+01 SP= 0.00E+00 SK= 0.00E+00
   4996 T=   273. E= -.93143954E+03 F= -.93831612E+03 E0= -.93831612E+03  EK= 0.68766E+01 SP= 0.00E+00 SK= 0.00E+00
   4997 T=   274. E= -.93144523E+03 F= -.93835847E+03 E0= -.93835847E+03  EK= 0.69132E+01 SP= 0.00E+00 SK= 0.00E+00
   4998 T=   275. E= -.93149504E+03 F= -.93842003E+03 E0= -.93842003E+03  EK= 0.69250E+01 SP= 0.00E+00 SK= 0.00E+00
   4999 T=   275. E= -.93156440E+03 F= -.93849942E+03 E0= -.93849942E+03  EK= 0.69350E+01 SP= 0.00E+00 SK= 0.00E+00
   5000 T=   278. E= -.93161285E+03 F= -.93862280E+03 E0= -.93862280E+03  EK= 0.70100E+01 SP= 0.00E+00 SK= 0.00E+00
