H16 O8
1.0
   8.6532086400000008    0.0000000000000000    0.0000000000000005
   0.0000000000000024   15.0520215200000003    0.0000000000000009
   0.0000000000000000    0.0000000000000000   14.1354133599999994
H O
128 64
direct
   0.0924975700000000    0.1339381250000000    0.2585437800000000 H+
   0.0924975700000000    0.1339381250000000    0.7585437800000000 H+
   0.0924975700000000    0.6339381249999999    0.2585437800000000 H+
   0.0924975700000000    0.6339381249999999    0.7585437800000000 H+
   0.5924975700000000    0.1339381250000000    0.2585437800000000 H+
   0.5924975700000000    0.1339381250000000    0.7585437799999999 H+
   0.5924975699999999    0.6339381249999999    0.2585437800000000 H+
   0.5924975699999999    0.6339381249999999    0.7585437800000000 H+
   0.4075024300000000    0.3660618749999999    0.0085437800000000 H+
   0.4075024300000000    0.3660618749999999    0.5085437800000000 H+
   0.4075024300000000    0.8660618750000000    0.0085437800000000 H+
   0.4075024300000000    0.8660618750000000    0.5085437800000000 H+
   0.9075024300000000    0.3660618749999999    0.0085437800000000 H+
   0.9075024300000000    0.3660618749999999    0.5085437800000000 H+
   0.9075024300000000    0.8660618750000000    0.0085437800000000 H+
   0.9075024300000000    0.8660618750000000    0.5085437800000000 H+
   0.4075024300000000    0.1339381250000000    0.2585437800000000 H+
   0.4075024300000000    0.1339381250000000    0.7585437799999999 H+
   0.4075024300000000    0.6339381249999999    0.2585437800000000 H+
   0.4075024300000000    0.6339381249999999    0.7585437800000000 H+
   0.9075024300000000    0.1339381250000000    0.2585437800000000 H+
   0.9075024300000000    0.1339381250000000    0.7585437799999999 H+
   0.9075024300000000    0.6339381249999999    0.2585437800000000 H+
   0.9075024300000000    0.6339381249999999    0.7585437800000000 H+
   0.0924975700000000    0.3660618749999999    0.0085437800000000 H+
   0.0924975700000000    0.3660618749999999    0.5085437800000000 H+
   0.0924975700000000    0.8660618750000000    0.0085437800000000 H+
   0.0924975700000000    0.8660618750000000    0.5085437800000000 H+
   0.5924975700000000    0.3660618749999999    0.0085437800000000 H+
   0.5924975700000000    0.3660618749999999    0.5085437800000000 H+
   0.5924975699999999    0.8660618750000000    0.0085437800000000 H+
   0.5924975699999999    0.8660618750000000    0.5085437800000000 H+
   0.3424975700000001    0.3839381250000000    0.2585437800000000 H+
   0.3424975700000001    0.3839381250000000    0.7585437799999999 H+
   0.3424975700000001    0.8839381249999999    0.2585437800000000 H+
   0.3424975700000001    0.8839381249999999    0.7585437800000000 H+
   0.8424975700000001    0.3839381250000000    0.2585437800000000 H+
   0.8424975700000001    0.3839381250000000    0.7585437799999999 H+
   0.8424975700000000    0.8839381249999999    0.2585437800000000 H+
   0.8424975700000000    0.8839381249999999    0.7585437800000000 H+
   0.1575024300000000    0.1160618750000000    0.0085437800000000 H+
   0.1575024300000000    0.1160618750000000    0.5085437799999999 H+
   0.1575024300000000    0.6160618749999999    0.0085437800000000 H+
   0.1575024300000000    0.6160618749999999    0.5085437800000000 H+
   0.6575024300000001    0.1160618750000000    0.0085437800000000 H+
   0.6575024300000001    0.1160618750000000    0.5085437799999999 H+
   0.6575024300000000    0.6160618749999999    0.0085437800000000 H+
   0.6575024300000000    0.6160618749999999    0.5085437800000000 H+
   0.1575024300000000    0.3839381250000000    0.2585437799999999 H+
   0.1575024300000000    0.3839381250000000    0.7585437799999999 H+
   0.1575024300000000    0.8839381249999999    0.2585437799999999 H+
   0.1575024300000000    0.8839381249999999    0.7585437800000000 H+
   0.6575024300000001    0.3839381250000000    0.2585437800000000 H+
   0.6575024300000001    0.3839381250000000    0.7585437799999999 H+
   0.6575024300000000    0.8839381249999999    0.2585437800000000 H+
   0.6575024300000000    0.8839381249999999    0.7585437800000000 H+
   0.3424975700000001    0.1160618750000000    0.0085437800000000 H+
   0.3424975700000001    0.1160618750000000    0.5085437799999999 H+
   0.3424975700000001    0.6160618749999999    0.0085437800000000 H+
   0.3424975700000001    0.6160618749999999    0.5085437800000000 H+
   0.8424975700000001    0.1160618750000000    0.0085437800000000 H+
   0.8424975700000001    0.1160618750000000    0.5085437799999999 H+
   0.8424975700000000    0.6160618749999999    0.0085437800000000 H+
   0.8424975700000000    0.6160618749999999    0.5085437800000000 H+
   0.0000000000000000    0.1680153700000000    0.3996491049999999 H+
   0.0000000000000000    0.1680153700000000    0.8996491049999999 H+
   0.0000000000000000    0.6680153699999999    0.3996491050000000 H+
   0.0000000000000000    0.6680153699999999    0.8996491050000001 H+
   0.4999999999999999    0.1680153700000000    0.3996491049999999 H+
   0.4999999999999999    0.1680153700000000    0.8996491049999999 H+
   0.4999999999999999    0.6680153699999999    0.3996491049999999 H+
   0.4999999999999999    0.6680153699999999    0.8996491049999999 H+
   0.0000000000000000    0.3319846300000000    0.1496491049999999 H+
   0.0000000000000000    0.3319846300000000    0.6496491049999999 H+
   0.0000000000000000    0.8319846299999999    0.1496491049999999 H+
   0.0000000000000000    0.8319846299999999    0.6496491049999999 H+
   0.5000000000000000    0.3319846300000000    0.1496491049999999 H+
   0.5000000000000000    0.3319846300000000    0.6496491049999998 H+
   0.5000000000000000    0.8319846299999999    0.1496491049999999 H+
   0.5000000000000000    0.8319846299999999    0.6496491049999999 H+
   0.2500000000000000    0.4180153699999999    0.3996491050000000 H+
   0.2500000000000000    0.4180153699999999    0.8996491050000001 H+
   0.2500000000000000    0.9180153699999998    0.3996491050000000 H+
   0.2500000000000000    0.9180153699999998    0.8996491049999999 H+
   0.7500000000000001    0.4180153699999999    0.3996491050000000 H+
   0.7500000000000001    0.4180153699999999    0.8996491049999999 H+
   0.7500000000000000    0.9180153699999998    0.3996491050000000 H+
   0.7500000000000000    0.9180153699999998    0.8996491049999999 H+
   0.2500000000000000    0.0819846300000000    0.1496491049999999 H+
   0.2500000000000000    0.0819846300000000    0.6496491049999999 H+
   0.2500000000000000    0.5819846299999999    0.1496491049999999 H+
   0.2500000000000000    0.5819846299999999    0.6496491049999999 H+
   0.7500000000000000    0.0819846300000000    0.1496491049999999 H+
   0.7500000000000000    0.0819846300000000    0.6496491049999998 H+
   0.7500000000000001    0.5819846299999999    0.1496491049999999 H+
   0.7500000000000001    0.5819846299999999    0.6496491049999999 H+
   0.0000000000000000    0.2302348650000000    0.4917708399999999 H+
   0.0000000000000000    0.2302348650000000    0.9917708399999999 H+
   0.0000000000000000    0.7302348650000000    0.4917708399999999 H+
   0.0000000000000000    0.7302348650000000    0.9917708399999998 H+
   0.5000000000000000    0.2302348650000000    0.4917708399999999 H+
   0.5000000000000000    0.2302348650000000    0.9917708399999998 H+
   0.5000000000000000    0.7302348650000000    0.4917708399999999 H+
   0.5000000000000000    0.7302348650000000    0.9917708399999998 H+
   0.0000000000000000    0.2697651349999999    0.2417708400000000 H+
   0.0000000000000000    0.2697651349999999    0.7417708400000000 H+
   0.0000000000000000    0.7697651350000000    0.2417708400000000 H+
   0.0000000000000000    0.7697651350000000    0.7417708400000000 H+
   0.5000000000000000    0.2697651349999999    0.2417708400000000 H+
   0.5000000000000000    0.2697651349999999    0.7417708399999999 H+
   0.5000000000000000    0.7697651350000000    0.2417708400000000 H+
   0.5000000000000000    0.7697651350000000    0.7417708400000000 H+
   0.2500000000000001    0.4802348650000000    0.4917708400000000 H+
   0.2500000000000001    0.4802348650000000    0.9917708399999998 H+
   0.2500000000000001    0.9802348649999999    0.4917708400000000 H+
   0.2500000000000001    0.9802348649999999    0.9917708399999999 H+
   0.7500000000000001    0.4802348650000000    0.4917708399999999 H+
   0.7500000000000001    0.4802348650000000    0.9917708399999998 H+
   0.7500000000000001    0.9802348649999999    0.4917708400000000 H+
   0.7500000000000001    0.9802348649999999    0.9917708399999999 H+
   0.2500000000000000    0.0197651350000000    0.2417708400000000 H+
   0.2500000000000000    0.0197651350000000    0.7417708400000000 H+
   0.2500000000000000    0.5197651350000000    0.2417708400000000 H+
   0.2500000000000000    0.5197651350000000    0.7417708399999999 H+
   0.7500000000000000    0.0197651350000000    0.2417708400000000 H+
   0.7500000000000000    0.0197651350000000    0.7417708399999999 H+
   0.7500000000000001    0.5197651350000000    0.2417708400000000 H+
   0.7500000000000001    0.5197651350000000    0.7417708399999999 H+
   0.0000000000000000    0.1662406850000000    0.2823999850000000 O2-
   0.0000000000000000    0.1662406850000000    0.7823999850000000 O2-
   0.0000000000000000    0.6662406850000000    0.2823999850000000 O2-
   0.0000000000000000    0.6662406850000000    0.7823999850000000 O2-
   0.4999999999999999    0.1662406850000000    0.2823999850000000 O2-
   0.4999999999999999    0.1662406850000000    0.7823999850000000 O2-
   0.4999999999999999    0.6662406850000000    0.2823999850000000 O2-
   0.4999999999999999    0.6662406850000000    0.7823999849999999 O2-
   0.0000000000000000    0.3337593149999999    0.0323999850000001 O2-
   0.0000000000000000    0.3337593149999999    0.5323999850000001 O2-
   0.0000000000000000    0.8337593149999999    0.0323999850000001 O2-
   0.0000000000000000    0.8337593149999999    0.5323999850000001 O2-
   0.5000000000000000    0.3337593149999999    0.0323999850000001 O2-
   0.5000000000000000    0.3337593149999999    0.5323999850000001 O2-
   0.5000000000000000    0.8337593149999999    0.0323999850000001 O2-
   0.5000000000000000    0.8337593149999999    0.5323999850000001 O2-
   0.2500000000000000    0.4162406849999999    0.2823999850000000 O2-
   0.2500000000000000    0.4162406849999999    0.7823999850000000 O2-
   0.2500000000000000    0.9162406850000000    0.2823999850000000 O2-
   0.2500000000000000    0.9162406850000000    0.7823999850000001 O2-
   0.7500000000000001    0.4162406849999999    0.2823999850000000 O2-
   0.7500000000000001    0.4162406849999999    0.7823999850000000 O2-
   0.7500000000000000    0.9162406850000000    0.2823999850000000 O2-
   0.7500000000000000    0.9162406850000000    0.7823999850000000 O2-
   0.2500000000000000    0.0837593150000000    0.0323999850000001 O2-
   0.2500000000000000    0.0837593150000000    0.5323999850000001 O2-
   0.2500000000000000    0.5837593150000000    0.0323999850000001 O2-
   0.2500000000000000    0.5837593150000000    0.5323999850000001 O2-
   0.7500000000000000    0.0837593150000000    0.0323999850000001 O2-
   0.7500000000000000    0.0837593150000000    0.5323999850000001 O2-
   0.7500000000000001    0.5837593150000000    0.0323999850000001 O2-
   0.7500000000000001    0.5837593150000000    0.5323999850000000 O2-
   0.0000000000000000    0.1673313550000000    0.4700940050000000 O2-
   0.0000000000000000    0.1673313550000000    0.9700940050000000 O2-
   0.0000000000000000    0.6673313550000000    0.4700940050000000 O2-
   0.0000000000000000    0.6673313550000000    0.9700940050000000 O2-
   0.4999999999999999    0.1673313550000000    0.4700940049999999 O2-
   0.4999999999999999    0.1673313550000000    0.9700940050000000 O2-
   0.4999999999999999    0.6673313550000000    0.4700940050000000 O2-
   0.4999999999999999    0.6673313550000000    0.9700940050000000 O2-
   0.0000000000000000    0.3326686450000000    0.2200940050000000 O2-
   0.0000000000000000    0.3326686450000000    0.7200940050000000 O2-
   0.0000000000000000    0.8326686449999999    0.2200940050000000 O2-
   0.0000000000000000    0.8326686449999999    0.7200940050000000 O2-
   0.5000000000000000    0.3326686450000000    0.2200940050000000 O2-
   0.5000000000000000    0.3326686450000000    0.7200940050000000 O2-
   0.5000000000000000    0.8326686449999999    0.2200940050000000 O2-
   0.5000000000000000    0.8326686449999999    0.7200940049999999 O2-
   0.2500000000000000    0.4173313549999999    0.4700940049999999 O2-
   0.2500000000000000    0.4173313549999999    0.9700940050000000 O2-
   0.2500000000000000    0.9173313549999998    0.4700940050000000 O2-
   0.2500000000000000    0.9173313549999998    0.9700940049999999 O2-
   0.7500000000000001    0.4173313549999999    0.4700940049999999 O2-
   0.7500000000000001    0.4173313549999999    0.9700940050000000 O2-
   0.7500000000000000    0.9173313549999998    0.4700940049999999 O2-
   0.7500000000000000    0.9173313549999998    0.9700940049999999 O2-
   0.2500000000000000    0.0826686450000000    0.2200940050000000 O2-
   0.2500000000000000    0.0826686450000000    0.7200940050000000 O2-
   0.2500000000000000    0.5826686449999999    0.2200940050000000 O2-
   0.2500000000000000    0.5826686449999999    0.7200940050000000 O2-
   0.7500000000000000    0.0826686450000000    0.2200940050000000 O2-
   0.7500000000000000    0.0826686450000000    0.7200940050000000 O2-
   0.7500000000000001    0.5826686449999999    0.2200940050000000 O2-
   0.7500000000000001    0.5826686449999999    0.7200940049999999 O2-
