       N       E                     dE             d eps       ncg     rms          rms(c)
DAV:   1     0.406419898623E+04    0.40642E+04   -0.34371E+05 20748   0.167E+03
DAV:   2    -0.737664156541E+03   -0.48019E+04   -0.46535E+04 24726   0.347E+02
DAV:   3    -0.112835743558E+04   -0.39069E+03   -0.38857E+03 25648   0.101E+02
DAV:   4    -0.113430861863E+04   -0.59512E+01   -0.59386E+01 24792   0.134E+01
DAV:   5    -0.113442882691E+04   -0.12021E+00   -0.12013E+00 25408   0.178E+00    0.603E+01
DAV:   6    -0.104576297860E+04    0.88666E+02   -0.30413E+02 24008   0.276E+01    0.226E+01
DAV:   7    -0.104542639170E+04    0.33659E+00   -0.14708E+01 24072   0.546E+00    0.144E+01
DAV:   8    -0.104542950507E+04   -0.31134E-02   -0.33998E+00 23760   0.366E+00    0.238E+00
DAV:   9    -0.104533977265E+04    0.89732E-01   -0.46018E-01 24872   0.115E+00    0.734E-01
DAV:  10    -0.104537609308E+04   -0.36320E-01   -0.11321E-01 22624   0.576E-01    0.325E-01
DAV:  11    -0.104537293228E+04    0.31608E-02   -0.12222E-02 23312   0.233E-01    0.127E-01
DAV:  12    -0.104537163320E+04    0.12991E-02   -0.17616E-03 23976   0.828E-02    0.481E-02
DAV:  13    -0.104537114025E+04    0.49294E-03   -0.30839E-04 18760   0.420E-02    0.312E-02
DAV:  14    -0.104537097584E+04    0.16442E-03   -0.29205E-04 18616   0.316E-02    0.109E-02
DAV:  15    -0.104537097230E+04    0.35357E-05   -0.22374E-05 17704   0.109E-02
      1 T=   197. E= -.10580497E+04 F= -.10636333E+04 E0= -.10636333E+04  EK= 0.55836E+01 SP= 0.00E+00 SK= 0.00E+00
       N       E                     dE             d eps       ncg     rms          rms(c)
DAV:   1    -0.104508288237E+04    0.28809E+00   -0.35384E+01 21134   0.112E+01    0.129E+00
DAV:   2    -0.104516093624E+04   -0.78054E-01   -0.90022E-01 25704   0.171E+00    0.929E-01
DAV:   3    -0.104515340409E+04    0.75322E-02   -0.23974E-02 25584   0.368E-01    0.573E-01
DAV:   4    -0.104515094343E+04    0.24607E-02   -0.12277E-02 25264   0.251E-01    0.191E-01
DAV:   5    -0.104515096031E+04   -0.16876E-04   -0.28661E-03 25400   0.144E-01    0.748E-02
DAV:   6    -0.104515098906E+04   -0.28750E-04   -0.12311E-03 24496   0.773E-02    0.531E-02
DAV:   7    -0.104515093190E+04    0.57156E-04   -0.12359E-04 15880   0.349E-02
      2 T=   190. E= -.10580384E+04 F= -.10634095E+04 E0= -.10634095E+04  EK= 0.53711E+01 SP= 0.00E+00 SK= 0.00E+00
       N       E                     dE             d eps       ncg     rms          rms(c)
DAV:   1    -0.104452558941E+04    0.62540E+00   -0.31936E+01 20680   0.106E+01    0.122E+00
DAV:   2    -0.104459220233E+04   -0.66613E-01   -0.76566E-01 25688   0.158E+00    0.843E-01
DAV:   3    -0.104458632859E+04    0.58737E-02   -0.20691E-02 25552   0.336E-01    0.513E-01
DAV:   4    -0.104458448093E+04    0.18477E-02   -0.99670E-03 25256   0.230E-01    0.170E-01
DAV:   5    -0.104458449778E+04   -0.16856E-04   -0.23645E-03 25288   0.131E-01    0.713E-02
DAV:   6    -0.104458449851E+04   -0.73172E-06   -0.10626E-03 24496   0.727E-02    0.490E-02
DAV:   7    -0.104458443898E+04    0.59535E-04   -0.11204E-04 16280   0.353E-02
      3 T=   171. E= -.10579996E+04 F= -.10628359E+04 E0= -.10628359E+04  EK= 0.48364E+01 SP= 0.00E+00 SK= 0.00E+00
       N       E                     dE             d eps       ncg     rms          rms(c)
DAV:   1    -0.104391414675E+04    0.67035E+00   -0.27499E+01 20734   0.978E+00    0.111E+00
DAV:   2    -0.104396643500E+04   -0.52288E-01   -0.58834E-01 25640   0.138E+00    0.720E-01
DAV:   3    -0.104396268829E+04    0.37467E-02   -0.14863E-02 25528   0.280E-01    0.432E-01
DAV:   4    -0.104396165834E+04    0.10300E-02   -0.73549E-03 25320   0.201E-01    0.133E-01
DAV:   5    -0.104396174083E+04   -0.82494E-04   -0.17258E-03 25208   0.107E-01    0.633E-02
DAV:   6    -0.104396172821E+04    0.12620E-04   -0.66446E-04 24472   0.569E-02
      4 T=   150. E= -.10579588E+04 F= -.10622027E+04 E0= -.10622027E+04  EK= 0.42439E+01 SP= 0.00E+00 SK= 0.00E+00
       N       E                     dE             d eps       ncg     rms          rms(c)
DAV:   1    -0.104356650335E+04    0.39524E+00   -0.24461E+01 20664   0.916E+00    0.102E+00
DAV:   2    -0.104361014095E+04   -0.43638E-01   -0.47640E-01 25408   0.123E+00    0.617E-01
DAV:   3    -0.104360790641E+04    0.22345E-02   -0.87343E-03 25496   0.208E-01    0.375E-01
DAV:   4    -0.104360744790E+04    0.45850E-03   -0.70355E-03 25248   0.195E-01    0.931E-02
DAV:   5    -0.104360752211E+04   -0.74201E-04   -0.14615E-03 24848   0.876E-02    0.636E-02
DAV:   6    -0.104360749988E+04    0.22225E-04   -0.52859E-04 24216   0.501E-02
      5 T=   136. E= -.10579746E+04 F= -.10618348E+04 E0= -.10618348E+04  EK= 0.38602E+01 SP= 0.00E+00 SK= 0.00E+00
       N       E                     dE             d eps       ncg     rms          rms(c)
DAV:   1    -0.104350811143E+04    0.99411E-01   -0.24298E+01 20644   0.913E+00    0.101E+00
DAV:   2    -0.104355346000E+04   -0.45349E-01   -0.49855E-01 25384   0.126E+00    0.623E-01
DAV:   3    -0.104355086190E+04    0.25981E-02   -0.88019E-03 25504   0.206E-01    0.385E-01
DAV:   4    -0.104355018294E+04    0.67896E-03   -0.75568E-03 25256   0.197E-01    0.950E-02
DAV:   5    -0.104355027386E+04   -0.90913E-04   -0.15613E-03 24864   0.890E-02    0.636E-02
DAV:   6    -0.104355026115E+04    0.12709E-04   -0.55002E-04 24216   0.510E-02
      6 T=   134. E= -.10579582E+04 F= -.10617639E+04 E0= -.10617639E+04  EK= 0.38057E+01 SP= 0.00E+00 SK= 0.00E+00
       N       E                     dE             d eps       ncg     rms          rms(c)
DAV:   1    -0.104360202146E+04   -0.51748E-01   -0.25670E+01 20654   0.943E+00    0.106E+00
DAV:   2    -0.104365515164E+04   -0.53130E-01   -0.59185E-01 25600   0.138E+00    0.700E-01
DAV:   3    -0.104365121673E+04    0.39349E-02   -0.12039E-02 25584   0.252E-01    0.436E-01
DAV:   4    -0.104364995018E+04    0.12665E-02   -0.84952E-03 25296   0.208E-01    0.123E-01
DAV:   5    -0.104365005618E+04   -0.10599E-03   -0.18498E-03 25152   0.103E-01    0.636E-02
DAV:   6    -0.104365006806E+04   -0.11889E-04   -0.63812E-04 24144   0.537E-02
      7 T=   141. E= -.10578588E+04 F= -.10618505E+04 E0= -.10618505E+04  EK= 0.39917E+01 SP= 0.00E+00 SK= 0.00E+00
       N       E                     dE             d eps       ncg     rms          rms(c)
DAV:   1    -0.104366002042E+04   -0.99642E-02   -0.27588E+01 20654   0.982E+00    0.112E+00
DAV:   2    -0.104372308933E+04   -0.63069E-01   -0.71160E-01 25672   0.151E+00    0.788E-01
DAV:   3    -0.104371756750E+04    0.55218E-02   -0.16194E-02 25632   0.299E-01    0.493E-01
DAV:   4    -0.104371554601E+04    0.20215E-02   -0.97670E-03 25240   0.225E-01    0.157E-01
DAV:   5    -0.104371558714E+04   -0.41131E-04   -0.24048E-03 25424   0.125E-01    0.667E-02
DAV:   6    -0.104371561039E+04   -0.23253E-04   -0.82211E-04 24312   0.606E-02
      8 T=   145. E= -.10578049E+04 F= -.10619058E+04 E0= -.10619058E+04  EK= 0.41009E+01 SP= 0.00E+00 SK= 0.00E+00
       N       E                     dE             d eps       ncg     rms          rms(c)
DAV:   1    -0.104352677070E+04    0.18882E+00   -0.27860E+01 20724   0.988E+00    0.113E+00
DAV:   2    -0.104359300712E+04   -0.66236E-01   -0.74862E-01 25736   0.155E+00    0.811E-01
DAV:   3    -0.104358694973E+04    0.60574E-02   -0.17719E-02 25640   0.315E-01    0.504E-01
DAV:   4    -0.104358471694E+04    0.22328E-02   -0.96548E-03 25216   0.223E-01    0.169E-01
DAV:   5    -0.104358469968E+04    0.17267E-04   -0.25069E-03 25384   0.130E-01    0.645E-02
DAV:   6    -0.104358472999E+04   -0.30308E-04   -0.84164E-04 24368   0.608E-02
      9 T=   139. E= -.10578302E+04 F= -.10617694E+04 E0= -.10617694E+04  EK= 0.39392E+01 SP= 0.00E+00 SK= 0.00E+00
       N       E                     dE             d eps       ncg     rms          rms(c)
DAV:   1    -0.104323065436E+04    0.35405E+00   -0.26314E+01 20762   0.960E+00    0.113E+00
DAV:   2    -0.104329280891E+04   -0.62155E-01   -0.71681E-01 25744   0.151E+00    0.798E-01
DAV:   3    -0.104328683433E+04    0.59746E-02   -0.19313E-02 25632   0.333E-01    0.481E-01
DAV:   4    -0.104328495241E+04    0.18819E-02   -0.81782E-03 25192   0.205E-01    0.173E-01
DAV:   5    -0.104328489036E+04    0.62052E-04   -0.22186E-03 25320   0.127E-01    0.570E-02
DAV:   6    -0.104328492295E+04   -0.32587E-04   -0.77338E-04 24488   0.575E-02
     10 T=   130. E= -.10577766E+04 F= -.10614662E+04 E0= -.10614662E+04  EK= 0.36896E+01 SP= 0.00E+00 SK= 0.00E+00
       N       E                     dE             d eps       ncg     rms          rms(c)
DAV:   1    -0.104280226452E+04    0.48263E+00   -0.24398E+01 20754   0.923E+00    0.112E+00
DAV:   2    -0.104285654776E+04   -0.54283E-01   -0.64729E-01 25736   0.144E+00    0.758E-01
DAV:   3    -0.104285111472E+04    0.54330E-02   -0.19037E-02 25608   0.331E-01    0.439E-01
DAV:   4    -0.104284974988E+04    0.13648E-02   -0.64723E-03 25240   0.181E-01    0.165E-01
DAV:   5    -0.104284972144E+04    0.28445E-04   -0.18355E-03 25288   0.113E-01    0.490E-02
DAV:   6    -0.104284974626E+04   -0.24823E-04   -0.59582E-04 24336   0.495E-02
     11 T=   119. E= -.10576701E+04 F= -.10610314E+04 E0= -.10610314E+04  EK= 0.33613E+01 SP= 0.00E+00 SK= 0.00E+00
     12 T=   107. E= -.10575780E+04 F= -.10606053E+04 E0= -.10606053E+04  EK= 0.30274E+01 SP= 0.00E+00 SK= 0.00E+00
     13 T=   101. E= -.10574992E+04 F= -.10603700E+04 E0= -.10603700E+04  EK= 0.28708E+01 SP= 0.00E+00 SK= 0.00E+00
     14 T=   105. E= -.10574349E+04 F= -.10603960E+04 E0= -.10603960E+04  EK= 0.29611E+01 SP= 0.00E+00 SK= 0.00E+00
     15 T=   113. E= -.10573968E+04 F= -.10605949E+04 E0= -.10605949E+04  EK= 0.31981E+01 SP= 0.00E+00 SK= 0.00E+00
     16 T=   120. E= -.10573795E+04 F= -.10607787E+04 E0= -.10607787E+04  EK= 0.33992E+01 SP= 0.00E+00 SK= 0.00E+00
     17 T=   120. E= -.10574043E+04 F= -.10608091E+04 E0= -.10608091E+04  EK= 0.34048E+01 SP= 0.00E+00 SK= 0.00E+00
     18 T=   113. E= -.10574172E+04 F= -.10606193E+04 E0= -.10606193E+04  EK= 0.32020E+01 SP= 0.00E+00 SK= 0.00E+00
     19 T=   103. E= -.10574228E+04 F= -.10603423E+04 E0= -.10603423E+04  EK= 0.29195E+01 SP= 0.00E+00 SK= 0.00E+00
       N       E                     dE             d eps       ncg     rms          rms(c)
DAV:   1    -0.104025703421E+04    0.25927E+01   -0.10243E+03 20644   0.595E+01
DAV:   2    -0.104285236033E+04   -0.25953E+01   -0.25949E+01 25360   0.881E+00
DAV:   3    -0.104287530427E+04   -0.22944E-01   -0.22943E-01 25016   0.839E-01
DAV:   4    -0.104287576812E+04   -0.46385E-03   -0.46383E-03 25168   0.118E-01    0.825E+00
DAV:   5    -0.104200771371E+04    0.86805E+00   -0.26432E+00 24880   0.315E+00    0.369E+00
DAV:   6    -0.104199379506E+04    0.13919E-01   -0.54093E-01 25256   0.153E+00    0.172E+00
DAV:   7    -0.104200164017E+04   -0.78451E-02   -0.10299E-01 25168   0.850E-01    0.493E-01
DAV:   8    -0.104200293900E+04   -0.12988E-02   -0.19009E-02 24848   0.328E-01    0.245E-01
DAV:   9    -0.104200174071E+04    0.11983E-02   -0.90201E-03 24088   0.231E-01    0.125E-01
DAV:  10    -0.104200117606E+04    0.56465E-03   -0.15384E-03 26520   0.123E-01    0.765E-02
DAV:  11    -0.104200077875E+04    0.39731E-03   -0.10702E-03 23488   0.981E-02    0.323E-02
DAV:  12    -0.104200057154E+04    0.20720E-03   -0.19738E-04 17192   0.737E-02    0.253E-02
DAV:  13    -0.104200053760E+04    0.33947E-04   -0.38828E-04 21416   0.564E-02
     20 T=    97. E= -.10573916E+04 F= -.10601348E+04 E0= -.10601348E+04  EK= 0.27432E+01 SP= 0.00E+00 SK= 0.00E+00
     21 T=    99. E= -.10573184E+04 F= -.10601073E+04 E0= -.10601073E+04  EK= 0.27890E+01 SP= 0.00E+00 SK= 0.00E+00
     22 T=   105. E= -.10572585E+04 F= -.10602321E+04 E0= -.10602321E+04  EK= 0.29736E+01 SP= 0.00E+00 SK= 0.00E+00
     23 T=   111. E= -.10572275E+04 F= -.10603693E+04 E0= -.10603693E+04  EK= 0.31417E+01 SP= 0.00E+00 SK= 0.00E+00
     24 T=   114. E= -.10572176E+04 F= -.10604306E+04 E0= -.10604306E+04  EK= 0.32130E+01 SP= 0.00E+00 SK= 0.00E+00
     25 T=   113. E= -.10571915E+04 F= -.10603809E+04 E0= -.10603809E+04  EK= 0.31894E+01 SP= 0.00E+00 SK= 0.00E+00
     26 T=   110. E= -.10571475E+04 F= -.10602576E+04 E0= -.10602576E+04  EK= 0.31100E+01 SP= 0.00E+00 SK= 0.00E+00
     27 T=   108. E= -.10571221E+04 F= -.10601690E+04 E0= -.10601690E+04  EK= 0.30469E+01 SP= 0.00E+00 SK= 0.00E+00
     28 T=   111. E= -.10570911E+04 F= -.10602241E+04 E0= -.10602241E+04  EK= 0.31330E+01 SP= 0.00E+00 SK= 0.00E+00
     29 T=   119. E= -.10570114E+04 F= -.10603808E+04 E0= -.10603808E+04  EK= 0.33695E+01 SP= 0.00E+00 SK= 0.00E+00
       N       E                     dE             d eps       ncg     rms          rms(c)
DAV:   1    -0.104103249032E+04    0.96808E+00   -0.11321E+03 20644   0.627E+01
DAV:   2    -0.104391715433E+04   -0.28847E+01   -0.28841E+01 25424   0.923E+00
DAV:   3    -0.104394229668E+04   -0.25142E-01   -0.25141E-01 25040   0.879E-01
DAV:   4    -0.104394280708E+04   -0.51040E-03   -0.51039E-03 25176   0.124E-01    0.902E+00
DAV:   5    -0.104279710553E+04    0.11457E+01   -0.35412E+00 25056   0.361E+00    0.367E+00
DAV:   6    -0.104277256467E+04    0.24541E-01   -0.66286E-01 25232   0.164E+00    0.175E+00
DAV:   7    -0.104277712231E+04   -0.45576E-02   -0.11276E-01 25616   0.865E-01    0.550E-01
DAV:   8    -0.104277878377E+04   -0.16615E-02   -0.19717E-02 24784   0.341E-01    0.259E-01
DAV:   9    -0.104277779856E+04    0.98521E-03   -0.10997E-02 23976   0.252E-01    0.139E-01
DAV:  10    -0.104277714414E+04    0.65442E-03   -0.18106E-03 27376   0.137E-01    0.689E-02
DAV:  11    -0.104277682961E+04    0.31453E-03   -0.10039E-03 23784   0.859E-02    0.326E-02
DAV:  12    -0.104277663256E+04    0.19705E-03   -0.12242E-04 16856   0.628E-02    0.179E-02
DAV:  13    -0.104277658645E+04    0.46103E-04   -0.25025E-04 19520   0.511E-02
     30 T=   130. E= -.10569027E+04 F= -.10605882E+04 E0= -.10605882E+04  EK= 0.36855E+01 SP= 0.00E+00 SK= 0.00E+00
     31 T=   142. E= -.10568320E+04 F= -.10608571E+04 E0= -.10608571E+04  EK= 0.40251E+01 SP= 0.00E+00 SK= 0.00E+00
       N       E                     dE             d eps       ncg     rms          rms(c)
DAV:   1    -0.104311378448E+04   -0.33715E+00   -0.85931E+01 20690   0.174E+01
DAV:   2    -0.104334298858E+04   -0.22920E+00   -0.22920E+00 25512   0.264E+00
DAV:   3    -0.104334488973E+04   -0.19011E-02   -0.19011E-02 25024   0.239E-01
DAV:   4    -0.104334492903E+04   -0.39307E-04   -0.39307E-04 20472   0.341E-02    0.309E+00
DAV:   5    -0.104318591221E+04    0.15902E+00   -0.50002E-01 24744   0.130E+00    0.114E+00
DAV:   6    -0.104318070329E+04    0.52089E-02   -0.71376E-02 25080   0.536E-01    0.574E-01
DAV:   7    -0.104317977744E+04    0.92585E-03   -0.11792E-02 25544   0.294E-01    0.195E-01
DAV:   8    -0.104317988240E+04   -0.10496E-03   -0.24924E-03 24776   0.125E-01    0.911E-02
DAV:   9    -0.104317975450E+04    0.12790E-03   -0.12999E-03 24280   0.920E-02    0.462E-02
DAV:  10    -0.104317968853E+04    0.65970E-04   -0.19383E-04 18632   0.473E-02
     32 T=   151. E= -.10566706E+04 F= -.10609347E+04 E0= -.10609347E+04  EK= 0.42641E+01 SP= 0.00E+00 SK= 0.00E+00
     33 T=   152. E= -.10566241E+04 F= -.10609140E+04 E0= -.10609140E+04  EK= 0.42900E+01 SP= 0.00E+00 SK= 0.00E+00
     34 T=   147. E= -.10566545E+04 F= -.10608282E+04 E0= -.10608282E+04  EK= 0.41737E+01 SP= 0.00E+00 SK= 0.00E+00
     35 T=   144. E= -.10566373E+04 F= -.10607246E+04 E0= -.10607246E+04  EK= 0.40872E+01 SP= 0.00E+00 SK= 0.00E+00
     36 T=   145. E= -.10565566E+04 F= -.10606741E+04 E0= -.10606741E+04  EK= 0.41175E+01 SP= 0.00E+00 SK= 0.00E+00
     37 T=   148. E= -.10564646E+04 F= -.10606540E+04 E0= -.10606540E+04  EK= 0.41894E+01 SP= 0.00E+00 SK= 0.00E+00
     38 T=   151. E= -.10563318E+04 F= -.10606163E+04 E0= -.10606163E+04  EK= 0.42845E+01 SP= 0.00E+00 SK= 0.00E+00
     39 T=   153. E= -.10562065E+04 F= -.10605432E+04 E0= -.10605432E+04  EK= 0.43367E+01 SP= 0.00E+00 SK= 0.00E+00
     40 T=   150. E= -.10561704E+04 F= -.10604241E+04 E0= -.10604241E+04  EK= 0.42537E+01 SP= 0.00E+00 SK= 0.00E+00
     41 T=   146. E= -.10561566E+04 F= -.10602957E+04 E0= -.10602957E+04  EK= 0.41391E+01 SP= 0.00E+00 SK= 0.00E+00
       N       E                     dE             d eps       ncg     rms          rms(c)
DAV:   1    -0.104157859069E+04    0.16012E+01   -0.13793E+03 20644   0.692E+01
DAV:   2    -0.104482907639E+04   -0.32505E+01   -0.32497E+01 25200   0.978E+00
DAV:   3    -0.104486044536E+04   -0.31369E-01   -0.31367E-01 25064   0.981E-01
DAV:   4    -0.104486110458E+04   -0.65922E-03   -0.65919E-03 25144   0.141E-01    0.119E+01
DAV:   5    -0.104287112162E+04    0.19900E+01   -0.73813E+00 24800   0.476E+00    0.424E+00
DAV:   6    -0.104290166699E+04   -0.30545E-01   -0.73992E-01 24768   0.169E+00    0.221E+00
DAV:   7    -0.104292236319E+04   -0.20696E-01   -0.12906E-01 24752   0.894E-01    0.619E-01
DAV:   8    -0.104292612355E+04   -0.37604E-02   -0.22915E-02 25016   0.379E-01    0.288E-01
DAV:   9    -0.104292508201E+04    0.10415E-02   -0.15851E-02 23840   0.305E-01    0.162E-01
DAV:  10    -0.104292429257E+04    0.78944E-03   -0.23751E-03 27088   0.144E-01    0.844E-02
DAV:  11    -0.104292378228E+04    0.51029E-03   -0.11459E-03 23480   0.931E-02    0.274E-02
DAV:  12    -0.104292357813E+04    0.20415E-03   -0.22457E-04 17488   0.637E-02    0.205E-02
DAV:  13    -0.104292351044E+04    0.67687E-04   -0.22112E-04 18000   0.528E-02
     42 T=   149. E= -.10560176E+04 F= -.10602302E+04 E0= -.10602302E+04  EK= 0.42126E+01 SP= 0.00E+00 SK= 0.00E+00
     43 T=   153. E= -.10558713E+04 F= -.10602107E+04 E0= -.10602107E+04  EK= 0.43394E+01 SP= 0.00E+00 SK= 0.00E+00
       N       E                     dE             d eps       ncg     rms          rms(c)
DAV:   1    -0.104294855146E+04   -0.24973E-01   -0.96010E+01 20644   0.184E+01
DAV:   2    -0.104321043157E+04   -0.26188E+00   -0.26187E+00 25312   0.282E+00
DAV:   3    -0.104321265206E+04   -0.22205E-02   -0.22205E-02 25016   0.257E-01
DAV:   4    -0.104321269835E+04   -0.46284E-04   -0.46284E-04 20704   0.373E-02    0.311E+00
DAV:   5    -0.104305996188E+04    0.15274E+00   -0.46957E-01 25048   0.145E+00    0.118E+00
DAV:   6    -0.104305840788E+04    0.15540E-02   -0.10579E-01 24984   0.634E-01    0.599E-01
DAV:   7    -0.104305739725E+04    0.10106E-02   -0.13748E-02 26920   0.317E-01    0.237E-01
DAV:   8    -0.104305767442E+04   -0.27717E-03   -0.27171E-03 24328   0.127E-01    0.998E-02
DAV:   9    -0.104305752569E+04    0.14873E-03   -0.13431E-03 24448   0.955E-02    0.424E-02
DAV:  10    -0.104305743440E+04    0.91288E-04   -0.19650E-04 17696   0.511E-02
     44 T=   157. E= -.10558120E+04 F= -.10602668E+04 E0= -.10602668E+04  EK= 0.44547E+01 SP= 0.00E+00 SK= 0.00E+00
     45 T=   160. E= -.10557739E+04 F= -.10603108E+04 E0= -.10603108E+04  EK= 0.45369E+01 SP= 0.00E+00 SK= 0.00E+00
     46 T=   163. E= -.10557173E+04 F= -.10603385E+04 E0= -.10603385E+04  EK= 0.46212E+01 SP= 0.00E+00 SK= 0.00E+00
     47 T=   165. E= -.10556472E+04 F= -.10603184E+04 E0= -.10603184E+04  EK= 0.46712E+01 SP= 0.00E+00 SK= 0.00E+00
     48 T=   166. E= -.10555965E+04 F= -.10602860E+04 E0= -.10602860E+04  EK= 0.46895E+01 SP= 0.00E+00 SK= 0.00E+00
     49 T=   169. E= -.10555160E+04 F= -.10603079E+04 E0= -.10603079E+04  EK= 0.47920E+01 SP= 0.00E+00 SK= 0.00E+00
     50 T=   173. E= -.10554503E+04 F= -.10603542E+04 E0= -.10603542E+04  EK= 0.49039E+01 SP= 0.00E+00 SK= 0.00E+00
     51 T=   176. E= -.10554418E+04 F= -.10604242E+04 E0= -.10604242E+04  EK= 0.49824E+01 SP= 0.00E+00 SK= 0.00E+00
     52 T=   177. E= -.10554438E+04 F= -.10604600E+04 E0= -.10604600E+04  EK= 0.50162E+01 SP= 0.00E+00 SK= 0.00E+00
       N       E                     dE             d eps       ncg     rms          rms(c)
DAV:   1    -0.104274082638E+04    0.31670E+00   -0.14593E+03 20644   0.708E+01
DAV:   2    -0.104639023185E+04   -0.36494E+01   -0.36486E+01 25072   0.104E+01
DAV:   3    -0.104642403239E+04   -0.33801E-01   -0.33799E-01 25040   0.102E+00
DAV:   4    -0.104642471689E+04   -0.68451E-03   -0.68448E-03 25152   0.145E-01    0.135E+01
DAV:   5    -0.104356618012E+04    0.28585E+01   -0.10699E+01 24608   0.560E+00    0.438E+00
DAV:   6    -0.104357043304E+04   -0.42529E-02   -0.77112E-01 24496   0.172E+00    0.234E+00
DAV:   7    -0.104358173810E+04   -0.11305E-01   -0.14637E-01 24840   0.975E-01    0.587E-01
DAV:   8    -0.104358512661E+04   -0.33885E-02   -0.28719E-02 24824   0.402E-01    0.313E-01
DAV:   9    -0.104358385289E+04    0.12737E-02   -0.15097E-02 23800   0.288E-01    0.154E-01
DAV:  10    -0.104358308847E+04    0.76442E-03   -0.16814E-03 26288   0.140E-01    0.792E-02
DAV:  11    -0.104358256050E+04    0.52797E-03   -0.10235E-03 22440   0.116E-01    0.283E-02
DAV:  12    -0.104358242310E+04    0.13740E-03   -0.54221E-04 24528   0.775E-02    0.259E-02
DAV:  13    -0.104358237665E+04    0.46444E-04   -0.13673E-04 17728   0.381E-02
     53 T=   177. E= -.10553635E+04 F= -.10603835E+04 E0= -.10603835E+04  EK= 0.50200E+01 SP= 0.00E+00 SK= 0.00E+00
     54 T=   176. E= -.10551955E+04 F= -.10601795E+04 E0= -.10601795E+04  EK= 0.49840E+01 SP= 0.00E+00 SK= 0.00E+00
     55 T=   172. E= -.10550834E+04 F= -.10599463E+04 E0= -.10599463E+04  EK= 0.48629E+01 SP= 0.00E+00 SK= 0.00E+00
     56 T=   168. E= -.10550207E+04 F= -.10597830E+04 E0= -.10597830E+04  EK= 0.47623E+01 SP= 0.00E+00 SK= 0.00E+00
     57 T=   169. E= -.10549441E+04 F= -.10597196E+04 E0= -.10597196E+04  EK= 0.47755E+01 SP= 0.00E+00 SK= 0.00E+00
     58 T=   172. E= -.10548696E+04 F= -.10597415E+04 E0= -.10597415E+04  EK= 0.48719E+01 SP= 0.00E+00 SK= 0.00E+00
     59 T=   176. E= -.10548018E+04 F= -.10597923E+04 E0= -.10597923E+04  EK= 0.49905E+01 SP= 0.00E+00 SK= 0.00E+00
     60 T=   181. E= -.10546936E+04 F= -.10598059E+04 E0= -.10598059E+04  EK= 0.51123E+01 SP= 0.00E+00 SK= 0.00E+00
     61 T=   180. E= -.10546514E+04 F= -.10597373E+04 E0= -.10597373E+04  EK= 0.50859E+01 SP= 0.00E+00 SK= 0.00E+00
     62 T=   176. E= -.10546522E+04 F= -.10596209E+04 E0= -.10596209E+04  EK= 0.49687E+01 SP= 0.00E+00 SK= 0.00E+00
       N       E                     dE             d eps       ncg     rms          rms(c)
DAV:   1    -0.104170004504E+04    0.18824E+01   -0.16427E+03 20644   0.749E+01
DAV:   2    -0.104593632100E+04   -0.42363E+01   -0.42353E+01 25048   0.110E+01
DAV:   3    -0.104597656188E+04   -0.40241E-01   -0.40239E-01 25056   0.111E+00
DAV:   4    -0.104597739060E+04   -0.82872E-03   -0.82868E-03 25256   0.158E-01    0.138E+01
DAV:   5    -0.104319637499E+04    0.27810E+01   -0.10615E+01 24752   0.555E+00    0.461E+00
DAV:   6    -0.104321810344E+04   -0.21728E-01   -0.80225E-01 24344   0.174E+00    0.246E+00
DAV:   7    -0.104323644004E+04   -0.18337E-01   -0.15878E-01 24808   0.105E+00    0.608E-01
DAV:   8    -0.104324076791E+04   -0.43279E-02   -0.34503E-02 25080   0.415E-01    0.334E-01
DAV:   9    -0.104323909304E+04    0.16749E-02   -0.14483E-02 23728   0.261E-01    0.151E-01
DAV:  10    -0.104323812876E+04    0.96428E-03   -0.12269E-03 24856   0.137E-01    0.770E-02
DAV:  11    -0.104323747204E+04    0.65672E-03   -0.13772E-03 24872   0.131E-01    0.324E-02
DAV:  12    -0.104323731916E+04    0.15288E-03   -0.72007E-04 24264   0.809E-02    0.272E-02
DAV:  13    -0.104323728977E+04    0.29392E-04   -0.14695E-04 18520   0.286E-02
     63 T=   173. E= -.10546101E+04 F= -.10595004E+04 E0= -.10595004E+04  EK= 0.48903E+01 SP= 0.00E+00 SK= 0.00E+00
     64 T=   174. E= -.10545994E+04 F= -.10595256E+04 E0= -.10595256E+04  EK= 0.49262E+01 SP= 0.00E+00 SK= 0.00E+00
     65 T=   180. E= -.10545648E+04 F= -.10596464E+04 E0= -.10596464E+04  EK= 0.50816E+01 SP= 0.00E+00 SK= 0.00E+00
     66 T=   184. E= -.10546518E+04 F= -.10598506E+04 E0= -.10598506E+04  EK= 0.51988E+01 SP= 0.00E+00 SK= 0.00E+00
     67 T=   189. E= -.10546762E+04 F= -.10600251E+04 E0= -.10600251E+04  EK= 0.53489E+01 SP= 0.00E+00 SK= 0.00E+00
     68 T=   191. E= -.10546083E+04 F= -.10600232E+04 E0= -.10600232E+04  EK= 0.54149E+01 SP= 0.00E+00 SK= 0.00E+00
     69 T=   183. E= -.10546454E+04 F= -.10598347E+04 E0= -.10598347E+04  EK= 0.51893E+01 SP= 0.00E+00 SK= 0.00E+00
       N       E                     dE             d eps       ncg     rms          rms(c)
DAV:   1    -0.104268470531E+04    0.55261E+00   -0.10143E+03 20644   0.593E+01
DAV:   2    -0.104538853799E+04   -0.27038E+01   -0.27033E+01 25192   0.889E+00
DAV:   3    -0.104541246564E+04   -0.23928E-01   -0.23926E-01 25064   0.851E-01
DAV:   4    -0.104541295383E+04   -0.48820E-03   -0.48818E-03 25000   0.121E-01    0.113E+01
DAV:   5    -0.104343227283E+04    0.19807E+01   -0.71588E+00 24680   0.480E+00    0.386E+00
DAV:   6    -0.104342619599E+04    0.60768E-02   -0.71197E-01 24624   0.168E+00    0.204E+00
DAV:   7    -0.104342641213E+04   -0.21614E-03   -0.12267E-01 25040   0.943E-01    0.593E-01
DAV:   8    -0.104342857191E+04   -0.21598E-02   -0.28368E-02 24488   0.400E-01    0.310E-01
DAV:   9    -0.104342642059E+04    0.21513E-02   -0.14298E-02 23904   0.292E-01    0.146E-01
DAV:  10    -0.104342531299E+04    0.11076E-02   -0.18025E-03 25360   0.148E-01    0.746E-02
DAV:  11    -0.104342466212E+04    0.65087E-03   -0.12064E-03 23440   0.118E-01    0.305E-02
DAV:  12    -0.104342447201E+04    0.19011E-03   -0.47346E-04 23336   0.812E-02    0.225E-02
DAV:  13    -0.104342443467E+04    0.37335E-04   -0.18258E-04 18864   0.416E-02
     70 T=   170. E= -.10545725E+04 F= -.10593958E+04 E0= -.10593958E+04  EK= 0.48233E+01 SP= 0.00E+00 SK= 0.00E+00
     71 T=   163. E= -.10545435E+04 F= -.10591525E+04 E0= -.10591525E+04  EK= 0.46090E+01 SP= 0.00E+00 SK= 0.00E+00
     72 T=   162. E= -.10545244E+04 F= -.10591088E+04 E0= -.10591088E+04  EK= 0.45845E+01 SP= 0.00E+00 SK= 0.00E+00
     73 T=   166. E= -.10545985E+04 F= -.10592913E+04 E0= -.10592913E+04  EK= 0.46928E+01 SP= 0.00E+00 SK= 0.00E+00
     74 T=   172. E= -.10546413E+04 F= -.10595217E+04 E0= -.10595217E+04  EK= 0.48804E+01 SP= 0.00E+00 SK= 0.00E+00
     75 T=   177. E= -.10546269E+04 F= -.10596322E+04 E0= -.10596322E+04  EK= 0.50053E+01 SP= 0.00E+00 SK= 0.00E+00
     76 T=   176. E= -.10545749E+04 F= -.10595674E+04 E0= -.10595674E+04  EK= 0.49925E+01 SP= 0.00E+00 SK= 0.00E+00
     77 T=   174. E= -.10544561E+04 F= -.10593793E+04 E0= -.10593793E+04  EK= 0.49232E+01 SP= 0.00E+00 SK= 0.00E+00
     78 T=   170. E= -.10544046E+04 F= -.10592033E+04 E0= -.10592033E+04  EK= 0.47987E+01 SP= 0.00E+00 SK= 0.00E+00
       N       E                     dE             d eps       ncg     rms          rms(c)
DAV:   1    -0.104167644230E+04    0.17480E+01   -0.14999E+03 20644   0.718E+01
DAV:   2    -0.104568426009E+04   -0.40078E+01   -0.40070E+01 25160   0.107E+01
DAV:   3    -0.104572095615E+04   -0.36696E-01   -0.36694E-01 25048   0.106E+00
DAV:   4    -0.104572172393E+04   -0.76778E-03   -0.76774E-03 25104   0.152E-01    0.123E+01
DAV:   5    -0.104350816224E+04    0.22136E+01   -0.79714E+00 24904   0.510E+00    0.443E+00
DAV:   6    -0.104350646269E+04    0.16995E-02   -0.88294E-01 24776   0.188E+00    0.231E+00
DAV:   7    -0.104351572385E+04   -0.92612E-02   -0.16459E-01 24616   0.105E+00    0.650E-01
DAV:   8    -0.104351899063E+04   -0.32668E-02   -0.31673E-02 25144   0.434E-01    0.333E-01
DAV:   9    -0.104351744868E+04    0.15420E-02   -0.18287E-02 23968   0.319E-01    0.175E-01
DAV:  10    -0.104351640637E+04    0.10423E-02   -0.23457E-03 27168   0.165E-01    0.843E-02
DAV:  11    -0.104351579589E+04    0.61048E-03   -0.12355E-03 23856   0.122E-01    0.327E-02
DAV:  12    -0.104351556144E+04    0.23445E-03   -0.47866E-04 24248   0.897E-02    0.258E-02
DAV:  13    -0.104351549110E+04    0.70340E-04   -0.24818E-04 18872   0.567E-02
     79 T=   170. E= -.10542816E+04 F= -.10590829E+04 E0= -.10590829E+04  EK= 0.48013E+01 SP= 0.00E+00 SK= 0.00E+00
     80 T=   175. E= -.10542876E+04 F= -.10592502E+04 E0= -.10592502E+04  EK= 0.49626E+01 SP= 0.00E+00 SK= 0.00E+00
     81 T=   182. E= -.10542734E+04 F= -.10594354E+04 E0= -.10594354E+04  EK= 0.51620E+01 SP= 0.00E+00 SK= 0.00E+00
     82 T=   190. E= -.10542059E+04 F= -.10595781E+04 E0= -.10595781E+04  EK= 0.53722E+01 SP= 0.00E+00 SK= 0.00E+00
     83 T=   193. E= -.10541416E+04 F= -.10596140E+04 E0= -.10596140E+04  EK= 0.54724E+01 SP= 0.00E+00 SK= 0.00E+00
     84 T=   192. E= -.10540710E+04 F= -.10594950E+04 E0= -.10594950E+04  EK= 0.54240E+01 SP= 0.00E+00 SK= 0.00E+00
     85 T=   185. E= -.10540429E+04 F= -.10592884E+04 E0= -.10592884E+04  EK= 0.52455E+01 SP= 0.00E+00 SK= 0.00E+00
     86 T=   179. E= -.10540289E+04 F= -.10591022E+04 E0= -.10591022E+04  EK= 0.50733E+01 SP= 0.00E+00 SK= 0.00E+00
     87 T=   179. E= -.10539791E+04 F= -.10590439E+04 E0= -.10590439E+04  EK= 0.50648E+01 SP= 0.00E+00 SK= 0.00E+00
     88 T=   182. E= -.10539548E+04 F= -.10591005E+04 E0= -.10591005E+04  EK= 0.51457E+01 SP= 0.00E+00 SK= 0.00E+00
       N       E                     dE             d eps       ncg     rms          rms(c)
DAV:   1    -0.104141655591E+04    0.20990E+01   -0.19056E+03 20644   0.806E+01
DAV:   2    -0.104622233305E+04   -0.48058E+01   -0.48045E+01 25016   0.118E+01
DAV:   3    -0.104626855848E+04   -0.46225E-01   -0.46223E-01 24968   0.119E+00
DAV:   4    -0.104626953141E+04   -0.97293E-03   -0.97288E-03 25040   0.171E-01    0.131E+01
DAV:   5    -0.104387203847E+04    0.23975E+01   -0.89826E+00 24840   0.523E+00    0.492E+00
DAV:   6    -0.104389616667E+04   -0.24128E-01   -0.83233E-01 24544   0.180E+00    0.257E+00
DAV:   7    -0.104392411572E+04   -0.27949E-01   -0.18931E-01 24256   0.114E+00    0.597E-01
DAV:   8    -0.104392878905E+04   -0.46733E-02   -0.40669E-02 25048   0.449E-01    0.361E-01
DAV:   9    -0.104392689092E+04    0.18981E-02   -0.15894E-02 23808   0.284E-01    0.164E-01
DAV:  10    -0.104392575625E+04    0.11347E-02   -0.14066E-03 24472   0.157E-01    0.884E-02
DAV:  11    -0.104392497582E+04    0.78043E-03   -0.18151E-03 25472   0.160E-01    0.366E-02
DAV:  12    -0.104392477926E+04    0.19656E-03   -0.89933E-04 24600   0.992E-02    0.299E-02
DAV:  13    -0.104392473725E+04    0.42008E-04   -0.24749E-04 18928   0.398E-02
     89 T=   185. E= -.10538742E+04 F= -.10591128E+04 E0= -.10591128E+04  EK= 0.52386E+01 SP= 0.00E+00 SK= 0.00E+00
     90 T=   187. E= -.10538611E+04 F= -.10591543E+04 E0= -.10591543E+04  EK= 0.52932E+01 SP= 0.00E+00 SK= 0.00E+00
     91 T=   186. E= -.10537755E+04 F= -.10590528E+04 E0= -.10590528E+04  EK= 0.52774E+01 SP= 0.00E+00 SK= 0.00E+00
     92 T=   184. E= -.10537187E+04 F= -.10589219E+04 E0= -.10589219E+04  EK= 0.52031E+01 SP= 0.00E+00 SK= 0.00E+00
     93 T=   184. E= -.10536537E+04 F= -.10588523E+04 E0= -.10588523E+04  EK= 0.51987E+01 SP= 0.00E+00 SK= 0.00E+00
     94 T=   185. E= -.10535957E+04 F= -.10588461E+04 E0= -.10588461E+04  EK= 0.52504E+01 SP= 0.00E+00 SK= 0.00E+00
     95 T=   186. E= -.10536074E+04 F= -.10588767E+04 E0= -.10588767E+04  EK= 0.52693E+01 SP= 0.00E+00 SK= 0.00E+00
     96 T=   186. E= -.10536776E+04 F= -.10589474E+04 E0= -.10589474E+04  EK= 0.52698E+01 SP= 0.00E+00 SK= 0.00E+00
     97 T=   185. E= -.10537402E+04 F= -.10589870E+04 E0= -.10589870E+04  EK= 0.52468E+01 SP= 0.00E+00 SK= 0.00E+00
       N       E                     dE             d eps       ncg     rms          rms(c)
DAV:   1    -0.104177372170E+04    0.21511E+01   -0.14812E+03 20644   0.715E+01
DAV:   2    -0.104546935067E+04   -0.36956E+01   -0.36949E+01 25056   0.103E+01
DAV:   3    -0.104550448082E+04   -0.35130E-01   -0.35128E-01 25000   0.103E+00
DAV:   4    -0.104550522649E+04   -0.74567E-03   -0.74564E-03 25000   0.149E-01    0.113E+01
DAV:   5    -0.104389549687E+04    0.16097E+01   -0.59542E+00 24800   0.434E+00    0.460E+00
DAV:   6    -0.104392162410E+04   -0.26127E-01   -0.66481E-01 24608   0.163E+00    0.231E+00
DAV:   7    -0.104394921913E+04   -0.27595E-01   -0.15530E-01 24504   0.101E+00    0.532E-01
DAV:   8    -0.104395254481E+04   -0.33257E-02   -0.29856E-02 24976   0.388E-01    0.318E-01
DAV:   9    -0.104395092727E+04    0.16175E-02   -0.13400E-02 23696   0.267E-01    0.155E-01
DAV:  10    -0.104394991238E+04    0.10149E-02   -0.14677E-03 25976   0.147E-01    0.860E-02
DAV:  11    -0.104394925489E+04    0.65749E-03   -0.15865E-03 25568   0.134E-01    0.361E-02
DAV:  12    -0.104394901191E+04    0.24298E-03   -0.51002E-04 24328   0.858E-02    0.245E-02
DAV:  13    -0.104394893525E+04    0.76661E-04   -0.20189E-04 18056   0.525E-02
     98 T=   184. E= -.10536256E+04 F= -.10588451E+04 E0= -.10588451E+04  EK= 0.52195E+01 SP= 0.00E+00 SK= 0.00E+00
     99 T=   183. E= -.10536801E+04 F= -.10588732E+04 E0= -.10588732E+04  EK= 0.51931E+01 SP= 0.00E+00 SK= 0.00E+00
    100 T=   181. E= -.10536640E+04 F= -.10587867E+04 E0= -.10587867E+04  EK= 0.51227E+01 SP= 0.00E+00 SK= 0.00E+00
    101 T=   175. E= -.10536500E+04 F= -.10586050E+04 E0= -.10586050E+04  EK= 0.49550E+01 SP= 0.00E+00 SK= 0.00E+00
    102 T=   169. E= -.10536224E+04 F= -.10584059E+04 E0= -.10584059E+04  EK= 0.47835E+01 SP= 0.00E+00 SK= 0.00E+00
    103 T=   162. E= -.10536395E+04 F= -.10582286E+04 E0= -.10582286E+04  EK= 0.45891E+01 SP= 0.00E+00 SK= 0.00E+00
    104 T=   158. E= -.10536646E+04 F= -.10581388E+04 E0= -.10581388E+04  EK= 0.44742E+01 SP= 0.00E+00 SK= 0.00E+00
    105 T=   161. E= -.10535923E+04 F= -.10581493E+04 E0= -.10581493E+04  EK= 0.45570E+01 SP= 0.00E+00 SK= 0.00E+00
    106 T=   165. E= -.10535839E+04 F= -.10582527E+04 E0= -.10582527E+04  EK= 0.46689E+01 SP= 0.00E+00 SK= 0.00E+00
    107 T=   168. E= -.10536358E+04 F= -.10584029E+04 E0= -.10584029E+04  EK= 0.47671E+01 SP= 0.00E+00 SK= 0.00E+00
       N       E                     dE             d eps       ncg     rms          rms(c)
DAV:   1    -0.104112228431E+04    0.28267E+01   -0.16857E+03 20644   0.757E+01
DAV:   2    -0.104521465199E+04   -0.40924E+01   -0.40913E+01 25048   0.109E+01
DAV:   3    -0.104525434367E+04   -0.39692E-01   -0.39689E-01 25024   0.110E+00
DAV:   4    -0.104525519346E+04   -0.84979E-03   -0.84975E-03 25016   0.159E-01    0.111E+01
DAV:   5    -0.104377213735E+04    0.14831E+01   -0.52731E+00 24888   0.420E+00    0.480E+00
DAV:   6    -0.104380409509E+04   -0.31958E-01   -0.77105E-01 24792   0.171E+00    0.233E+00
DAV:   7    -0.104383694383E+04   -0.32849E-01   -0.15566E-01 24240   0.980E-01    0.576E-01
DAV:   8    -0.104384114536E+04   -0.42015E-02   -0.25611E-02 25080   0.362E-01    0.305E-01
DAV:   9    -0.104384047076E+04    0.67460E-03   -0.14081E-02 23464   0.280E-01    0.159E-01
DAV:  10    -0.104383984633E+04    0.62443E-03   -0.20907E-03 27272   0.143E-01    0.803E-02
DAV:  11    -0.104383958379E+04    0.26254E-03   -0.12829E-03 23448   0.917E-02    0.331E-02
DAV:  12    -0.104383943011E+04    0.15369E-03   -0.13748E-04 17072   0.587E-02    0.177E-02
DAV:  13    -0.104383937993E+04    0.50174E-04   -0.19855E-04 18256   0.505E-02
    108 T=   172. E= -.10535887E+04 F= -.10584599E+04 E0= -.10584599E+04  EK= 0.48712E+01 SP= 0.00E+00 SK= 0.00E+00
    109 T=   170. E= -.10536725E+04 F= -.10584785E+04 E0= -.10584785E+04  EK= 0.48060E+01 SP= 0.00E+00 SK= 0.00E+00
    110 T=   165. E= -.10536669E+04 F= -.10583498E+04 E0= -.10583498E+04  EK= 0.46828E+01 SP= 0.00E+00 SK= 0.00E+00
    111 T=   163. E= -.10536385E+04 F= -.10582606E+04 E0= -.10582606E+04  EK= 0.46221E+01 SP= 0.00E+00 SK= 0.00E+00
    112 T=   165. E= -.10536286E+04 F= -.10582938E+04 E0= -.10582938E+04  EK= 0.46653E+01 SP= 0.00E+00 SK= 0.00E+00
    113 T=   174. E= -.10535708E+04 F= -.10584897E+04 E0= -.10584897E+04  EK= 0.49188E+01 SP= 0.00E+00 SK= 0.00E+00
    114 T=   183. E= -.10535928E+04 F= -.10587787E+04 E0= -.10587787E+04  EK= 0.51859E+01 SP= 0.00E+00 SK= 0.00E+00
    115 T=   189. E= -.10536340E+04 F= -.10589835E+04 E0= -.10589835E+04  EK= 0.53495E+01 SP= 0.00E+00 SK= 0.00E+00
    116 T=   188. E= -.10536657E+04 F= -.10589799E+04 E0= -.10589799E+04  EK= 0.53141E+01 SP= 0.00E+00 SK= 0.00E+00
    117 T=   180. E= -.10536988E+04 F= -.10588065E+04 E0= -.10588065E+04  EK= 0.51077E+01 SP= 0.00E+00 SK= 0.00E+00
       N       E                     dE             d eps       ncg     rms          rms(c)
DAV:   1    -0.104032444677E+04    0.35150E+01   -0.19501E+03 20644   0.816E+01
DAV:   2    -0.104502219506E+04   -0.46977E+01   -0.46967E+01 25008   0.116E+01
DAV:   3    -0.104506796814E+04   -0.45773E-01   -0.45770E-01 24968   0.117E+00
DAV:   4    -0.104506895689E+04   -0.98875E-03   -0.98871E-03 25040   0.170E-01    0.102E+01
DAV:   5    -0.104398649725E+04    0.10825E+01   -0.32121E+00 24888   0.368E+00    0.498E+00
DAV:   6    -0.104400283037E+04   -0.16333E-01   -0.86708E-01 25120   0.190E+00    0.213E+00
DAV:   7    -0.104403391476E+04   -0.31084E-01   -0.17645E-01 24776   0.106E+00    0.536E-01
DAV:   8    -0.104403587881E+04   -0.19641E-02   -0.25974E-02 25000   0.370E-01    0.307E-01
DAV:   9    -0.104403436363E+04    0.15152E-02   -0.12849E-02 23544   0.269E-01    0.157E-01
DAV:  10    -0.104403351496E+04    0.84866E-03   -0.20632E-03 27432   0.152E-01    0.893E-02
DAV:  11    -0.104403306638E+04    0.44858E-03   -0.17356E-03 23712   0.121E-01    0.459E-02
DAV:  12    -0.104403276941E+04    0.29697E-03   -0.23773E-04 18696   0.872E-02    0.244E-02
DAV:  13    -0.104403267052E+04    0.98887E-04   -0.42719E-04 22112   0.765E-02
    118 T=   172. E= -.10535578E+04 F= -.10584365E+04 E0= -.10584365E+04  EK= 0.48787E+01 SP= 0.00E+00 SK= 0.00E+00
    119 T=   168. E= -.10535587E+04 F= -.10583079E+04 E0= -.10583079E+04  EK= 0.47493E+01 SP= 0.00E+00 SK= 0.00E+00
    120 T=   168. E= -.10534841E+04 F= -.10582343E+04 E0= -.10582343E+04  EK= 0.47502E+01 SP= 0.00E+00 SK= 0.00E+00
    121 T=   171. E= -.10534649E+04 F= -.10582963E+04 E0= -.10582963E+04  EK= 0.48314E+01 SP= 0.00E+00 SK= 0.00E+00
       N       E                     dE             d eps       ncg     rms          rms(c)
DAV:   1    -0.104328904151E+04    0.74373E+00   -0.39112E+02 20644   0.369E+01
DAV:   2    -0.104426779488E+04   -0.97875E+00   -0.97868E+00 25240   0.542E+00
DAV:   3    -0.104427639627E+04   -0.86014E-02   -0.86013E-02 24952   0.505E-01
DAV:   4    -0.104427658324E+04   -0.18697E-03   -0.18697E-03 24952   0.740E-02    0.495E+00
DAV:   5    -0.104399502332E+04    0.28156E+00   -0.69413E-01 25904   0.218E+00    0.245E+00
DAV:   6    -0.104399387998E+04    0.11433E-02   -0.31430E-01 24664   0.113E+00    0.102E+00
DAV:   7    -0.104399827278E+04   -0.43928E-02   -0.61950E-02 26248   0.659E-01    0.322E-01
DAV:   8    -0.104399813072E+04    0.14205E-03   -0.92299E-03 23856   0.249E-01    0.173E-01
DAV:   9    -0.104399806049E+04    0.70232E-04   -0.71152E-03 23768   0.185E-01    0.125E-01
DAV:  10    -0.104399758211E+04    0.47838E-03   -0.13802E-03 29000   0.123E-01    0.280E-02
DAV:  11    -0.104399750920E+04    0.72907E-04   -0.43884E-04 23416   0.501E-02
    122 T=   175. E= -.10533767E+04 F= -.10583394E+04 E0= -.10583394E+04  EK= 0.49627E+01 SP= 0.00E+00 SK= 0.00E+00
    123 T=   177. E= -.10534174E+04 F= -.10584176E+04 E0= -.10584176E+04  EK= 0.50003E+01 SP= 0.00E+00 SK= 0.00E+00
    124 T=   171. E= -.10534679E+04 F= -.10583148E+04 E0= -.10583148E+04  EK= 0.48469E+01 SP= 0.00E+00 SK= 0.00E+00
    125 T=   167. E= -.10533995E+04 F= -.10581203E+04 E0= -.10581203E+04  EK= 0.47208E+01 SP= 0.00E+00 SK= 0.00E+00
    126 T=   165. E= -.10533056E+04 F= -.10579657E+04 E0= -.10579657E+04  EK= 0.46601E+01 SP= 0.00E+00 SK= 0.00E+00
    127 T=   166. E= -.10532954E+04 F= -.10579992E+04 E0= -.10579992E+04  EK= 0.47038E+01 SP= 0.00E+00 SK= 0.00E+00
    128 T=   171. E= -.10533261E+04 F= -.10581708E+04 E0= -.10581708E+04  EK= 0.48446E+01 SP= 0.00E+00 SK= 0.00E+00
    129 T=   176. E= -.10533721E+04 F= -.10583506E+04 E0= -.10583506E+04  EK= 0.49784E+01 SP= 0.00E+00 SK= 0.00E+00
    130 T=   183. E= -.10533137E+04 F= -.10584875E+04 E0= -.10584875E+04  EK= 0.51738E+01 SP= 0.00E+00 SK= 0.00E+00
    131 T=   188. E= -.10532243E+04 F= -.10585395E+04 E0= -.10585395E+04  EK= 0.53152E+01 SP= 0.00E+00 SK= 0.00E+00
       N       E                     dE             d eps       ncg     rms          rms(c)
DAV:   1    -0.104057134280E+04    0.34262E+01   -0.17431E+03 20644   0.772E+01
DAV:   2    -0.104476009319E+04   -0.41888E+01   -0.41879E+01 25040   0.110E+01
DAV:   3    -0.104479976665E+04   -0.39673E-01   -0.39672E-01 24864   0.109E+00
DAV:   4    -0.104480062485E+04   -0.85820E-03   -0.85817E-03 24912   0.158E-01    0.919E+00
DAV:   5    -0.104417979440E+04    0.62083E+00   -0.15173E+00 25440   0.308E+00    0.496E+00
DAV:   6    -0.104422709542E+04   -0.47301E-01   -0.92786E-01 24920   0.206E+00    0.161E+00
DAV:   7    -0.104425400931E+04   -0.26914E-01   -0.18079E-01 25848   0.108E+00    0.503E-01
DAV:   8    -0.104425321399E+04    0.79532E-03   -0.22810E-02 23968   0.346E-01    0.278E-01
DAV:   9    -0.104425155873E+04    0.16553E-02   -0.11526E-02 23616   0.240E-01    0.157E-01
DAV:  10    -0.104425031668E+04    0.12420E-02   -0.23007E-03 28936   0.175E-01    0.545E-02
DAV:  11    -0.104424989255E+04    0.42413E-03   -0.14781E-03 23632   0.104E-01    0.557E-02
DAV:  12    -0.104424952429E+04    0.36826E-03   -0.26131E-04 19200   0.717E-02    0.230E-02
DAV:  13    -0.104424936227E+04    0.16202E-03   -0.29928E-04 20264   0.633E-02    0.239E-02
DAV:  14    -0.104424934067E+04    0.21596E-04   -0.17352E-04 18096   0.367E-02
    132 T=   189. E= -.10531528E+04 F= -.10585106E+04 E0= -.10585106E+04  EK= 0.53579E+01 SP= 0.00E+00 SK= 0.00E+00
    133 T=   187. E= -.10531448E+04 F= -.10584355E+04 E0= -.10584355E+04  EK= 0.52908E+01 SP= 0.00E+00 SK= 0.00E+00
    134 T=   186. E= -.10531038E+04 F= -.10583683E+04 E0= -.10583683E+04  EK= 0.52645E+01 SP= 0.00E+00 SK= 0.00E+00
    135 T=   191. E= -.10529759E+04 F= -.10583758E+04 E0= -.10583758E+04  EK= 0.53999E+01 SP= 0.00E+00 SK= 0.00E+00
    136 T=   196. E= -.10529086E+04 F= -.10584616E+04 E0= -.10584616E+04  EK= 0.55530E+01 SP= 0.00E+00 SK= 0.00E+00
    137 T=   198. E= -.10529304E+04 F= -.10585412E+04 E0= -.10585412E+04  EK= 0.56107E+01 SP= 0.00E+00 SK= 0.00E+00
    138 T=   197. E= -.10529597E+04 F= -.10585412E+04 E0= -.10585412E+04  EK= 0.55815E+01 SP= 0.00E+00 SK= 0.00E+00
    139 T=   196. E= -.10529141E+04 F= -.10584526E+04 E0= -.10584526E+04  EK= 0.55385E+01 SP= 0.00E+00 SK= 0.00E+00
    140 T=   193. E= -.10528932E+04 F= -.10583617E+04 E0= -.10583617E+04  EK= 0.54685E+01 SP= 0.00E+00 SK= 0.00E+00
    141 T=   191. E= -.10529029E+04 F= -.10583038E+04 E0= -.10583038E+04  EK= 0.54009E+01 SP= 0.00E+00 SK= 0.00E+00
       N       E                     dE             d eps       ncg     rms          rms(c)
DAV:   1    -0.103868651199E+04    0.55629E+01   -0.23465E+03 20644   0.890E+01
DAV:   2    -0.104468368732E+04   -0.59972E+01   -0.59957E+01 25072   0.130E+01
DAV:   3    -0.104473911641E+04   -0.55429E-01   -0.55426E-01 24912   0.129E+00
DAV:   4    -0.104474029066E+04   -0.11743E-02   -0.11742E-02 24944   0.184E-01    0.101E+01
DAV:   5    -0.104390964068E+04    0.83065E+00   -0.18184E+00 25536   0.335E+00    0.545E+00
DAV:   6    -0.104393500626E+04   -0.25366E-01   -0.11904E+00 24944   0.231E+00    0.170E+00
DAV:   7    -0.104397144122E+04   -0.36435E-01   -0.22458E-01 25208   0.113E+00    0.562E-01
DAV:   8    -0.104397110147E+04    0.33975E-03   -0.23397E-02 23664   0.359E-01    0.290E-01
DAV:   9    -0.104397043179E+04    0.66967E-03   -0.10512E-02 23720   0.228E-01    0.144E-01
DAV:  10    -0.104396965662E+04    0.77518E-03   -0.20437E-03 29192   0.154E-01    0.458E-02
DAV:  11    -0.104396948127E+04    0.17535E-03   -0.91395E-04 23472   0.706E-02    0.414E-02
DAV:  12    -0.104396925484E+04    0.22643E-03   -0.12885E-04 16408   0.576E-02    0.144E-02
DAV:  13    -0.104396919521E+04    0.59627E-04   -0.24050E-04 18784   0.470E-02
    142 T=   194. E= -.10527739E+04 F= -.10582535E+04 E0= -.10582535E+04  EK= 0.54796E+01 SP= 0.00E+00 SK= 0.00E+00
    143 T=   197. E= -.10528080E+04 F= -.10583929E+04 E0= -.10583929E+04  EK= 0.55849E+01 SP= 0.00E+00 SK= 0.00E+00
    144 T=   197. E= -.10528078E+04 F= -.10583950E+04 E0= -.10583950E+04  EK= 0.55872E+01 SP= 0.00E+00 SK= 0.00E+00
    145 T=   194. E= -.10528467E+04 F= -.10583370E+04 E0= -.10583370E+04  EK= 0.54903E+01 SP= 0.00E+00 SK= 0.00E+00
    146 T=   194. E= -.10528159E+04 F= -.10582985E+04 E0= -.10582985E+04  EK= 0.54826E+01 SP= 0.00E+00 SK= 0.00E+00
    147 T=   198. E= -.10527250E+04 F= -.10583304E+04 E0= -.10583304E+04  EK= 0.56053E+01 SP= 0.00E+00 SK= 0.00E+00
    148 T=   203. E= -.10526191E+04 F= -.10583740E+04 E0= -.10583740E+04  EK= 0.57549E+01 SP= 0.00E+00 SK= 0.00E+00
    149 T=   205. E= -.10525984E+04 F= -.10583911E+04 E0= -.10583911E+04  EK= 0.57927E+01 SP= 0.00E+00 SK= 0.00E+00
    150 T=   202. E= -.10526303E+04 F= -.10583470E+04 E0= -.10583470E+04  EK= 0.57167E+01 SP= 0.00E+00 SK= 0.00E+00
    151 T=   198. E= -.10526272E+04 F= -.10582439E+04 E0= -.10582439E+04  EK= 0.56167E+01 SP= 0.00E+00 SK= 0.00E+00
       N       E                     dE             d eps       ncg     rms          rms(c)
DAV:   1    -0.103802489568E+04    0.59444E+01   -0.25655E+03 20644   0.930E+01
DAV:   2    -0.104464943654E+04   -0.66245E+01   -0.66230E+01 24936   0.136E+01
DAV:   3    -0.104471019214E+04   -0.60756E-01   -0.60752E-01 24952   0.135E+00
DAV:   4    -0.104471145858E+04   -0.12664E-02   -0.12664E-02 24920   0.191E-01    0.107E+01
DAV:   5    -0.104365734676E+04    0.10541E+01   -0.24234E+00 25384   0.363E+00    0.564E+00
DAV:   6    -0.104363956696E+04    0.17780E-01   -0.12319E+00 25088   0.231E+00    0.194E+00
DAV:   7    -0.104367606300E+04   -0.36496E-01   -0.23620E-01 25320   0.114E+00    0.607E-01
DAV:   8    -0.104367651520E+04   -0.45220E-03   -0.24872E-02 23680   0.344E-01    0.311E-01
DAV:   9    -0.104367530245E+04    0.12127E-02   -0.92244E-03 23928   0.231E-01    0.132E-01
DAV:  10    -0.104367443795E+04    0.86450E-03   -0.19768E-03 27544   0.158E-01    0.515E-02
DAV:  11    -0.104367421183E+04    0.22612E-03   -0.11787E-03 23928   0.829E-02    0.507E-02
DAV:  12    -0.104367392247E+04    0.28936E-03   -0.21292E-04 18440   0.635E-02    0.174E-02
DAV:  13    -0.104367381162E+04    0.11085E-03   -0.23171E-04 18424   0.610E-02    0.272E-02
DAV:  14    -0.104367379310E+04    0.18518E-04   -0.20737E-04 18584   0.406E-02
    152 T=   195. E= -.10525401E+04 F= -.10580498E+04 E0= -.10580498E+04  EK= 0.55097E+01 SP= 0.00E+00 SK= 0.00E+00
    153 T=   193. E= -.10526442E+04 F= -.10581003E+04 E0= -.10581003E+04  EK= 0.54561E+01 SP= 0.00E+00 SK= 0.00E+00
    154 T=   193. E= -.10526345E+04 F= -.10580977E+04 E0= -.10580977E+04  EK= 0.54631E+01 SP= 0.00E+00 SK= 0.00E+00
    155 T=   194. E= -.10526843E+04 F= -.10581698E+04 E0= -.10581698E+04  EK= 0.54855E+01 SP= 0.00E+00 SK= 0.00E+00
    156 T=   196. E= -.10526931E+04 F= -.10582412E+04 E0= -.10582412E+04  EK= 0.55481E+01 SP= 0.00E+00 SK= 0.00E+00
    157 T=   198. E= -.10526099E+04 F= -.10582238E+04 E0= -.10582238E+04  EK= 0.56139E+01 SP= 0.00E+00 SK= 0.00E+00
    158 T=   194. E= -.10526236E+04 F= -.10581179E+04 E0= -.10581179E+04  EK= 0.54943E+01 SP= 0.00E+00 SK= 0.00E+00
    159 T=   188. E= -.10526361E+04 F= -.10579679E+04 E0= -.10579679E+04  EK= 0.53317E+01 SP= 0.00E+00 SK= 0.00E+00
    160 T=   186. E= -.10526426E+04 F= -.10579003E+04 E0= -.10579003E+04  EK= 0.52576E+01 SP= 0.00E+00 SK= 0.00E+00
    161 T=   190. E= -.10526622E+04 F= -.10580465E+04 E0= -.10580465E+04  EK= 0.53843E+01 SP= 0.00E+00 SK= 0.00E+00
       N       E                     dE             d eps       ncg     rms          rms(c)
DAV:   1    -0.103873252041E+04    0.49413E+01   -0.23211E+03 20644   0.889E+01
DAV:   2    -0.104467605216E+04   -0.59435E+01   -0.59421E+01 25048   0.129E+01
DAV:   3    -0.104473121585E+04   -0.55164E-01   -0.55160E-01 24976   0.129E+00
DAV:   4    -0.104473240435E+04   -0.11885E-02   -0.11884E-02 24944   0.184E-01    0.109E+01
DAV:   5    -0.104361553066E+04    0.11169E+01   -0.28325E+00 25136   0.367E+00    0.559E+00
DAV:   6    -0.104359486341E+04    0.20667E-01   -0.11322E+00 25040   0.218E+00    0.207E+00
DAV:   7    -0.104363297917E+04   -0.38116E-01   -0.22672E-01 25960   0.113E+00    0.620E-01
DAV:   8    -0.104363488013E+04   -0.19010E-02   -0.25190E-02 23808   0.345E-01    0.338E-01
DAV:   9    -0.104363398331E+04    0.89683E-03   -0.12990E-02 23576   0.259E-01    0.156E-01
DAV:  10    -0.104363306896E+04    0.91435E-03   -0.23605E-03 28464   0.162E-01    0.570E-02
DAV:  11    -0.104363281161E+04    0.25734E-03   -0.12931E-03 23256   0.855E-02    0.475E-02
DAV:  12    -0.104363252558E+04    0.28603E-03   -0.16158E-04 17104   0.614E-02    0.162E-02
DAV:  13    -0.104363240516E+04    0.12043E-03   -0.27188E-04 19144   0.598E-02    0.227E-02
DAV:  14    -0.104363238966E+04    0.15499E-04   -0.15788E-04 17608   0.365E-02
    162 T=   199. E= -.10525250E+04 F= -.10581564E+04 E0= -.10581564E+04  EK= 0.56314E+01 SP= 0.00E+00 SK= 0.00E+00
    163 T=   205. E= -.10526105E+04 F= -.10584268E+04 E0= -.10584268E+04  EK= 0.58163E+01 SP= 0.00E+00 SK= 0.00E+00
    164 T=   205. E= -.10525832E+04 F= -.10583961E+04 E0= -.10583961E+04  EK= 0.58129E+01 SP= 0.00E+00 SK= 0.00E+00
    165 T=   202. E= -.10525199E+04 F= -.10582346E+04 E0= -.10582346E+04  EK= 0.57147E+01 SP= 0.00E+00 SK= 0.00E+00
    166 T=   197. E= -.10524648E+04 F= -.10580554E+04 E0= -.10580554E+04  EK= 0.55905E+01 SP= 0.00E+00 SK= 0.00E+00
    167 T=   192. E= -.10525141E+04 F= -.10579443E+04 E0= -.10579443E+04  EK= 0.54302E+01 SP= 0.00E+00 SK= 0.00E+00
    168 T=   191. E= -.10525795E+04 F= -.10579837E+04 E0= -.10579837E+04  EK= 0.54042E+01 SP= 0.00E+00 SK= 0.00E+00
    169 T=   192. E= -.10526483E+04 F= -.10580952E+04 E0= -.10580952E+04  EK= 0.54470E+01 SP= 0.00E+00 SK= 0.00E+00
    170 T=   195. E= -.10526630E+04 F= -.10581917E+04 E0= -.10581917E+04  EK= 0.55287E+01 SP= 0.00E+00 SK= 0.00E+00
    171 T=   197. E= -.10526595E+04 F= -.10582394E+04 E0= -.10582394E+04  EK= 0.55799E+01 SP= 0.00E+00 SK= 0.00E+00
       N       E                     dE             d eps       ncg     rms          rms(c)
DAV:   1    -0.103879582081E+04    0.48366E+01   -0.23193E+03 20644   0.889E+01
DAV:   2    -0.104440652716E+04   -0.56107E+01   -0.56094E+01 25096   0.127E+01
DAV:   3    -0.104445771144E+04   -0.51184E-01   -0.51181E-01 25032   0.124E+00
DAV:   4    -0.104445881015E+04   -0.10987E-02   -0.10987E-02 24984   0.177E-01    0.108E+01
DAV:   5    -0.104329738925E+04    0.11614E+01   -0.30238E+00 24984   0.372E+00    0.546E+00
DAV:   6    -0.104327979002E+04    0.17599E-01   -0.11139E+00 25008   0.214E+00    0.212E+00
DAV:   7    -0.104331734449E+04   -0.37554E-01   -0.22476E-01 25528   0.113E+00    0.616E-01
DAV:   8    -0.104331906369E+04   -0.17192E-02   -0.25749E-02 24424   0.355E-01    0.332E-01
DAV:   9    -0.104331790203E+04    0.11617E-02   -0.12768E-02 23680   0.265E-01    0.152E-01
DAV:  10    -0.104331709469E+04    0.80733E-03   -0.23591E-03 27600   0.156E-01    0.687E-02
DAV:  11    -0.104331682124E+04    0.27345E-03   -0.14362E-03 23456   0.933E-02    0.483E-02
DAV:  12    -0.104331655812E+04    0.26312E-03   -0.14545E-04 17000   0.662E-02    0.195E-02
DAV:  13    -0.104331644597E+04    0.11215E-03   -0.31423E-04 20040   0.665E-02    0.216E-02
DAV:  14    -0.104331643509E+04    0.10879E-04   -0.16282E-04 17632   0.356E-02
    172 T=   195. E= -.10525408E+04 F= -.10580745E+04 E0= -.10580745E+04  EK= 0.55337E+01 SP= 0.00E+00 SK= 0.00E+00
    173 T=   191. E= -.10525472E+04 F= -.10579678E+04 E0= -.10579678E+04  EK= 0.54206E+01 SP= 0.00E+00 SK= 0.00E+00
    174 T=   187. E= -.10524921E+04 F= -.10577805E+04 E0= -.10577805E+04  EK= 0.52884E+01 SP= 0.00E+00 SK= 0.00E+00
    175 T=   184. E= -.10524386E+04 F= -.10576550E+04 E0= -.10576550E+04  EK= 0.52163E+01 SP= 0.00E+00 SK= 0.00E+00
    176 T=   183. E= -.10524309E+04 F= -.10576176E+04 E0= -.10576176E+04  EK= 0.51867E+01 SP= 0.00E+00 SK= 0.00E+00
    177 T=   183. E= -.10524791E+04 F= -.10576684E+04 E0= -.10576684E+04  EK= 0.51893E+01 SP= 0.00E+00 SK= 0.00E+00
    178 T=   184. E= -.10525090E+04 F= -.10577212E+04 E0= -.10577212E+04  EK= 0.52122E+01 SP= 0.00E+00 SK= 0.00E+00
    179 T=   186. E= -.10524817E+04 F= -.10577408E+04 E0= -.10577408E+04  EK= 0.52591E+01 SP= 0.00E+00 SK= 0.00E+00
    180 T=   185. E= -.10524556E+04 F= -.10576912E+04 E0= -.10576912E+04  EK= 0.52356E+01 SP= 0.00E+00 SK= 0.00E+00
    181 T=   181. E= -.10524219E+04 F= -.10575429E+04 E0= -.10575429E+04  EK= 0.51210E+01 SP= 0.00E+00 SK= 0.00E+00
       N       E                     dE             d eps       ncg     rms          rms(c)
DAV:   1    -0.103859746662E+04    0.47190E+01   -0.20980E+03 20644   0.846E+01
DAV:   2    -0.104369040524E+04   -0.50929E+01   -0.50918E+01 25064   0.121E+01
DAV:   3    -0.104373576779E+04   -0.45363E-01   -0.45360E-01 25064   0.116E+00
DAV:   4    -0.104373674358E+04   -0.97579E-03   -0.97575E-03 24952   0.165E-01    0.110E+01
DAV:   5    -0.104234157211E+04    0.13952E+01   -0.40365E+00 25480   0.414E+00    0.515E+00
DAV:   6    -0.104231816956E+04    0.23403E-01   -0.10633E+00 24776   0.208E+00    0.224E+00
DAV:   7    -0.104235311466E+04   -0.34945E-01   -0.21511E-01 24744   0.108E+00    0.615E-01
DAV:   8    -0.104235692162E+04   -0.38070E-02   -0.24474E-02 24936   0.358E-01    0.325E-01
DAV:   9    -0.104235659943E+04    0.32218E-03   -0.13534E-02 23600   0.276E-01    0.162E-01
DAV:  10    -0.104235592842E+04    0.67101E-03   -0.23704E-03 28088   0.150E-01    0.699E-02
DAV:  11    -0.104235575438E+04    0.17404E-03   -0.12113E-03 23656   0.792E-02    0.393E-02
DAV:  12    -0.104235557681E+04    0.17757E-03   -0.95556E-05 16952   0.536E-02    0.162E-02
DAV:  13    -0.104235549621E+04    0.80600E-04   -0.22932E-04 19040   0.560E-02
    182 T=   174. E= -.10524372E+04 F= -.10573598E+04 E0= -.10573598E+04  EK= 0.49226E+01 SP= 0.00E+00 SK= 0.00E+00
    183 T=   168. E= -.10524181E+04 F= -.10571808E+04 E0= -.10571808E+04  EK= 0.47626E+01 SP= 0.00E+00 SK= 0.00E+00
    184 T=   169. E= -.10523838E+04 F= -.10571810E+04 E0= -.10571810E+04  EK= 0.47972E+01 SP= 0.00E+00 SK= 0.00E+00
    185 T=   175. E= -.10524132E+04 F= -.10573565E+04 E0= -.10573565E+04  EK= 0.49433E+01 SP= 0.00E+00 SK= 0.00E+00
    186 T=   182. E= -.10524506E+04 F= -.10576016E+04 E0= -.10576016E+04  EK= 0.51510E+01 SP= 0.00E+00 SK= 0.00E+00
    187 T=   188. E= -.10524618E+04 F= -.10577976E+04 E0= -.10577976E+04  EK= 0.53358E+01 SP= 0.00E+00 SK= 0.00E+00
    188 T=   193. E= -.10524327E+04 F= -.10578887E+04 E0= -.10578887E+04  EK= 0.54560E+01 SP= 0.00E+00 SK= 0.00E+00
    189 T=   194. E= -.10523592E+04 F= -.10578548E+04 E0= -.10578548E+04  EK= 0.54956E+01 SP= 0.00E+00 SK= 0.00E+00
    190 T=   194. E= -.10522791E+04 F= -.10577788E+04 E0= -.10577788E+04  EK= 0.54997E+01 SP= 0.00E+00 SK= 0.00E+00
    191 T=   198. E= -.10521747E+04 F= -.10577840E+04 E0= -.10577840E+04  EK= 0.56093E+01 SP= 0.00E+00 SK= 0.00E+00
       N       E                     dE             d eps       ncg     rms          rms(c)
DAV:   1    -0.103911397556E+04    0.32416E+01   -0.19770E+03 20644   0.824E+01
DAV:   2    -0.104396788669E+04   -0.48539E+01   -0.48527E+01 25112   0.119E+01
DAV:   3    -0.104401254108E+04   -0.44654E-01   -0.44652E-01 25000   0.116E+00
DAV:   4    -0.104401351259E+04   -0.97150E-03   -0.97146E-03 25016   0.165E-01    0.113E+01
DAV:   5    -0.104259568664E+04    0.14178E+01   -0.42158E+00 25064   0.408E+00    0.526E+00
DAV:   6    -0.104256637805E+04    0.29309E-01   -0.10172E+00 24856   0.207E+00    0.229E+00
DAV:   7    -0.104260094387E+04   -0.34566E-01   -0.23421E-01 25088   0.118E+00    0.636E-01
DAV:   8    -0.104260353251E+04   -0.25886E-02   -0.31433E-02 24888   0.403E-01    0.357E-01
DAV:   9    -0.104260238903E+04    0.11435E-02   -0.14453E-02 23808   0.278E-01    0.163E-01
DAV:  10    -0.104260155267E+04    0.83637E-03   -0.23530E-03 28152   0.161E-01    0.840E-02
DAV:  11    -0.104260117429E+04    0.37838E-03   -0.16643E-03 24040   0.114E-01    0.500E-02
DAV:  12    -0.104260088644E+04    0.28785E-03   -0.20555E-04 18608   0.784E-02    0.264E-02
DAV:  13    -0.104260074271E+04    0.14373E-03   -0.41502E-04 21792   0.837E-02    0.228E-02
DAV:  14    -0.104260073629E+04    0.64177E-05   -0.27005E-04 20232   0.414E-02
    192 T=   207. E= -.10519633E+04 F= -.10578228E+04 E0= -.10578228E+04  EK= 0.58595E+01 SP= 0.00E+00 SK= 0.00E+00
    193 T=   215. E= -.10520046E+04 F= -.10580815E+04 E0= -.10580815E+04  EK= 0.60769E+01 SP= 0.00E+00 SK= 0.00E+00
    194 T=   218. E= -.10521020E+04 F= -.10582829E+04 E0= -.10582829E+04  EK= 0.61809E+01 SP= 0.00E+00 SK= 0.00E+00
    195 T=   222. E= -.10521519E+04 F= -.10584422E+04 E0= -.10584422E+04  EK= 0.62904E+01 SP= 0.00E+00 SK= 0.00E+00
    196 T=   221. E= -.10522107E+04 F= -.10584541E+04 E0= -.10584541E+04  EK= 0.62434E+01 SP= 0.00E+00 SK= 0.00E+00
    197 T=   214. E= -.10522775E+04 F= -.10583426E+04 E0= -.10583426E+04  EK= 0.60651E+01 SP= 0.00E+00 SK= 0.00E+00
    198 T=   209. E= -.10522636E+04 F= -.10581690E+04 E0= -.10581690E+04  EK= 0.59055E+01 SP= 0.00E+00 SK= 0.00E+00
    199 T=   205. E= -.10521938E+04 F= -.10579848E+04 E0= -.10579848E+04  EK= 0.57910E+01 SP= 0.00E+00 SK= 0.00E+00
    200 T=   206. E= -.10521133E+04 F= -.10579369E+04 E0= -.10579369E+04  EK= 0.58236E+01 SP= 0.00E+00 SK= 0.00E+00
    201 T=   210. E= -.10520900E+04 F= -.10580223E+04 E0= -.10580223E+04  EK= 0.59323E+01 SP= 0.00E+00 SK= 0.00E+00
       N       E                     dE             d eps       ncg     rms          rms(c)
DAV:   1    -0.103894531723E+04    0.36554E+01   -0.22741E+03 20644   0.888E+01
DAV:   2    -0.104432024839E+04   -0.53749E+01   -0.53734E+01 25120   0.125E+01
DAV:   3    -0.104437024779E+04   -0.49999E-01   -0.49996E-01 24984   0.123E+00
DAV:   4    -0.104437134038E+04   -0.10926E-02   -0.10925E-02 25016   0.176E-01    0.124E+01
DAV:   5    -0.104263550892E+04    0.17358E+01   -0.51224E+00 25056   0.443E+00    0.580E+00
DAV:   6    -0.104260801341E+04    0.27496E-01   -0.12003E+00 24840   0.216E+00    0.250E+00
DAV:   7    -0.104265057839E+04   -0.42565E-01   -0.24953E-01 25536   0.121E+00    0.659E-01
DAV:   8    -0.104265458016E+04   -0.40018E-02   -0.34630E-02 24336   0.403E-01    0.370E-01
DAV:   9    -0.104265360346E+04    0.97671E-03   -0.16930E-02 23216   0.281E-01    0.178E-01
DAV:  10    -0.104265258467E+04    0.10188E-02   -0.23437E-03 28328   0.163E-01    0.736E-02
DAV:  11    -0.104265226997E+04    0.31470E-03   -0.16795E-03 23264   0.996E-02    0.475E-02
DAV:  12    -0.104265201079E+04    0.25918E-03   -0.21575E-04 17976   0.584E-02    0.163E-02
DAV:  13    -0.104265192414E+04    0.86645E-04   -0.23848E-04 18248   0.508E-02
    202 T=   215. E= -.10520600E+04 F= -.10581481E+04 E0= -.10581481E+04  EK= 0.60881E+01 SP= 0.00E+00 SK= 0.00E+00
    203 T=   219. E= -.10521077E+04 F= -.10583121E+04 E0= -.10583121E+04  EK= 0.62044E+01 SP= 0.00E+00 SK= 0.00E+00
    204 T=   219. E= -.10520647E+04 F= -.10582680E+04 E0= -.10582680E+04  EK= 0.62033E+01 SP= 0.00E+00 SK= 0.00E+00
    205 T=   213. E= -.10520777E+04 F= -.10581041E+04 E0= -.10581041E+04  EK= 0.60265E+01 SP= 0.00E+00 SK= 0.00E+00
    206 T=   204. E= -.10521016E+04 F= -.10578736E+04 E0= -.10578736E+04  EK= 0.57719E+01 SP= 0.00E+00 SK= 0.00E+00
    207 T=   198. E= -.10521287E+04 F= -.10577208E+04 E0= -.10577208E+04  EK= 0.55920E+01 SP= 0.00E+00 SK= 0.00E+00
    208 T=   197. E= -.10521208E+04 F= -.10577057E+04 E0= -.10577057E+04  EK= 0.55849E+01 SP= 0.00E+00 SK= 0.00E+00
    209 T=   202. E= -.10520474E+04 F= -.10577701E+04 E0= -.10577701E+04  EK= 0.57227E+01 SP= 0.00E+00 SK= 0.00E+00
    210 T=   205. E= -.10520502E+04 F= -.10578466E+04 E0= -.10578466E+04  EK= 0.57964E+01 SP= 0.00E+00 SK= 0.00E+00
    211 T=   205. E= -.10520646E+04 F= -.10578641E+04 E0= -.10578641E+04  EK= 0.57995E+01 SP= 0.00E+00 SK= 0.00E+00
       N       E                     dE             d eps       ncg     rms          rms(c)
DAV:   1    -0.103838856336E+04    0.42634E+01   -0.21344E+03 20644   0.860E+01
DAV:   2    -0.104327385697E+04   -0.48853E+01   -0.48842E+01 25112   0.120E+01
DAV:   3    -0.104331956685E+04   -0.45710E-01   -0.45707E-01 24992   0.117E+00
DAV:   4    -0.104332056856E+04   -0.10017E-02   -0.10017E-02 24936   0.168E-01    0.116E+01
DAV:   5    -0.104194488842E+04    0.13757E+01   -0.38901E+00 24904   0.390E+00    0.559E+00
DAV:   6    -0.104191988034E+04    0.25008E-01   -0.10896E+00 25000   0.208E+00    0.224E+00
DAV:   7    -0.104195898801E+04   -0.39108E-01   -0.21773E-01 25264   0.112E+00    0.617E-01
DAV:   8    -0.104196208197E+04   -0.30940E-02   -0.28103E-02 24616   0.359E-01    0.335E-01
DAV:   9    -0.104196130039E+04    0.78158E-03   -0.12499E-02 23368   0.242E-01    0.145E-01
DAV:  10    -0.104196063450E+04    0.66589E-03   -0.18712E-03 28088   0.144E-01    0.672E-02
DAV:  11    -0.104196042748E+04    0.20702E-03   -0.13801E-03 23416   0.916E-02    0.473E-02
DAV:  12    -0.104196021195E+04    0.21553E-03   -0.17150E-04 17016   0.578E-02    0.154E-02
DAV:  13    -0.104196013505E+04    0.76898E-04   -0.23013E-04 18560   0.533E-02
    212 T=   205. E= -.10519753E+04 F= -.10577672E+04 E0= -.10577672E+04  EK= 0.57919E+01 SP= 0.00E+00 SK= 0.00E+00
    213 T=   203. E= -.10519323E+04 F= -.10576878E+04 E0= -.10576878E+04  EK= 0.57555E+01 SP= 0.00E+00 SK= 0.00E+00
    214 T=   201. E= -.10518822E+04 F= -.10575850E+04 E0= -.10575850E+04  EK= 0.57028E+01 SP= 0.00E+00 SK= 0.00E+00
    215 T=   199. E= -.10519171E+04 F= -.10575616E+04 E0= -.10575616E+04  EK= 0.56444E+01 SP= 0.00E+00 SK= 0.00E+00
    216 T=   200. E= -.10519700E+04 F= -.10576389E+04 E0= -.10576389E+04  EK= 0.56689E+01 SP= 0.00E+00 SK= 0.00E+00
    217 T=   204. E= -.10519614E+04 F= -.10577418E+04 E0= -.10577418E+04  EK= 0.57804E+01 SP= 0.00E+00 SK= 0.00E+00
    218 T=   211. E= -.10518836E+04 F= -.10578479E+04 E0= -.10578479E+04  EK= 0.59643E+01 SP= 0.00E+00 SK= 0.00E+00
    219 T=   211. E= -.10519075E+04 F= -.10578839E+04 E0= -.10578839E+04  EK= 0.59765E+01 SP= 0.00E+00 SK= 0.00E+00
    220 T=   207. E= -.10519803E+04 F= -.10578522E+04 E0= -.10578522E+04  EK= 0.58719E+01 SP= 0.00E+00 SK= 0.00E+00
    221 T=   206. E= -.10519985E+04 F= -.10578236E+04 E0= -.10578236E+04  EK= 0.58251E+01 SP= 0.00E+00 SK= 0.00E+00
       N       E                     dE             d eps       ncg     rms          rms(c)
DAV:   1    -0.103764724353E+04    0.43130E+01   -0.23108E+03 20644   0.892E+01
DAV:   2    -0.104315064196E+04   -0.55034E+01   -0.55019E+01 25128   0.127E+01
DAV:   3    -0.104320094043E+04   -0.50298E-01   -0.50295E-01 25000   0.123E+00
DAV:   4    -0.104320201571E+04   -0.10753E-02   -0.10752E-02 25032   0.175E-01    0.117E+01
DAV:   5    -0.104168353361E+04    0.15185E+01   -0.41886E+00 24896   0.410E+00    0.562E+00
DAV:   6    -0.104163936293E+04    0.44171E-01   -0.11722E+00 25032   0.220E+00    0.232E+00
DAV:   7    -0.104167601805E+04   -0.36655E-01   -0.25169E-01 24944   0.122E+00    0.651E-01
DAV:   8    -0.104167845588E+04   -0.24378E-02   -0.31389E-02 24368   0.392E-01    0.357E-01
DAV:   9    -0.104167715303E+04    0.13029E-02   -0.14577E-02 23448   0.274E-01    0.159E-01
DAV:  10    -0.104167639060E+04    0.76243E-03   -0.22600E-03 26792   0.152E-01    0.861E-02
DAV:  11    -0.104167608212E+04    0.30848E-03   -0.18453E-03 23552   0.110E-01    0.506E-02
DAV:  12    -0.104167585115E+04    0.23096E-03   -0.18171E-04 18088   0.644E-02    0.271E-02
DAV:  13    -0.104167572165E+04    0.12951E-03   -0.31030E-04 20104   0.707E-02    0.185E-02
DAV:  14    -0.104167571101E+04    0.10635E-04   -0.17005E-04 17600   0.358E-02
    222 T=   206. E= -.10519003E+04 F= -.10577414E+04 E0= -.10577414E+04  EK= 0.58411E+01 SP= 0.00E+00 SK= 0.00E+00
    223 T=   206. E= -.10519274E+04 F= -.10577532E+04 E0= -.10577532E+04  EK= 0.58257E+01 SP= 0.00E+00 SK= 0.00E+00
    224 T=   207. E= -.10519598E+04 F= -.10578231E+04 E0= -.10578231E+04  EK= 0.58633E+01 SP= 0.00E+00 SK= 0.00E+00
    225 T=   210. E= -.10519561E+04 F= -.10579087E+04 E0= -.10579087E+04  EK= 0.59526E+01 SP= 0.00E+00 SK= 0.00E+00
    226 T=   214. E= -.10519503E+04 F= -.10580076E+04 E0= -.10580076E+04  EK= 0.60573E+01 SP= 0.00E+00 SK= 0.00E+00
    227 T=   216. E= -.10519102E+04 F= -.10580380E+04 E0= -.10580380E+04  EK= 0.61279E+01 SP= 0.00E+00 SK= 0.00E+00
    228 T=   213. E= -.10519453E+04 F= -.10579761E+04 E0= -.10579761E+04  EK= 0.60308E+01 SP= 0.00E+00 SK= 0.00E+00
    229 T=   209. E= -.10519441E+04 F= -.10578718E+04 E0= -.10578718E+04  EK= 0.59278E+01 SP= 0.00E+00 SK= 0.00E+00
    230 T=   210. E= -.10518780E+04 F= -.10578111E+04 E0= -.10578111E+04  EK= 0.59331E+01 SP= 0.00E+00 SK= 0.00E+00
    231 T=   208. E= -.10519095E+04 F= -.10577974E+04 E0= -.10577974E+04  EK= 0.58880E+01 SP= 0.00E+00 SK= 0.00E+00
       N       E                     dE             d eps       ncg     rms          rms(c)
DAV:   1    -0.103682067675E+04    0.48550E+01   -0.24608E+03 20644   0.922E+01
DAV:   2    -0.104266959909E+04   -0.58489E+01   -0.58474E+01 25104   0.130E+01
DAV:   3    -0.104272329799E+04   -0.53699E-01   -0.53695E-01 24992   0.128E+00
DAV:   4    -0.104272444473E+04   -0.11467E-02   -0.11467E-02 25032   0.181E-01    0.112E+01
DAV:   5    -0.104149646653E+04    0.12280E+01   -0.31328E+00 25296   0.383E+00    0.567E+00
DAV:   6    -0.104147985758E+04    0.16609E-01   -0.12109E+00 24968   0.227E+00    0.216E+00
DAV:   7    -0.104152191810E+04   -0.42061E-01   -0.23678E-01 26024   0.118E+00    0.657E-01
DAV:   8    -0.104152474208E+04   -0.28240E-02   -0.27658E-02 24512   0.372E-01    0.339E-01
DAV:   9    -0.104152422741E+04    0.51468E-03   -0.11952E-02 23808   0.256E-01    0.146E-01
DAV:  10    -0.104152361659E+04    0.61082E-03   -0.23222E-03 28280   0.160E-01    0.649E-02
DAV:  11    -0.104152347030E+04    0.14629E-03   -0.13440E-03 23920   0.913E-02    0.510E-02
DAV:  12    -0.104152326730E+04    0.20300E-03   -0.15032E-04 17632   0.617E-02    0.185E-02
DAV:  13    -0.104152317608E+04    0.91218E-04   -0.25656E-04 19392   0.638E-02
    232 T=   205. E= -.10519995E+04 F= -.10578161E+04 E0= -.10578161E+04  EK= 0.58167E+01 SP= 0.00E+00 SK= 0.00E+00
    233 T=   205. E= -.10519851E+04 F= -.10577848E+04 E0= -.10577848E+04  EK= 0.57997E+01 SP= 0.00E+00 SK= 0.00E+00
    234 T=   204. E= -.10519934E+04 F= -.10577654E+04 E0= -.10577654E+04  EK= 0.57720E+01 SP= 0.00E+00 SK= 0.00E+00
    235 T=   204. E= -.10519602E+04 F= -.10577444E+04 E0= -.10577444E+04  EK= 0.57842E+01 SP= 0.00E+00 SK= 0.00E+00
    236 T=   208. E= -.10518490E+04 F= -.10577448E+04 E0= -.10577448E+04  EK= 0.58957E+01 SP= 0.00E+00 SK= 0.00E+00
    237 T=   210. E= -.10518158E+04 F= -.10577522E+04 E0= -.10577522E+04  EK= 0.59364E+01 SP= 0.00E+00 SK= 0.00E+00
    238 T=   209. E= -.10518275E+04 F= -.10577413E+04 E0= -.10577413E+04  EK= 0.59138E+01 SP= 0.00E+00 SK= 0.00E+00
    239 T=   209. E= -.10518071E+04 F= -.10577154E+04 E0= -.10577154E+04  EK= 0.59083E+01 SP= 0.00E+00 SK= 0.00E+00
    240 T=   207. E= -.10517913E+04 F= -.10576517E+04 E0= -.10576517E+04  EK= 0.58605E+01 SP= 0.00E+00 SK= 0.00E+00
    241 T=   207. E= -.10517499E+04 F= -.10575970E+04 E0= -.10575970E+04  EK= 0.58471E+01 SP= 0.00E+00 SK= 0.00E+00
       N       E                     dE             d eps       ncg     rms          rms(c)
DAV:   1    -0.103518715072E+04    0.63361E+01   -0.27192E+03 20644   0.963E+01
DAV:   2    -0.104210649718E+04   -0.69193E+01   -0.69175E+01 25104   0.141E+01
DAV:   3    -0.104216867064E+04   -0.62173E-01   -0.62169E-01 25016   0.137E+00
DAV:   4    -0.104216996274E+04   -0.12921E-02   -0.12920E-02 25064   0.192E-01    0.109E+01
DAV:   5    -0.104101069851E+04    0.11593E+01   -0.25128E+00 25560   0.374E+00    0.570E+00
DAV:   6    -0.104096971231E+04    0.40986E-01   -0.13660E+00 25008   0.248E+00    0.195E+00
DAV:   7    -0.104100999720E+04   -0.40285E-01   -0.26498E-01 25160   0.122E+00    0.663E-01
DAV:   8    -0.104101076988E+04   -0.77268E-03   -0.26845E-02 23728   0.380E-01    0.334E-01
DAV:   9    -0.104100984348E+04    0.92639E-03   -0.10944E-02 23848   0.254E-01    0.139E-01
DAV:  10    -0.104100907274E+04    0.77074E-03   -0.22497E-03 27480   0.160E-01    0.570E-02
DAV:  11    -0.104100887537E+04    0.19737E-03   -0.11745E-03 23816   0.804E-02    0.493E-02
DAV:  12    -0.104100862817E+04    0.24720E-03   -0.13017E-04 16744   0.610E-02    0.184E-02
DAV:  13    -0.104100852234E+04    0.10582E-03   -0.29694E-04 19600   0.633E-02    0.263E-02
DAV:  14    -0.104100850777E+04    0.14574E-04   -0.17426E-04 17568   0.381E-02
    242 T=   209. E= -.10516154E+04 F= -.10575243E+04 E0= -.10575243E+04  EK= 0.59089E+01 SP= 0.00E+00 SK= 0.00E+00
    243 T=   210. E= -.10516617E+04 F= -.10575928E+04 E0= -.10575928E+04  EK= 0.59311E+01 SP= 0.00E+00 SK= 0.00E+00
    244 T=   207. E= -.10517150E+04 F= -.10575888E+04 E0= -.10575888E+04  EK= 0.58738E+01 SP= 0.00E+00 SK= 0.00E+00
    245 T=   206. E= -.10517485E+04 F= -.10575692E+04 E0= -.10575692E+04  EK= 0.58207E+01 SP= 0.00E+00 SK= 0.00E+00
    246 T=   205. E= -.10517115E+04 F= -.10575096E+04 E0= -.10575096E+04  EK= 0.57981E+01 SP= 0.00E+00 SK= 0.00E+00
    247 T=   202. E= -.10517062E+04 F= -.10574350E+04 E0= -.10574350E+04  EK= 0.57289E+01 SP= 0.00E+00 SK= 0.00E+00
    248 T=   200. E= -.10516881E+04 F= -.10573546E+04 E0= -.10573546E+04  EK= 0.56665E+01 SP= 0.00E+00 SK= 0.00E+00
    249 T=   201. E= -.10516143E+04 F= -.10572933E+04 E0= -.10572933E+04  EK= 0.56790E+01 SP= 0.00E+00 SK= 0.00E+00
    250 T=   200. E= -.10515923E+04 F= -.10572613E+04 E0= -.10572613E+04  EK= 0.56689E+01 SP= 0.00E+00 SK= 0.00E+00
    251 T=   202. E= -.10515904E+04 F= -.10573134E+04 E0= -.10573134E+04  EK= 0.57231E+01 SP= 0.00E+00 SK= 0.00E+00
       N       E                     dE             d eps       ncg     rms          rms(c)
DAV:   1    -0.103542758887E+04    0.55809E+01   -0.25253E+03 20644   0.931E+01
DAV:   2    -0.104171172861E+04   -0.62841E+01   -0.62824E+01 25104   0.135E+01
DAV:   3    -0.104176864721E+04   -0.56919E-01   -0.56914E-01 25080   0.131E+00
DAV:   4    -0.104176984755E+04   -0.12003E-02   -0.12003E-02 25040   0.183E-01    0.105E+01
DAV:   5    -0.104072990993E+04    0.10399E+01   -0.23654E+00 25856   0.371E+00    0.552E+00
DAV:   6    -0.104069849750E+04    0.31412E-01   -0.12035E+00 24920   0.229E+00    0.194E+00
DAV:   7    -0.104073296300E+04   -0.34465E-01   -0.25207E-01 25360   0.123E+00    0.612E-01
DAV:   8    -0.104073285998E+04    0.10302E-03   -0.30390E-02 23912   0.397E-01    0.335E-01
DAV:   9    -0.104073154396E+04    0.13160E-02   -0.12860E-02 23760   0.246E-01    0.156E-01
DAV:  10    -0.104073048344E+04    0.10605E-02   -0.21365E-03 28872   0.176E-01    0.585E-02
DAV:  11    -0.104073019152E+04    0.29192E-03   -0.16285E-03 23920   0.107E-01    0.601E-02
DAV:  12    -0.104072986325E+04    0.32827E-03   -0.32583E-04 20496   0.700E-02    0.195E-02
DAV:  13    -0.104072973500E+04    0.12824E-03   -0.23851E-04 18672   0.623E-02    0.279E-02
DAV:  14    -0.104072971451E+04    0.20494E-04   -0.21936E-04 18944   0.424E-02
    252 T=   206. E= -.10515213E+04 F= -.10573463E+04 E0= -.10573463E+04  EK= 0.58250E+01 SP= 0.00E+00 SK= 0.00E+00
    253 T=   208. E= -.10516611E+04 F= -.10575395E+04 E0= -.10575395E+04  EK= 0.58783E+01 SP= 0.00E+00 SK= 0.00E+00
    254 T=   211. E= -.10516839E+04 F= -.10576628E+04 E0= -.10576628E+04  EK= 0.59788E+01 SP= 0.00E+00 SK= 0.00E+00
    255 T=   215. E= -.10516015E+04 F= -.10577004E+04 E0= -.10577004E+04  EK= 0.60989E+01 SP= 0.00E+00 SK= 0.00E+00
    256 T=   216. E= -.10515081E+04 F= -.10576309E+04 E0= -.10576309E+04  EK= 0.61228E+01 SP= 0.00E+00 SK= 0.00E+00
    257 T=   212. E= -.10514553E+04 F= -.10574618E+04 E0= -.10574618E+04  EK= 0.60065E+01 SP= 0.00E+00 SK= 0.00E+00
    258 T=   207. E= -.10514663E+04 F= -.10573215E+04 E0= -.10573215E+04  EK= 0.58553E+01 SP= 0.00E+00 SK= 0.00E+00
    259 T=   204. E= -.10514979E+04 F= -.10572588E+04 E0= -.10572588E+04  EK= 0.57609E+01 SP= 0.00E+00 SK= 0.00E+00
    260 T=   204. E= -.10515284E+04 F= -.10573043E+04 E0= -.10573043E+04  EK= 0.57759E+01 SP= 0.00E+00 SK= 0.00E+00
    261 T=   207. E= -.10515977E+04 F= -.10574691E+04 E0= -.10574691E+04  EK= 0.58714E+01 SP= 0.00E+00 SK= 0.00E+00
       N       E                     dE             d eps       ncg     rms          rms(c)
DAV:   1    -0.103557208708E+04    0.51576E+01   -0.25420E+03 20644   0.932E+01
DAV:   2    -0.104175641528E+04   -0.61843E+01   -0.61828E+01 25096   0.134E+01
DAV:   3    -0.104181230002E+04   -0.55885E-01   -0.55881E-01 25024   0.130E+00
DAV:   4    -0.104181345143E+04   -0.11514E-02   -0.11513E-02 25096   0.182E-01    0.101E+01
DAV:   5    -0.104098790228E+04    0.82555E+00   -0.16835E+00 26552   0.351E+00    0.549E+00
DAV:   6    -0.104098437585E+04    0.35264E-02   -0.13226E+00 25032   0.255E+00    0.168E+00
DAV:   7    -0.104101603319E+04   -0.31657E-01   -0.25458E-01 24640   0.121E+00    0.603E-01
DAV:   8    -0.104101592090E+04    0.11229E-03   -0.25885E-02 23400   0.402E-01    0.298E-01
DAV:   9    -0.104101592718E+04   -0.62781E-05   -0.12896E-02 23664   0.252E-01    0.167E-01
DAV:  10    -0.104101526260E+04    0.66458E-03   -0.26633E-03 28432   0.166E-01    0.452E-02
DAV:  11    -0.104101520152E+04    0.61087E-04   -0.88440E-04 23200   0.692E-02
    262 T=   213. E= -.10515797E+04 F= -.10576032E+04 E0= -.10576032E+04  EK= 0.60235E+01 SP= 0.00E+00 SK= 0.00E+00
    263 T=   216. E= -.10516024E+04 F= -.10577282E+04 E0= -.10577282E+04  EK= 0.61258E+01 SP= 0.00E+00 SK= 0.00E+00
    264 T=   211. E= -.10516963E+04 F= -.10576580E+04 E0= -.10576580E+04  EK= 0.59616E+01 SP= 0.00E+00 SK= 0.00E+00
    265 T=   201. E= -.10517890E+04 F= -.10574856E+04 E0= -.10574856E+04  EK= 0.56966E+01 SP= 0.00E+00 SK= 0.00E+00
    266 T=   195. E= -.10518103E+04 F= -.10573419E+04 E0= -.10573419E+04  EK= 0.55315E+01 SP= 0.00E+00 SK= 0.00E+00
    267 T=   198. E= -.10517523E+04 F= -.10573483E+04 E0= -.10573483E+04  EK= 0.55960E+01 SP= 0.00E+00 SK= 0.00E+00
    268 T=   204. E= -.10517291E+04 F= -.10575043E+04 E0= -.10575043E+04  EK= 0.57752E+01 SP= 0.00E+00 SK= 0.00E+00
    269 T=   211. E= -.10517300E+04 F= -.10576998E+04 E0= -.10576998E+04  EK= 0.59698E+01 SP= 0.00E+00 SK= 0.00E+00
    270 T=   217. E= -.10516863E+04 F= -.10578346E+04 E0= -.10578346E+04  EK= 0.61484E+01 SP= 0.00E+00 SK= 0.00E+00
    271 T=   215. E= -.10517483E+04 F= -.10578382E+04 E0= -.10578382E+04  EK= 0.60899E+01 SP= 0.00E+00 SK= 0.00E+00
       N       E                     dE             d eps       ncg     rms          rms(c)
DAV:   1    -0.103525829271E+04    0.57570E+01   -0.26478E+03 20644   0.949E+01
DAV:   2    -0.104187374296E+04   -0.66155E+01   -0.66137E+01 25112   0.138E+01
DAV:   3    -0.104193395224E+04   -0.60209E-01   -0.60205E-01 25008   0.134E+00
DAV:   4    -0.104193521097E+04   -0.12587E-02   -0.12587E-02 25096   0.188E-01    0.101E+01
DAV:   5    -0.104108011921E+04    0.85509E+00   -0.17666E+00 25808   0.355E+00    0.548E+00
DAV:   6    -0.104107738297E+04    0.27362E-02   -0.12716E+00 25152   0.243E+00    0.173E+00
DAV:   7    -0.104110867503E+04   -0.31292E-01   -0.22723E-01 25096   0.120E+00    0.565E-01
DAV:   8    -0.104110873981E+04   -0.64788E-04   -0.25698E-02 24120   0.407E-01    0.285E-01
DAV:   9    -0.104110870143E+04    0.38387E-04   -0.12605E-02 24264   0.251E-01    0.168E-01
DAV:  10    -0.104110793233E+04    0.76909E-03   -0.24711E-03 29184   0.174E-01    0.532E-02
DAV:  11    -0.104110780101E+04    0.13133E-03   -0.12358E-03 24264   0.914E-02    0.502E-02
DAV:  12    -0.104110758199E+04    0.21902E-03   -0.15120E-04 17736   0.735E-02    0.201E-02
DAV:  13    -0.104110749482E+04    0.87170E-04   -0.34145E-04 21592   0.707E-02
    272 T=   210. E= -.10516618E+04 F= -.10576122E+04 E0= -.10576122E+04  EK= 0.59504E+01 SP= 0.00E+00 SK= 0.00E+00
    273 T=   206. E= -.10516950E+04 F= -.10575128E+04 E0= -.10575128E+04  EK= 0.58178E+01 SP= 0.00E+00 SK= 0.00E+00
    274 T=   201. E= -.10517080E+04 F= -.10573951E+04 E0= -.10573951E+04  EK= 0.56871E+01 SP= 0.00E+00 SK= 0.00E+00
    275 T=   199. E= -.10517985E+04 F= -.10574292E+04 E0= -.10574292E+04  EK= 0.56307E+01 SP= 0.00E+00 SK= 0.00E+00
    276 T=   202. E= -.10518529E+04 F= -.10575649E+04 E0= -.10575649E+04  EK= 0.57120E+01 SP= 0.00E+00 SK= 0.00E+00
    277 T=   208. E= -.10518618E+04 F= -.10577629E+04 E0= -.10577629E+04  EK= 0.59012E+01 SP= 0.00E+00 SK= 0.00E+00
    278 T=   211. E= -.10519362E+04 F= -.10579064E+04 E0= -.10579064E+04  EK= 0.59702E+01 SP= 0.00E+00 SK= 0.00E+00
    279 T=   210. E= -.10519413E+04 F= -.10578794E+04 E0= -.10578794E+04  EK= 0.59381E+01 SP= 0.00E+00 SK= 0.00E+00
    280 T=   204. E= -.10519279E+04 F= -.10577081E+04 E0= -.10577081E+04  EK= 0.57803E+01 SP= 0.00E+00 SK= 0.00E+00
    281 T=   197. E= -.10519393E+04 F= -.10575041E+04 E0= -.10575041E+04  EK= 0.55649E+01 SP= 0.00E+00 SK= 0.00E+00
       N       E                     dE             d eps       ncg     rms          rms(c)
DAV:   1    -0.103527006646E+04    0.58375E+01   -0.26538E+03 20644   0.953E+01
DAV:   2    -0.104200791262E+04   -0.67378E+01   -0.67360E+01 25096   0.139E+01
DAV:   3    -0.104206896748E+04   -0.61055E-01   -0.61050E-01 25032   0.136E+00
DAV:   4    -0.104207023570E+04   -0.12682E-02   -0.12681E-02 25080   0.190E-01    0.105E+01
DAV:   5    -0.104102586519E+04    0.10444E+01   -0.23425E+00 25224   0.371E+00    0.548E+00
DAV:   6    -0.104099256175E+04    0.33303E-01   -0.12328E+00 25088   0.239E+00    0.195E+00
DAV:   7    -0.104101783907E+04   -0.25277E-01   -0.25691E-01 26256   0.134E+00    0.617E-01
DAV:   8    -0.104101729545E+04    0.54362E-03   -0.37757E-02 24392   0.462E-01    0.348E-01
DAV:   9    -0.104101502080E+04    0.22747E-02   -0.17014E-02 24056   0.310E-01    0.188E-01
DAV:  10    -0.104101369729E+04    0.13235E-02   -0.32643E-03 28368   0.206E-01    0.932E-02
DAV:  11    -0.104101321944E+04    0.47785E-03   -0.27231E-03 24432   0.155E-01    0.736E-02
DAV:  12    -0.104101283348E+04    0.38596E-03   -0.51546E-04 24592   0.106E-01    0.375E-02
DAV:  13    -0.104101264572E+04    0.18776E-03   -0.34046E-04 21816   0.886E-02    0.191E-02
DAV:  14    -0.104101263548E+04    0.10240E-04   -0.29441E-04 20352   0.492E-02
    282 T=   194. E= -.10518903E+04 F= -.10573831E+04 E0= -.10573831E+04  EK= 0.54928E+01 SP= 0.00E+00 SK= 0.00E+00
    283 T=   198. E= -.10519513E+04 F= -.10575537E+04 E0= -.10575537E+04  EK= 0.56024E+01 SP= 0.00E+00 SK= 0.00E+00
    284 T=   207. E= -.10518993E+04 F= -.10577611E+04 E0= -.10577611E+04  EK= 0.58618E+01 SP= 0.00E+00 SK= 0.00E+00
    285 T=   214. E= -.10518623E+04 F= -.10579120E+04 E0= -.10579120E+04  EK= 0.60497E+01 SP= 0.00E+00 SK= 0.00E+00
    286 T=   210. E= -.10519623E+04 F= -.10578985E+04 E0= -.10578985E+04  EK= 0.59363E+01 SP= 0.00E+00 SK= 0.00E+00
    287 T=   204. E= -.10520218E+04 F= -.10578034E+04 E0= -.10578034E+04  EK= 0.57816E+01 SP= 0.00E+00 SK= 0.00E+00
    288 T=   204. E= -.10519530E+04 F= -.10577193E+04 E0= -.10577193E+04  EK= 0.57663E+01 SP= 0.00E+00 SK= 0.00E+00
    289 T=   201. E= -.10519596E+04 F= -.10576637E+04 E0= -.10576637E+04  EK= 0.57041E+01 SP= 0.00E+00 SK= 0.00E+00
    290 T=   201. E= -.10519740E+04 F= -.10576776E+04 E0= -.10576776E+04  EK= 0.57036E+01 SP= 0.00E+00 SK= 0.00E+00
    291 T=   204. E= -.10520203E+04 F= -.10577826E+04 E0= -.10577826E+04  EK= 0.57623E+01 SP= 0.00E+00 SK= 0.00E+00
       N       E                     dE             d eps       ncg     rms          rms(c)
DAV:   1    -0.103687444091E+04    0.41382E+01   -0.23440E+03 20644   0.896E+01
DAV:   2    -0.104266391303E+04   -0.57895E+01   -0.57878E+01 25152   0.130E+01
DAV:   3    -0.104271811405E+04   -0.54201E-01   -0.54197E-01 25088   0.128E+00
DAV:   4    -0.104271927183E+04   -0.11578E-02   -0.11577E-02 25064   0.182E-01    0.106E+01
DAV:   5    -0.104169694640E+04    0.10223E+01   -0.27878E+00 25072   0.375E+00    0.541E+00
DAV:   6    -0.104171946636E+04   -0.22520E-01   -0.10694E+00 25152   0.211E+00    0.211E+00
DAV:   7    -0.104175690113E+04   -0.37435E-01   -0.22236E-01 26336   0.120E+00    0.597E-01
DAV:   8    -0.104175820230E+04   -0.13012E-02   -0.31627E-02 23736   0.404E-01    0.338E-01
DAV:   9    -0.104175748166E+04    0.72064E-03   -0.18298E-02 23608   0.283E-01    0.188E-01
DAV:  10    -0.104175638099E+04    0.11007E-02   -0.27266E-03 29832   0.173E-01    0.639E-02
DAV:  11    -0.104175610057E+04    0.28042E-03   -0.14942E-03 23312   0.926E-02    0.476E-02
DAV:  12    -0.104175586002E+04    0.24055E-03   -0.20591E-04 17984   0.574E-02    0.161E-02
DAV:  13    -0.104175577873E+04    0.81292E-04   -0.22443E-04 17880   0.479E-02
    292 T=   206. E= -.10520767E+04 F= -.10579032E+04 E0= -.10579032E+04  EK= 0.58265E+01 SP= 0.00E+00 SK= 0.00E+00
    293 T=   210. E= -.10521471E+04 F= -.10580808E+04 E0= -.10580808E+04  EK= 0.59337E+01 SP= 0.00E+00 SK= 0.00E+00
    294 T=   210. E= -.10521499E+04 F= -.10580847E+04 E0= -.10580847E+04  EK= 0.59348E+01 SP= 0.00E+00 SK= 0.00E+00
    295 T=   208. E= -.10520959E+04 F= -.10579739E+04 E0= -.10579739E+04  EK= 0.58780E+01 SP= 0.00E+00 SK= 0.00E+00
    296 T=   204. E= -.10520250E+04 F= -.10577891E+04 E0= -.10577891E+04  EK= 0.57641E+01 SP= 0.00E+00 SK= 0.00E+00
    297 T=   197. E= -.10520427E+04 F= -.10576332E+04 E0= -.10576332E+04  EK= 0.55905E+01 SP= 0.00E+00 SK= 0.00E+00
    298 T=   197. E= -.10520530E+04 F= -.10576305E+04 E0= -.10576305E+04  EK= 0.55775E+01 SP= 0.00E+00 SK= 0.00E+00
    299 T=   205. E= -.10519791E+04 F= -.10577780E+04 E0= -.10577780E+04  EK= 0.57990E+01 SP= 0.00E+00 SK= 0.00E+00
    300 T=   212. E= -.10519875E+04 F= -.10579777E+04 E0= -.10579777E+04  EK= 0.59902E+01 SP= 0.00E+00 SK= 0.00E+00
    301 T=   215. E= -.10520015E+04 F= -.10580976E+04 E0= -.10580976E+04  EK= 0.60962E+01 SP= 0.00E+00 SK= 0.00E+00
       N       E                     dE             d eps       ncg     rms          rms(c)
DAV:   1    -0.103737355637E+04    0.43823E+01   -0.23772E+03 20644   0.902E+01
DAV:   2    -0.104312212628E+04   -0.57486E+01   -0.57469E+01 25104   0.130E+01
DAV:   3    -0.104317625281E+04   -0.54127E-01   -0.54122E-01 24976   0.129E+00
DAV:   4    -0.104317739298E+04   -0.11402E-02   -0.11401E-02 25040   0.184E-01    0.110E+01
DAV:   5    -0.104199995361E+04    0.11774E+01   -0.32833E+00 25040   0.375E+00    0.547E+00
DAV:   6    -0.104200174995E+04   -0.17963E-02   -0.10418E+00 25232   0.212E+00    0.219E+00
DAV:   7    -0.104204009243E+04   -0.38342E-01   -0.20479E-01 25112   0.107E+00    0.588E-01
DAV:   8    -0.104204224110E+04   -0.21487E-02   -0.23734E-02 24472   0.357E-01    0.304E-01
DAV:   9    -0.104204180707E+04    0.43403E-03   -0.12603E-02 23528   0.264E-01    0.147E-01
DAV:  10    -0.104204132296E+04    0.48411E-03   -0.22158E-03 26656   0.138E-01    0.789E-02
DAV:  11    -0.104204115288E+04    0.17008E-03   -0.14325E-03 23416   0.906E-02    0.441E-02
DAV:  12    -0.104204100347E+04    0.14941E-03   -0.13188E-04 17048   0.598E-02    0.226E-02
DAV:  13    -0.104204094411E+04    0.59360E-04   -0.31884E-04 20872   0.619E-02
    302 T=   213. E= -.10519810E+04 F= -.10580154E+04 E0= -.10580154E+04  EK= 0.60344E+01 SP= 0.00E+00 SK= 0.00E+00
    303 T=   203. E= -.10520776E+04 F= -.10578378E+04 E0= -.10578378E+04  EK= 0.57602E+01 SP= 0.00E+00 SK= 0.00E+00
    304 T=   192. E= -.10521915E+04 F= -.10576185E+04 E0= -.10576185E+04  EK= 0.54270E+01 SP= 0.00E+00 SK= 0.00E+00
    305 T=   186. E= -.10522807E+04 F= -.10575357E+04 E0= -.10575357E+04  EK= 0.52550E+01 SP= 0.00E+00 SK= 0.00E+00
    306 T=   190. E= -.10522660E+04 F= -.10576482E+04 E0= -.10576482E+04  EK= 0.53821E+01 SP= 0.00E+00 SK= 0.00E+00
    307 T=   200. E= -.10522393E+04 F= -.10578904E+04 E0= -.10578904E+04  EK= 0.56511E+01 SP= 0.00E+00 SK= 0.00E+00
    308 T=   206. E= -.10522515E+04 F= -.10580883E+04 E0= -.10580883E+04  EK= 0.58368E+01 SP= 0.00E+00 SK= 0.00E+00
    309 T=   211. E= -.10521917E+04 F= -.10581785E+04 E0= -.10581785E+04  EK= 0.59868E+01 SP= 0.00E+00 SK= 0.00E+00
    310 T=   208. E= -.10521964E+04 F= -.10580945E+04 E0= -.10580945E+04  EK= 0.58981E+01 SP= 0.00E+00 SK= 0.00E+00
    311 T=   202. E= -.10522102E+04 F= -.10579406E+04 E0= -.10579406E+04  EK= 0.57304E+01 SP= 0.00E+00 SK= 0.00E+00
       N       E                     dE             d eps       ncg     rms          rms(c)
DAV:   1    -0.103695348807E+04    0.50875E+01   -0.25002E+03 20644   0.924E+01
DAV:   2    -0.104322565708E+04   -0.62722E+01   -0.62705E+01 25064   0.134E+01
DAV:   3    -0.104328417185E+04   -0.58515E-01   -0.58510E-01 25016   0.133E+00
DAV:   4    -0.104328540393E+04   -0.12321E-02   -0.12320E-02 25008   0.189E-01    0.111E+01
DAV:   5    -0.104199695333E+04    0.12885E+01   -0.34722E+00 25336   0.404E+00    0.542E+00
DAV:   6    -0.104197470463E+04    0.22249E-01   -0.11022E+00 25072   0.221E+00    0.225E+00
DAV:   7    -0.104200097638E+04   -0.26272E-01   -0.21776E-01 25624   0.118E+00    0.597E-01
DAV:   8    -0.104200218045E+04   -0.12041E-02   -0.30572E-02 24544   0.406E-01    0.334E-01
DAV:   9    -0.104200021299E+04    0.19675E-02   -0.16476E-02 23720   0.308E-01    0.181E-01
DAV:  10    -0.104199906827E+04    0.11447E-02   -0.30554E-03 27504   0.177E-01    0.950E-02
DAV:  11    -0.104199845708E+04    0.61118E-03   -0.21726E-03 23592   0.130E-01    0.548E-02
DAV:  12    -0.104199805228E+04    0.40480E-03   -0.35036E-04 21296   0.958E-02    0.299E-02
DAV:  13    -0.104199792428E+04    0.12800E-03   -0.47864E-04 22528   0.811E-02    0.208E-02
DAV:  14    -0.104199791833E+04    0.59537E-05   -0.21630E-04 19224   0.368E-02
    312 T=   201. E= -.10520738E+04 F= -.10577644E+04 E0= -.10577644E+04  EK= 0.56906E+01 SP= 0.00E+00 SK= 0.00E+00
    313 T=   202. E= -.10521675E+04 F= -.10578807E+04 E0= -.10578807E+04  EK= 0.57133E+01 SP= 0.00E+00 SK= 0.00E+00
    314 T=   208. E= -.10521553E+04 F= -.10580539E+04 E0= -.10580539E+04  EK= 0.58987E+01 SP= 0.00E+00 SK= 0.00E+00
    315 T=   215. E= -.10520983E+04 F= -.10581840E+04 E0= -.10581840E+04  EK= 0.60856E+01 SP= 0.00E+00 SK= 0.00E+00
    316 T=   215. E= -.10521085E+04 F= -.10582074E+04 E0= -.10582074E+04  EK= 0.60989E+01 SP= 0.00E+00 SK= 0.00E+00
    317 T=   212. E= -.10521406E+04 F= -.10581313E+04 E0= -.10581313E+04  EK= 0.59908E+01 SP= 0.00E+00 SK= 0.00E+00
    318 T=   209. E= -.10521151E+04 F= -.10580301E+04 E0= -.10580301E+04  EK= 0.59150E+01 SP= 0.00E+00 SK= 0.00E+00
    319 T=   207. E= -.10520978E+04 F= -.10579524E+04 E0= -.10579524E+04  EK= 0.58546E+01 SP= 0.00E+00 SK= 0.00E+00
    320 T=   209. E= -.10520340E+04 F= -.10579367E+04 E0= -.10579367E+04  EK= 0.59027E+01 SP= 0.00E+00 SK= 0.00E+00
    321 T=   209. E= -.10519931E+04 F= -.10579193E+04 E0= -.10579193E+04  EK= 0.59262E+01 SP= 0.00E+00 SK= 0.00E+00
       N       E                     dE             d eps       ncg     rms          rms(c)
DAV:   1    -0.103745235088E+04    0.45456E+01   -0.23352E+03 20644   0.895E+01
DAV:   2    -0.104325470155E+04   -0.58024E+01   -0.58006E+01 25080   0.129E+01
DAV:   3    -0.104331073625E+04   -0.56035E-01   -0.56030E-01 24992   0.130E+00
DAV:   4    -0.104331194007E+04   -0.12038E-02   -0.12038E-02 25080   0.186E-01    0.108E+01
DAV:   5    -0.104217891100E+04    0.11330E+01   -0.32090E+00 25120   0.392E+00    0.538E+00
DAV:   6    -0.104219460519E+04   -0.15694E-01   -0.10191E+00 24952   0.206E+00    0.224E+00
DAV:   7    -0.104223069574E+04   -0.36091E-01   -0.21276E-01 25864   0.116E+00    0.583E-01
DAV:   8    -0.104223271659E+04   -0.20208E-02   -0.29960E-02 24160   0.389E-01    0.328E-01
DAV:   9    -0.104223228601E+04    0.43058E-03   -0.15765E-02 23416   0.266E-01    0.176E-01
DAV:  10    -0.104223148523E+04    0.80079E-03   -0.22065E-03 28864   0.158E-01    0.702E-02
DAV:  11    -0.104223131099E+04    0.17423E-03   -0.14572E-03 23472   0.971E-02    0.441E-02
DAV:  12    -0.104223115519E+04    0.15580E-03   -0.16535E-04 17136   0.586E-02    0.177E-02
DAV:  13    -0.104223110637E+04    0.48816E-04   -0.24140E-04 19272   0.505E-02
    322 T=   206. E= -.10519850E+04 F= -.10578297E+04 E0= -.10578297E+04  EK= 0.58447E+01 SP= 0.00E+00 SK= 0.00E+00
    323 T=   206. E= -.10520038E+04 F= -.10578372E+04 E0= -.10578372E+04  EK= 0.58335E+01 SP= 0.00E+00 SK= 0.00E+00
    324 T=   208. E= -.10519415E+04 F= -.10578403E+04 E0= -.10578403E+04  EK= 0.58988E+01 SP= 0.00E+00 SK= 0.00E+00
    325 T=   210. E= -.10519469E+04 F= -.10579046E+04 E0= -.10579046E+04  EK= 0.59577E+01 SP= 0.00E+00 SK= 0.00E+00
    326 T=   215. E= -.10519218E+04 F= -.10580139E+04 E0= -.10580139E+04  EK= 0.60920E+01 SP= 0.00E+00 SK= 0.00E+00
    327 T=   218. E= -.10519436E+04 F= -.10581027E+04 E0= -.10581027E+04  EK= 0.61591E+01 SP= 0.00E+00 SK= 0.00E+00
    328 T=   215. E= -.10519937E+04 F= -.10580807E+04 E0= -.10580807E+04  EK= 0.60870E+01 SP= 0.00E+00 SK= 0.00E+00
    329 T=   212. E= -.10519389E+04 F= -.10579444E+04 E0= -.10579444E+04  EK= 0.60055E+01 SP= 0.00E+00 SK= 0.00E+00
    330 T=   208. E= -.10518701E+04 F= -.10577509E+04 E0= -.10577509E+04  EK= 0.58808E+01 SP= 0.00E+00 SK= 0.00E+00
    331 T=   206. E= -.10517820E+04 F= -.10576075E+04 E0= -.10576075E+04  EK= 0.58254E+01 SP= 0.00E+00 SK= 0.00E+00
       N       E                     dE             d eps       ncg     rms          rms(c)
DAV:   1    -0.103708614846E+04    0.51450E+01   -0.24007E+03 20644   0.908E+01
DAV:   2    -0.104302994222E+04   -0.59438E+01   -0.59420E+01 25104   0.131E+01
DAV:   3    -0.104308579331E+04   -0.55851E-01   -0.55846E-01 25040   0.130E+00
DAV:   4    -0.104308698479E+04   -0.11915E-02   -0.11914E-02 25040   0.185E-01    0.111E+01
DAV:   5    -0.104190203263E+04    0.11850E+01   -0.33105E+00 25152   0.405E+00    0.551E+00
DAV:   6    -0.104191999592E+04   -0.17963E-01   -0.11005E+00 25024   0.217E+00    0.227E+00
DAV:   7    -0.104195729794E+04   -0.37302E-01   -0.23604E-01 26160   0.124E+00    0.613E-01
DAV:   8    -0.104195929390E+04   -0.19960E-02   -0.34132E-02 24664   0.419E-01    0.358E-01
DAV:   9    -0.104195820898E+04    0.10849E-02   -0.19717E-02 23720   0.316E-01    0.200E-01
DAV:  10    -0.104195694999E+04    0.12590E-02   -0.31759E-03 28208   0.190E-01    0.837E-02
DAV:  11    -0.104195649802E+04    0.45197E-03   -0.20948E-03 23656   0.122E-01    0.534E-02
DAV:  12    -0.104195613314E+04    0.36489E-03   -0.29077E-04 20096   0.835E-02    0.226E-02
DAV:  13    -0.104195597836E+04    0.15478E-03   -0.33737E-04 21048   0.749E-02    0.200E-02
DAV:  14    -0.104195596671E+04    0.11648E-04   -0.22257E-04 18800   0.396E-02
    332 T=   205. E= -.10516638E+04 F= -.10574717E+04 E0= -.10574717E+04  EK= 0.58080E+01 SP= 0.00E+00 SK= 0.00E+00
    333 T=   207. E= -.10517522E+04 F= -.10576074E+04 E0= -.10576074E+04  EK= 0.58552E+01 SP= 0.00E+00 SK= 0.00E+00
    334 T=   213. E= -.10517702E+04 F= -.10577978E+04 E0= -.10577978E+04  EK= 0.60277E+01 SP= 0.00E+00 SK= 0.00E+00
    335 T=   216. E= -.10517975E+04 F= -.10579138E+04 E0= -.10579138E+04  EK= 0.61163E+01 SP= 0.00E+00 SK= 0.00E+00
    336 T=   211. E= -.10518576E+04 F= -.10578307E+04 E0= -.10578307E+04  EK= 0.59731E+01 SP= 0.00E+00 SK= 0.00E+00
    337 T=   201. E= -.10518864E+04 F= -.10575892E+04 E0= -.10575892E+04  EK= 0.57028E+01 SP= 0.00E+00 SK= 0.00E+00
    338 T=   194. E= -.10518674E+04 F= -.10573624E+04 E0= -.10573624E+04  EK= 0.54949E+01 SP= 0.00E+00 SK= 0.00E+00
    339 T=   191. E= -.10519047E+04 F= -.10573063E+04 E0= -.10573063E+04  EK= 0.54016E+01 SP= 0.00E+00 SK= 0.00E+00
    340 T=   193. E= -.10519886E+04 F= -.10574572E+04 E0= -.10574572E+04  EK= 0.54685E+01 SP= 0.00E+00 SK= 0.00E+00
    341 T=   201. E= -.10520565E+04 F= -.10577552E+04 E0= -.10577552E+04  EK= 0.56987E+01 SP= 0.00E+00 SK= 0.00E+00
       N       E                     dE             d eps       ncg     rms          rms(c)
DAV:   1    -0.103722477956E+04    0.47312E+01   -0.23276E+03 20644   0.892E+01
DAV:   2    -0.104321296272E+04   -0.59882E+01   -0.59866E+01 25128   0.131E+01
DAV:   3    -0.104326720336E+04   -0.54241E-01   -0.54236E-01 24992   0.128E+00
DAV:   4    -0.104326833346E+04   -0.11301E-02   -0.11300E-02 25064   0.182E-01    0.103E+01
DAV:   5    -0.104238872098E+04    0.87961E+00   -0.21314E+00 25112   0.343E+00    0.542E+00
DAV:   6    -0.104241423562E+04   -0.25515E-01   -0.11346E+00 24984   0.222E+00    0.187E+00
DAV:   7    -0.104245346398E+04   -0.39228E-01   -0.21383E-01 25312   0.110E+00    0.592E-01
DAV:   8    -0.104245450226E+04   -0.10383E-02   -0.23159E-02 23864   0.369E-01    0.296E-01
DAV:   9    -0.104245481271E+04   -0.31045E-03   -0.11954E-02 23712   0.237E-01    0.149E-01
DAV:  10    -0.104245429257E+04    0.52014E-03   -0.20952E-03 28912   0.142E-01    0.474E-02
DAV:  11    -0.104245422210E+04    0.70469E-04   -0.85448E-04 23384   0.638E-02
    342 T=   208. E= -.10520230E+04 F= -.10579200E+04 E0= -.10579200E+04  EK= 0.58970E+01 SP= 0.00E+00 SK= 0.00E+00
    343 T=   209. E= -.10521977E+04 F= -.10581127E+04 E0= -.10581127E+04  EK= 0.59150E+01 SP= 0.00E+00 SK= 0.00E+00
    344 T=   206. E= -.10522084E+04 F= -.10580377E+04 E0= -.10580377E+04  EK= 0.58292E+01 SP= 0.00E+00 SK= 0.00E+00
    345 T=   198. E= -.10522057E+04 F= -.10578220E+04 E0= -.10578220E+04  EK= 0.56163E+01 SP= 0.00E+00 SK= 0.00E+00
    346 T=   190. E= -.10522295E+04 F= -.10576072E+04 E0= -.10576072E+04  EK= 0.53777E+01 SP= 0.00E+00 SK= 0.00E+00
    347 T=   185. E= -.10523058E+04 F= -.10575551E+04 E0= -.10575551E+04  EK= 0.52493E+01 SP= 0.00E+00 SK= 0.00E+00
    348 T=   189. E= -.10523729E+04 F= -.10577248E+04 E0= -.10577248E+04  EK= 0.53519E+01 SP= 0.00E+00 SK= 0.00E+00
    349 T=   197. E= -.10524451E+04 F= -.10580322E+04 E0= -.10580322E+04  EK= 0.55872E+01 SP= 0.00E+00 SK= 0.00E+00
    350 T=   202. E= -.10525237E+04 F= -.10582370E+04 E0= -.10582370E+04  EK= 0.57133E+01 SP= 0.00E+00 SK= 0.00E+00
    351 T=   201. E= -.10525412E+04 F= -.10582289E+04 E0= -.10582289E+04  EK= 0.56877E+01 SP= 0.00E+00 SK= 0.00E+00
       N       E                     dE             d eps       ncg     rms          rms(c)
DAV:   1    -0.103772843557E+04    0.47259E+01   -0.22043E+03 20644   0.869E+01
DAV:   2    -0.104317543822E+04   -0.54470E+01   -0.54456E+01 25000   0.125E+01
DAV:   3    -0.104322670903E+04   -0.51271E-01   -0.51268E-01 25000   0.124E+00
DAV:   4    -0.104322780826E+04   -0.10992E-02   -0.10992E-02 24992   0.178E-01    0.986E+00
DAV:   5    -0.104242589302E+04    0.80192E+00   -0.19252E+00 24944   0.324E+00    0.527E+00
DAV:   6    -0.104243569779E+04   -0.98048E-02   -0.10497E+00 25144   0.214E+00    0.178E+00
DAV:   7    -0.104246247055E+04   -0.26773E-01   -0.21523E-01 25352   0.121E+00    0.561E-01
DAV:   8    -0.104246173183E+04    0.73872E-03   -0.31274E-02 23936   0.399E-01    0.311E-01
DAV:   9    -0.104245913417E+04    0.25977E-02   -0.12771E-02 23640   0.256E-01    0.159E-01
DAV:  10    -0.104245753614E+04    0.15980E-02   -0.24206E-03 28744   0.197E-01    0.671E-02
DAV:  11    -0.104245695028E+04    0.58586E-03   -0.22973E-03 23752   0.138E-01    0.701E-02
DAV:  12    -0.104245646291E+04    0.48737E-03   -0.42443E-04 22936   0.878E-02    0.265E-02
DAV:  13    -0.104245624410E+04    0.21881E-03   -0.32529E-04 19912   0.831E-02    0.258E-02
DAV:  14    -0.104245623169E+04    0.12413E-04   -0.29346E-04 20752   0.509E-02
    352 T=   194. E= -.10523947E+04 F= -.10578823E+04 E0= -.10578823E+04  EK= 0.54877E+01 SP= 0.00E+00 SK= 0.00E+00
    353 T=   188. E= -.10523473E+04 F= -.10576683E+04 E0= -.10576683E+04  EK= 0.53210E+01 SP= 0.00E+00 SK= 0.00E+00
    354 T=   186. E= -.10522121E+04 F= -.10574835E+04 E0= -.10574835E+04  EK= 0.52713E+01 SP= 0.00E+00 SK= 0.00E+00
    355 T=   189. E= -.10521518E+04 F= -.10574979E+04 E0= -.10574979E+04  EK= 0.53462E+01 SP= 0.00E+00 SK= 0.00E+00
    356 T=   194. E= -.10521842E+04 F= -.10576806E+04 E0= -.10576806E+04  EK= 0.54964E+01 SP= 0.00E+00 SK= 0.00E+00
    357 T=   201. E= -.10522479E+04 F= -.10579285E+04 E0= -.10579285E+04  EK= 0.56806E+01 SP= 0.00E+00 SK= 0.00E+00
    358 T=   205. E= -.10523352E+04 F= -.10581317E+04 E0= -.10581317E+04  EK= 0.57965E+01 SP= 0.00E+00 SK= 0.00E+00
    359 T=   203. E= -.10524563E+04 F= -.10581929E+04 E0= -.10581929E+04  EK= 0.57367E+01 SP= 0.00E+00 SK= 0.00E+00
    360 T=   197. E= -.10525358E+04 F= -.10581220E+04 E0= -.10581220E+04  EK= 0.55862E+01 SP= 0.00E+00 SK= 0.00E+00
    361 T=   188. E= -.10526173E+04 F= -.10579453E+04 E0= -.10579453E+04  EK= 0.53280E+01 SP= 0.00E+00 SK= 0.00E+00
       N       E                     dE             d eps       ncg     rms          rms(c)
DAV:   1    -0.103716775985E+04    0.52885E+01   -0.23457E+03 20644   0.898E+01
DAV:   2    -0.104308451978E+04   -0.59168E+01   -0.59153E+01 25088   0.130E+01
DAV:   3    -0.104313869578E+04   -0.54176E-01   -0.54172E-01 25056   0.129E+00
DAV:   4    -0.104313984514E+04   -0.11494E-02   -0.11493E-02 25048   0.183E-01    0.102E+01
DAV:   5    -0.104226269004E+04    0.87716E+00   -0.19061E+00 25872   0.344E+00    0.545E+00
DAV:   6    -0.104225146157E+04    0.11228E-01   -0.11697E+00 25040   0.236E+00    0.175E+00
DAV:   7    -0.104228386139E+04   -0.32400E-01   -0.23650E-01 25512   0.116E+00    0.580E-01
DAV:   8    -0.104228299313E+04    0.86827E-03   -0.23387E-02 23960   0.365E-01    0.310E-01
DAV:   9    -0.104228195097E+04    0.10422E-02   -0.12568E-02 23760   0.257E-01    0.160E-01
DAV:  10    -0.104228092612E+04    0.10249E-02   -0.25196E-03 28344   0.168E-01    0.528E-02
DAV:  11    -0.104228062400E+04    0.30212E-03   -0.12243E-03 23704   0.891E-02    0.508E-02
DAV:  12    -0.104228032425E+04    0.29975E-03   -0.20327E-04 18200   0.724E-02    0.207E-02
DAV:  13    -0.104228019973E+04    0.12452E-03   -0.32907E-04 20976   0.680E-02    0.286E-02
DAV:  14    -0.104228018020E+04    0.19528E-04   -0.18717E-04 17752   0.392E-02
    362 T=   181. E= -.10525419E+04 F= -.10576741E+04 E0= -.10576741E+04  EK= 0.51323E+01 SP= 0.00E+00 SK= 0.00E+00
    363 T=   184. E= -.10525771E+04 F= -.10577740E+04 E0= -.10577740E+04  EK= 0.51969E+01 SP= 0.00E+00 SK= 0.00E+00
    364 T=   190. E= -.10525616E+04 F= -.10579356E+04 E0= -.10579356E+04  EK= 0.53740E+01 SP= 0.00E+00 SK= 0.00E+00
    365 T=   196. E= -.10525814E+04 F= -.10581313E+04 E0= -.10581313E+04  EK= 0.55500E+01 SP= 0.00E+00 SK= 0.00E+00
    366 T=   200. E= -.10525901E+04 F= -.10582387E+04 E0= -.10582387E+04  EK= 0.56485E+01 SP= 0.00E+00 SK= 0.00E+00
    367 T=   194. E= -.10527148E+04 F= -.10582002E+04 E0= -.10582002E+04  EK= 0.54854E+01 SP= 0.00E+00 SK= 0.00E+00
    368 T=   185. E= -.10527971E+04 F= -.10580317E+04 E0= -.10580317E+04  EK= 0.52346E+01 SP= 0.00E+00 SK= 0.00E+00
    369 T=   180. E= -.10527583E+04 F= -.10578538E+04 E0= -.10578538E+04  EK= 0.50955E+01 SP= 0.00E+00 SK= 0.00E+00
    370 T=   178. E= -.10527231E+04 F= -.10577598E+04 E0= -.10577598E+04  EK= 0.50367E+01 SP= 0.00E+00 SK= 0.00E+00
    371 T=   178. E= -.10527205E+04 F= -.10577661E+04 E0= -.10577661E+04  EK= 0.50456E+01 SP= 0.00E+00 SK= 0.00E+00
       N       E                     dE             d eps       ncg     rms          rms(c)
DAV:   1    -0.103789617711E+04    0.43840E+01   -0.20606E+03 20644   0.842E+01
DAV:   2    -0.104305236597E+04   -0.51562E+01   -0.51549E+01 25096   0.122E+01
DAV:   3    -0.104309921117E+04   -0.46845E-01   -0.46842E-01 24952   0.120E+00
DAV:   4    -0.104310020401E+04   -0.99284E-03   -0.99279E-03 25040   0.170E-01    0.971E+00
DAV:   5    -0.104231861290E+04    0.78159E+00   -0.18000E+00 25920   0.335E+00    0.521E+00
DAV:   6    -0.104234491831E+04   -0.26305E-01   -0.11014E+00 24944   0.218E+00    0.172E+00
DAV:   7    -0.104237796526E+04   -0.33047E-01   -0.21262E-01 25808   0.115E+00    0.554E-01
DAV:   8    -0.104237722386E+04    0.74140E-03   -0.25519E-02 24128   0.394E-01    0.284E-01
DAV:   9    -0.104237591174E+04    0.13121E-02   -0.12075E-02 23664   0.240E-01    0.154E-01
DAV:  10    -0.104237481989E+04    0.10918E-02   -0.24252E-03 28976   0.171E-01    0.544E-02
DAV:  11    -0.104237446546E+04    0.35444E-03   -0.13213E-03 23640   0.939E-02    0.554E-02
DAV:  12    -0.104237410331E+04    0.36214E-03   -0.17462E-04 17640   0.710E-02    0.217E-02
DAV:  13    -0.104237394750E+04    0.15581E-03   -0.39279E-04 21752   0.769E-02    0.271E-02
DAV:  14    -0.104237394115E+04    0.63495E-05   -0.25917E-04 19920   0.421E-02
    372 T=   182. E= -.10526388E+04 F= -.10577779E+04 E0= -.10577779E+04  EK= 0.51390E+01 SP= 0.00E+00 SK= 0.00E+00
    373 T=   187. E= -.10526841E+04 F= -.10579848E+04 E0= -.10579848E+04  EK= 0.53007E+01 SP= 0.00E+00 SK= 0.00E+00
    374 T=   192. E= -.10526057E+04 F= -.10580482E+04 E0= -.10580482E+04  EK= 0.54425E+01 SP= 0.00E+00 SK= 0.00E+00
    375 T=   193. E= -.10525538E+04 F= -.10580074E+04 E0= -.10580074E+04  EK= 0.54536E+01 SP= 0.00E+00 SK= 0.00E+00
    376 T=   188. E= -.10525757E+04 F= -.10579083E+04 E0= -.10579083E+04  EK= 0.53325E+01 SP= 0.00E+00 SK= 0.00E+00
    377 T=   187. E= -.10525578E+04 F= -.10578536E+04 E0= -.10578536E+04  EK= 0.52958E+01 SP= 0.00E+00 SK= 0.00E+00
    378 T=   191. E= -.10524971E+04 F= -.10579093E+04 E0= -.10579093E+04  EK= 0.54122E+01 SP= 0.00E+00 SK= 0.00E+00
    379 T=   197. E= -.10524571E+04 F= -.10580308E+04 E0= -.10580308E+04  EK= 0.55737E+01 SP= 0.00E+00 SK= 0.00E+00
    380 T=   202. E= -.10524174E+04 F= -.10581422E+04 E0= -.10581422E+04  EK= 0.57249E+01 SP= 0.00E+00 SK= 0.00E+00
    381 T=   205. E= -.10523902E+04 F= -.10581879E+04 E0= -.10581879E+04  EK= 0.57977E+01 SP= 0.00E+00 SK= 0.00E+00
    382 T=   205. E= -.10523702E+04 F= -.10581730E+04 E0= -.10581730E+04  EK= 0.58028E+01 SP= 0.00E+00 SK= 0.00E+00
    383 T=   205. E= -.10523743E+04 F= -.10581663E+04 E0= -.10581663E+04  EK= 0.57921E+01 SP= 0.00E+00 SK= 0.00E+00
    384 T=   202. E= -.10524337E+04 F= -.10581555E+04 E0= -.10581555E+04  EK= 0.57218E+01 SP= 0.00E+00 SK= 0.00E+00
    385 T=   201. E= -.10524080E+04 F= -.10581105E+04 E0= -.10581105E+04  EK= 0.57024E+01 SP= 0.00E+00 SK= 0.00E+00
    386 T=   203. E= -.10523567E+04 F= -.10580957E+04 E0= -.10580957E+04  EK= 0.57391E+01 SP= 0.00E+00 SK= 0.00E+00
    387 T=   202. E= -.10523826E+04 F= -.10580885E+04 E0= -.10580885E+04  EK= 0.57059E+01 SP= 0.00E+00 SK= 0.00E+00
    388 T=   201. E= -.10523769E+04 F= -.10580541E+04 E0= -.10580541E+04  EK= 0.56772E+01 SP= 0.00E+00 SK= 0.00E+00
    389 T=   201. E= -.10523337E+04 F= -.10580287E+04 E0= -.10580287E+04  EK= 0.56951E+01 SP= 0.00E+00 SK= 0.00E+00
    390 T=   199. E= -.10523393E+04 F= -.10579854E+04 E0= -.10579854E+04  EK= 0.56461E+01 SP= 0.00E+00 SK= 0.00E+00
    391 T=   198. E= -.10523661E+04 F= -.10579624E+04 E0= -.10579624E+04  EK= 0.55963E+01 SP= 0.00E+00 SK= 0.00E+00
    392 T=   199. E= -.10523549E+04 F= -.10579940E+04 E0= -.10579940E+04  EK= 0.56391E+01 SP= 0.00E+00 SK= 0.00E+00
    393 T=   204. E= -.10522846E+04 F= -.10580650E+04 E0= -.10580650E+04  EK= 0.57805E+01 SP= 0.00E+00 SK= 0.00E+00
    394 T=   210. E= -.10522067E+04 F= -.10581636E+04 E0= -.10581636E+04  EK= 0.59569E+01 SP= 0.00E+00 SK= 0.00E+00
    395 T=   214. E= -.10521790E+04 F= -.10582393E+04 E0= -.10582393E+04  EK= 0.60603E+01 SP= 0.00E+00 SK= 0.00E+00
    396 T=   216. E= -.10521518E+04 F= -.10582641E+04 E0= -.10582641E+04  EK= 0.61123E+01 SP= 0.00E+00 SK= 0.00E+00
    397 T=   219. E= -.10520801E+04 F= -.10582748E+04 E0= -.10582748E+04  EK= 0.61947E+01 SP= 0.00E+00 SK= 0.00E+00
    398 T=   220. E= -.10520096E+04 F= -.10582442E+04 E0= -.10582442E+04  EK= 0.62346E+01 SP= 0.00E+00 SK= 0.00E+00
    399 T=   221. E= -.10519234E+04 F= -.10581828E+04 E0= -.10581828E+04  EK= 0.62594E+01 SP= 0.00E+00 SK= 0.00E+00
    400 T=   221. E= -.10519252E+04 F= -.10581774E+04 E0= -.10581774E+04  EK= 0.62522E+01 SP= 0.00E+00 SK= 0.00E+00
    401 T=   217. E= -.10520961E+04 F= -.10582434E+04 E0= -.10582434E+04  EK= 0.61472E+01 SP= 0.00E+00 SK= 0.00E+00
    402 T=   215. E= -.10521854E+04 F= -.10582583E+04 E0= -.10582583E+04  EK= 0.60729E+01 SP= 0.00E+00 SK= 0.00E+00
    403 T=   212. E= -.10521973E+04 F= -.10581998E+04 E0= -.10581998E+04  EK= 0.60025E+01 SP= 0.00E+00 SK= 0.00E+00
    404 T=   205. E= -.10522644E+04 F= -.10580562E+04 E0= -.10580562E+04  EK= 0.57918E+01 SP= 0.00E+00 SK= 0.00E+00
    405 T=   197. E= -.10523076E+04 F= -.10578783E+04 E0= -.10578783E+04  EK= 0.55707E+01 SP= 0.00E+00 SK= 0.00E+00
    406 T=   196. E= -.10522571E+04 F= -.10577996E+04 E0= -.10577996E+04  EK= 0.55425E+01 SP= 0.00E+00 SK= 0.00E+00
    407 T=   201. E= -.10521624E+04 F= -.10578447E+04 E0= -.10578447E+04  EK= 0.56823E+01 SP= 0.00E+00 SK= 0.00E+00
    408 T=   207. E= -.10520817E+04 F= -.10579345E+04 E0= -.10579345E+04  EK= 0.58527E+01 SP= 0.00E+00 SK= 0.00E+00
    409 T=   210. E= -.10519884E+04 F= -.10579421E+04 E0= -.10579421E+04  EK= 0.59538E+01 SP= 0.00E+00 SK= 0.00E+00
       N       E                     dE             d eps       ncg     rms          rms(c)
DAV:   1    -0.927834784717E+03    0.11454E+03   -0.19666E+04 20644   0.251E+02
DAV:   2    -0.104618461629E+04   -0.11835E+03   -0.11815E+03 24624   0.541E+01
DAV:   3    -0.104761276636E+04   -0.14282E+01   -0.14278E+01 24920   0.645E+00
DAV:   4    -0.104763750912E+04   -0.24743E-01   -0.24739E-01 24832   0.841E-01    0.254E+01
DAV:   5    -0.104245971338E+04    0.51778E+01   -0.80293E+00 25136   0.661E+00    0.144E+01
DAV:   6    -0.104203961587E+04    0.42010E+00   -0.99858E+00 25088   0.662E+00    0.310E+00
DAV:   7    -0.104222584718E+04   -0.18623E+00   -0.16619E+00 24248   0.271E+00    0.153E+00
DAV:   8    -0.104223334657E+04   -0.74994E-02   -0.14583E-01 24360   0.748E-01    0.816E-01
DAV:   9    -0.104223066723E+04    0.26793E-02   -0.50941E-02 24312   0.615E-01    0.400E-01
DAV:  10    -0.104222768290E+04    0.29843E-02   -0.11633E-02 23984   0.349E-01    0.182E-01
DAV:  11    -0.104222696146E+04    0.72144E-03   -0.11376E-02 24848   0.256E-01    0.120E-01
DAV:  12    -0.104222601812E+04    0.94334E-03   -0.19715E-03 24360   0.144E-01    0.430E-02
DAV:  13    -0.104222544074E+04    0.57738E-03   -0.61074E-04 22456   0.129E-01    0.425E-02
DAV:  14    -0.104222529109E+04    0.14965E-03   -0.74103E-04 23408   0.998E-02    0.249E-02
DAV:  15    -0.104222531861E+04   -0.27516E-04   -0.44930E-04 23440   0.404E-02
    410 T=   208. E= -.10519292E+04 F= -.10578107E+04 E0= -.10578107E+04  EK= 0.58815E+01 SP= 0.00E+00 SK= 0.00E+00
    411 T=   202. E= -.10519839E+04 F= -.10577125E+04 E0= -.10577125E+04  EK= 0.57286E+01 SP= 0.00E+00 SK= 0.00E+00
    412 T=   200. E= -.10519646E+04 F= -.10576134E+04 E0= -.10576134E+04  EK= 0.56488E+01 SP= 0.00E+00 SK= 0.00E+00
    413 T=   199. E= -.10519283E+04 F= -.10575666E+04 E0= -.10575666E+04  EK= 0.56384E+01 SP= 0.00E+00 SK= 0.00E+00
    414 T=   201. E= -.10519413E+04 F= -.10576172E+04 E0= -.10576172E+04  EK= 0.56759E+01 SP= 0.00E+00 SK= 0.00E+00
    415 T=   205. E= -.10519200E+04 F= -.10577142E+04 E0= -.10577142E+04  EK= 0.57943E+01 SP= 0.00E+00 SK= 0.00E+00
    416 T=   208. E= -.10518798E+04 F= -.10577557E+04 E0= -.10577557E+04  EK= 0.58759E+01 SP= 0.00E+00 SK= 0.00E+00
    417 T=   204. E= -.10519311E+04 F= -.10576920E+04 E0= -.10576920E+04  EK= 0.57609E+01 SP= 0.00E+00 SK= 0.00E+00
    418 T=   195. E= -.10520348E+04 F= -.10575642E+04 E0= -.10575642E+04  EK= 0.55293E+01 SP= 0.00E+00 SK= 0.00E+00
    419 T=   189. E= -.10520885E+04 F= -.10574263E+04 E0= -.10574263E+04  EK= 0.53378E+01 SP= 0.00E+00 SK= 0.00E+00
    420 T=   187. E= -.10521019E+04 F= -.10573954E+04 E0= -.10573954E+04  EK= 0.52935E+01 SP= 0.00E+00 SK= 0.00E+00
    421 T=   191. E= -.10521180E+04 F= -.10575226E+04 E0= -.10575226E+04  EK= 0.54047E+01 SP= 0.00E+00 SK= 0.00E+00
    422 T=   196. E= -.10521315E+04 F= -.10576928E+04 E0= -.10576928E+04  EK= 0.55613E+01 SP= 0.00E+00 SK= 0.00E+00
    423 T=   200. E= -.10521679E+04 F= -.10578260E+04 E0= -.10578260E+04  EK= 0.56581E+01 SP= 0.00E+00 SK= 0.00E+00
    424 T=   200. E= -.10522263E+04 F= -.10578926E+04 E0= -.10578926E+04  EK= 0.56663E+01 SP= 0.00E+00 SK= 0.00E+00
    425 T=   198. E= -.10522600E+04 F= -.10578526E+04 E0= -.10578526E+04  EK= 0.55927E+01 SP= 0.00E+00 SK= 0.00E+00
    426 T=   193. E= -.10522887E+04 F= -.10577609E+04 E0= -.10577609E+04  EK= 0.54722E+01 SP= 0.00E+00 SK= 0.00E+00
    427 T=   191. E= -.10523097E+04 F= -.10577124E+04 E0= -.10577124E+04  EK= 0.54027E+01 SP= 0.00E+00 SK= 0.00E+00
    428 T=   192. E= -.10523240E+04 F= -.10577544E+04 E0= -.10577544E+04  EK= 0.54304E+01 SP= 0.00E+00 SK= 0.00E+00
    429 T=   197. E= -.10522786E+04 F= -.10578561E+04 E0= -.10578561E+04  EK= 0.55775E+01 SP= 0.00E+00 SK= 0.00E+00
    430 T=   200. E= -.10522707E+04 F= -.10579423E+04 E0= -.10579423E+04  EK= 0.56716E+01 SP= 0.00E+00 SK= 0.00E+00
    431 T=   199. E= -.10523123E+04 F= -.10579505E+04 E0= -.10579505E+04  EK= 0.56382E+01 SP= 0.00E+00 SK= 0.00E+00
       N       E                     dE             d eps       ncg     rms          rms(c)
DAV:   1    -0.101405295891E+04    0.28172E+02   -0.82517E+03 20644   0.166E+02
DAV:   2    -0.104426729823E+04   -0.30214E+02   -0.30200E+02 24920   0.281E+01
DAV:   3    -0.104454407446E+04   -0.27678E+00   -0.27674E+00 24904   0.294E+00
DAV:   4    -0.104454922786E+04   -0.51534E-02   -0.51529E-02 25056   0.393E-01    0.177E+01
DAV:   5    -0.104213931729E+04    0.24099E+01   -0.37366E+00 25192   0.463E+00    0.100E+01
DAV:   6    -0.104204552684E+04    0.93790E-01   -0.46625E+00 25216   0.475E+00    0.214E+00
DAV:   7    -0.104212593695E+04   -0.80410E-01   -0.85454E-01 24304   0.207E+00    0.106E+00
DAV:   8    -0.104212415914E+04    0.17778E-02   -0.86104E-02 24128   0.583E-01    0.587E-01
DAV:   9    -0.104211915221E+04    0.50069E-02   -0.24890E-02 24016   0.425E-01    0.283E-01
DAV:  10    -0.104211505528E+04    0.40969E-02   -0.55051E-03 24424   0.332E-01    0.143E-01
DAV:  11    -0.104211376743E+04    0.12878E-02   -0.10357E-02 24736   0.296E-01    0.139E-01
DAV:  12    -0.104211265352E+04    0.11139E-02   -0.28085E-03 23848   0.155E-01    0.530E-02
DAV:  13    -0.104211196881E+04    0.68471E-03   -0.77650E-04 23680   0.128E-01    0.476E-02
DAV:  14    -0.104211182602E+04    0.14279E-03   -0.63118E-04 23848   0.970E-02    0.375E-02
DAV:  15    -0.104211184802E+04   -0.22006E-04   -0.69748E-04 24616   0.531E-02
    432 T=   199. E= -.10522008E+04 F= -.10578208E+04 E0= -.10578208E+04  EK= 0.56200E+01 SP= 0.00E+00 SK= 0.00E+00
    433 T=   196. E= -.10522239E+04 F= -.10577617E+04 E0= -.10577617E+04  EK= 0.55378E+01 SP= 0.00E+00 SK= 0.00E+00
    434 T=   195. E= -.10521615E+04 F= -.10576814E+04 E0= -.10576814E+04  EK= 0.55199E+01 SP= 0.00E+00 SK= 0.00E+00
    435 T=   195. E= -.10521169E+04 F= -.10576464E+04 E0= -.10576464E+04  EK= 0.55295E+01 SP= 0.00E+00 SK= 0.00E+00
    436 T=   195. E= -.10521449E+04 F= -.10576636E+04 E0= -.10576636E+04  EK= 0.55187E+01 SP= 0.00E+00 SK= 0.00E+00
    437 T=   198. E= -.10521157E+04 F= -.10577294E+04 E0= -.10577294E+04  EK= 0.56137E+01 SP= 0.00E+00 SK= 0.00E+00
    438 T=   201. E= -.10520941E+04 F= -.10577812E+04 E0= -.10577812E+04  EK= 0.56871E+01 SP= 0.00E+00 SK= 0.00E+00
    439 T=   200. E= -.10520944E+04 F= -.10577549E+04 E0= -.10577549E+04  EK= 0.56605E+01 SP= 0.00E+00 SK= 0.00E+00
    440 T=   198. E= -.10520849E+04 F= -.10576956E+04 E0= -.10576956E+04  EK= 0.56107E+01 SP= 0.00E+00 SK= 0.00E+00
    441 T=   198. E= -.10520793E+04 F= -.10576726E+04 E0= -.10576726E+04  EK= 0.55933E+01 SP= 0.00E+00 SK= 0.00E+00
    442 T=   203. E= -.10519897E+04 F= -.10577349E+04 E0= -.10577349E+04  EK= 0.57452E+01 SP= 0.00E+00 SK= 0.00E+00
    443 T=   210. E= -.10518789E+04 F= -.10578266E+04 E0= -.10578266E+04  EK= 0.59477E+01 SP= 0.00E+00 SK= 0.00E+00
    444 T=   212. E= -.10518477E+04 F= -.10578625E+04 E0= -.10578625E+04  EK= 0.60148E+01 SP= 0.00E+00 SK= 0.00E+00
    445 T=   211. E= -.10518296E+04 F= -.10578060E+04 E0= -.10578060E+04  EK= 0.59763E+01 SP= 0.00E+00 SK= 0.00E+00
    446 T=   207. E= -.10518594E+04 F= -.10577076E+04 E0= -.10577076E+04  EK= 0.58481E+01 SP= 0.00E+00 SK= 0.00E+00
    447 T=   204. E= -.10519072E+04 F= -.10576788E+04 E0= -.10576788E+04  EK= 0.57716E+01 SP= 0.00E+00 SK= 0.00E+00
    448 T=   206. E= -.10518986E+04 F= -.10577403E+04 E0= -.10577403E+04  EK= 0.58416E+01 SP= 0.00E+00 SK= 0.00E+00
       N       E                     dE             d eps       ncg     rms          rms(c)
DAV:   1    -0.102645871909E+04    0.15653E+02   -0.55978E+03 20644   0.137E+02
DAV:   2    -0.104310624312E+04   -0.16648E+02   -0.16642E+02 24848   0.213E+01
DAV:   3    -0.104326008799E+04   -0.15384E+00   -0.15383E+00 24968   0.219E+00
DAV:   4    -0.104326322542E+04   -0.31374E-02   -0.31372E-02 25008   0.302E-01    0.143E+01
DAV:   5    -0.104198295394E+04    0.12803E+01   -0.20149E+00 25376   0.350E+00    0.819E+00
DAV:   6    -0.104202906596E+04   -0.46112E-01   -0.31098E+00 25112   0.374E+00    0.156E+00
DAV:   7    -0.104206610243E+04   -0.37036E-01   -0.50107E-01 23960   0.158E+00    0.709E-01
DAV:   8    -0.104206624288E+04   -0.14045E-03   -0.41617E-02 24352   0.409E-01    0.395E-01
DAV:   9    -0.104206511910E+04    0.11238E-02   -0.19265E-02 23688   0.360E-01    0.245E-01
DAV:  10    -0.104206349756E+04    0.16215E-02   -0.47885E-03 26848   0.224E-01    0.842E-02
DAV:  11    -0.104206325953E+04    0.23804E-03   -0.28462E-03 24240   0.122E-01    0.584E-02
DAV:  12    -0.104206296553E+04    0.29399E-03   -0.33031E-04 19888   0.600E-02    0.259E-02
DAV:  13    -0.104206282159E+04    0.14395E-03   -0.27314E-04 19880   0.566E-02    0.235E-02
DAV:  14    -0.104206279655E+04    0.25041E-04   -0.12473E-04 17368   0.348E-02
    449 T=   211. E= -.10518545E+04 F= -.10578320E+04 E0= -.10578320E+04  EK= 0.59774E+01 SP= 0.00E+00 SK= 0.00E+00
    450 T=   213. E= -.10519607E+04 F= -.10579777E+04 E0= -.10579777E+04  EK= 0.60169E+01 SP= 0.00E+00 SK= 0.00E+00
    451 T=   213. E= -.10519814E+04 F= -.10579984E+04 E0= -.10579984E+04  EK= 0.60170E+01 SP= 0.00E+00 SK= 0.00E+00
    452 T=   208. E= -.10520089E+04 F= -.10579070E+04 E0= -.10579070E+04  EK= 0.58982E+01 SP= 0.00E+00 SK= 0.00E+00
    453 T=   204. E= -.10519827E+04 F= -.10577624E+04 E0= -.10577624E+04  EK= 0.57797E+01 SP= 0.00E+00 SK= 0.00E+00
    454 T=   202. E= -.10519076E+04 F= -.10576368E+04 E0= -.10576368E+04  EK= 0.57292E+01 SP= 0.00E+00 SK= 0.00E+00
    455 T=   205. E= -.10518042E+04 F= -.10575987E+04 E0= -.10575987E+04  EK= 0.57945E+01 SP= 0.00E+00 SK= 0.00E+00
    456 T=   210. E= -.10517283E+04 F= -.10576695E+04 E0= -.10576695E+04  EK= 0.59412E+01 SP= 0.00E+00 SK= 0.00E+00
    457 T=   211. E= -.10516865E+04 F= -.10576687E+04 E0= -.10576687E+04  EK= 0.59821E+01 SP= 0.00E+00 SK= 0.00E+00
    458 T=   209. E= -.10516713E+04 F= -.10575824E+04 E0= -.10575824E+04  EK= 0.59110E+01 SP= 0.00E+00 SK= 0.00E+00
       N       E                     dE             d eps       ncg     rms          rms(c)
DAV:   1    -0.103635048966E+04    0.57123E+01   -0.25274E+03 20644   0.930E+01
DAV:   2    -0.104254526670E+04   -0.61948E+01   -0.61931E+01 25120   0.134E+01
DAV:   3    -0.104260220486E+04   -0.56938E-01   -0.56934E-01 25032   0.131E+00
DAV:   4    -0.104260340775E+04   -0.12029E-02   -0.12028E-02 25080   0.186E-01    0.102E+01
DAV:   5    -0.104166127145E+04    0.94214E+00   -0.18993E+00 25504   0.351E+00    0.554E+00
DAV:   6    -0.104163321002E+04    0.28061E-01   -0.13792E+00 25144   0.250E+00    0.174E+00
DAV:   7    -0.104165453498E+04   -0.21325E-01   -0.28974E-01 25048   0.145E+00    0.604E-01
DAV:   8    -0.104165109635E+04    0.34386E-02   -0.41771E-02 24056   0.508E-01    0.341E-01
DAV:   9    -0.104164789612E+04    0.32002E-02   -0.22892E-02 23736   0.324E-01    0.235E-01
DAV:  10    -0.104164545881E+04    0.24373E-02   -0.43148E-03 29696   0.246E-01    0.824E-02
DAV:  11    -0.104164469254E+04    0.76627E-03   -0.30810E-03 23744   0.160E-01    0.747E-02
DAV:  12    -0.104164407470E+04    0.61784E-03   -0.57118E-04 23632   0.109E-01    0.360E-02
DAV:  13    -0.104164375960E+04    0.31511E-03   -0.33930E-04 20768   0.101E-01    0.182E-02
DAV:  14    -0.104164377085E+04   -0.11256E-04   -0.47330E-04 24936   0.515E-02
    459 T=   205. E= -.10516366E+04 F= -.10574375E+04 E0= -.10574375E+04  EK= 0.58009E+01 SP= 0.00E+00 SK= 0.00E+00
    460 T=   203. E= -.10516409E+04 F= -.10573876E+04 E0= -.10573876E+04  EK= 0.57467E+01 SP= 0.00E+00 SK= 0.00E+00
    461 T=   204. E= -.10516169E+04 F= -.10573810E+04 E0= -.10573810E+04  EK= 0.57641E+01 SP= 0.00E+00 SK= 0.00E+00
    462 T=   204. E= -.10516735E+04 F= -.10574392E+04 E0= -.10574392E+04  EK= 0.57657E+01 SP= 0.00E+00 SK= 0.00E+00
    463 T=   204. E= -.10517456E+04 F= -.10575100E+04 E0= -.10575100E+04  EK= 0.57644E+01 SP= 0.00E+00 SK= 0.00E+00
    464 T=   204. E= -.10517129E+04 F= -.10574982E+04 E0= -.10574982E+04  EK= 0.57853E+01 SP= 0.00E+00 SK= 0.00E+00
    465 T=   202. E= -.10516557E+04 F= -.10573726E+04 E0= -.10573726E+04  EK= 0.57169E+01 SP= 0.00E+00 SK= 0.00E+00
    466 T=   201. E= -.10515316E+04 F= -.10572114E+04 E0= -.10572114E+04  EK= 0.56797E+01 SP= 0.00E+00 SK= 0.00E+00
    467 T=   200. E= -.10513995E+04 F= -.10570657E+04 E0= -.10570657E+04  EK= 0.56662E+01 SP= 0.00E+00 SK= 0.00E+00
    468 T=   200. E= -.10513372E+04 F= -.10569965E+04 E0= -.10569965E+04  EK= 0.56593E+01 SP= 0.00E+00 SK= 0.00E+00
    469 T=   204. E= -.10512555E+04 F= -.10570374E+04 E0= -.10570374E+04  EK= 0.57819E+01 SP= 0.00E+00 SK= 0.00E+00
    470 T=   212. E= -.10511550E+04 F= -.10571484E+04 E0= -.10571484E+04  EK= 0.59935E+01 SP= 0.00E+00 SK= 0.00E+00
    471 T=   216. E= -.10511662E+04 F= -.10572908E+04 E0= -.10572908E+04  EK= 0.61246E+01 SP= 0.00E+00 SK= 0.00E+00
    472 T=   219. E= -.10512011E+04 F= -.10573969E+04 E0= -.10573969E+04  EK= 0.61957E+01 SP= 0.00E+00 SK= 0.00E+00
    473 T=   219. E= -.10512125E+04 F= -.10574258E+04 E0= -.10574258E+04  EK= 0.62133E+01 SP= 0.00E+00 SK= 0.00E+00
    474 T=   217. E= -.10512455E+04 F= -.10573923E+04 E0= -.10573923E+04  EK= 0.61468E+01 SP= 0.00E+00 SK= 0.00E+00
    475 T=   216. E= -.10512603E+04 F= -.10573714E+04 E0= -.10573714E+04  EK= 0.61111E+01 SP= 0.00E+00 SK= 0.00E+00
    476 T=   218. E= -.10512752E+04 F= -.10574413E+04 E0= -.10574413E+04  EK= 0.61661E+01 SP= 0.00E+00 SK= 0.00E+00
    477 T=   220. E= -.10513024E+04 F= -.10575172E+04 E0= -.10575172E+04  EK= 0.62148E+01 SP= 0.00E+00 SK= 0.00E+00
    478 T=   223. E= -.10513150E+04 F= -.10576377E+04 E0= -.10576377E+04  EK= 0.63227E+01 SP= 0.00E+00 SK= 0.00E+00
    479 T=   228. E= -.10513423E+04 F= -.10577982E+04 E0= -.10577982E+04  EK= 0.64559E+01 SP= 0.00E+00 SK= 0.00E+00
    480 T=   233. E= -.10513290E+04 F= -.10579118E+04 E0= -.10579118E+04  EK= 0.65827E+01 SP= 0.00E+00 SK= 0.00E+00
    481 T=   236. E= -.10512700E+04 F= -.10579462E+04 E0= -.10579462E+04  EK= 0.66763E+01 SP= 0.00E+00 SK= 0.00E+00
    482 T=   233. E= -.10512427E+04 F= -.10578512E+04 E0= -.10578512E+04  EK= 0.66085E+01 SP= 0.00E+00 SK= 0.00E+00
    483 T=   226. E= -.10512583E+04 F= -.10576469E+04 E0= -.10576469E+04  EK= 0.63886E+01 SP= 0.00E+00 SK= 0.00E+00
    484 T=   220. E= -.10512509E+04 F= -.10574756E+04 E0= -.10574756E+04  EK= 0.62247E+01 SP= 0.00E+00 SK= 0.00E+00
    485 T=   218. E= -.10512336E+04 F= -.10574050E+04 E0= -.10574050E+04  EK= 0.61714E+01 SP= 0.00E+00 SK= 0.00E+00
    486 T=   220. E= -.10512385E+04 F= -.10574663E+04 E0= -.10574663E+04  EK= 0.62278E+01 SP= 0.00E+00 SK= 0.00E+00
    487 T=   223. E= -.10512893E+04 F= -.10575899E+04 E0= -.10575899E+04  EK= 0.63006E+01 SP= 0.00E+00 SK= 0.00E+00
    488 T=   224. E= -.10513826E+04 F= -.10577340E+04 E0= -.10577340E+04  EK= 0.63514E+01 SP= 0.00E+00 SK= 0.00E+00
    489 T=   223. E= -.10514112E+04 F= -.10577341E+04 E0= -.10577341E+04  EK= 0.63230E+01 SP= 0.00E+00 SK= 0.00E+00
    490 T=   217. E= -.10514198E+04 F= -.10575686E+04 E0= -.10575686E+04  EK= 0.61489E+01 SP= 0.00E+00 SK= 0.00E+00
    491 T=   212. E= -.10513714E+04 F= -.10573627E+04 E0= -.10573627E+04  EK= 0.59913E+01 SP= 0.00E+00 SK= 0.00E+00
    492 T=   210. E= -.10512644E+04 F= -.10572000E+04 E0= -.10572000E+04  EK= 0.59356E+01 SP= 0.00E+00 SK= 0.00E+00
       N       E                     dE             d eps       ncg     rms          rms(c)
DAV:   1    -0.965603683805E+03    0.76040E+02   -0.15806E+04 20644   0.227E+02
DAV:   2    -0.104427390863E+04   -0.78670E+02   -0.78603E+02 24688   0.447E+01
DAV:   3    -0.104512816870E+04   -0.85426E+00   -0.85408E+00 24960   0.518E+00
DAV:   4    -0.104514318827E+04   -0.15020E-01   -0.15018E-01 24912   0.679E-01    0.236E+01
DAV:   5    -0.104142434607E+04    0.37188E+01   -0.65089E+00 24872   0.573E+00    0.134E+01
DAV:   6    -0.104129923908E+04    0.12511E+00   -0.69602E+00 25216   0.572E+00    0.291E+00
DAV:   7    -0.104146286023E+04   -0.16362E+00   -0.11934E+00 24336   0.219E+00    0.136E+00
DAV:   8    -0.104146030631E+04    0.25539E-02   -0.10312E-01 24296   0.664E-01    0.592E-01
DAV:   9    -0.104145718076E+04    0.31256E-02   -0.17333E-02 24800   0.379E-01    0.241E-01
DAV:  10    -0.104145533495E+04    0.18458E-02   -0.68094E-03 23920   0.243E-01    0.988E-02
DAV:  11    -0.104145452546E+04    0.80949E-03   -0.28630E-03 24416   0.141E-01    0.724E-02
DAV:  12    -0.104145392869E+04    0.59677E-03   -0.44001E-04 22560   0.755E-02    0.316E-02
DAV:  13    -0.104145347293E+04    0.45576E-03   -0.45900E-04 22072   0.101E-01    0.297E-02
DAV:  14    -0.104145346354E+04    0.93850E-05   -0.54386E-04 23320   0.583E-02
    493 T=   210. E= -.10511122E+04 F= -.10570622E+04 E0= -.10570622E+04  EK= 0.59501E+01 SP= 0.00E+00 SK= 0.00E+00
    494 T=   215. E= -.10510804E+04 F= -.10571750E+04 E0= -.10571750E+04  EK= 0.60946E+01 SP= 0.00E+00 SK= 0.00E+00
    495 T=   217. E= -.10510929E+04 F= -.10572374E+04 E0= -.10572374E+04  EK= 0.61445E+01 SP= 0.00E+00 SK= 0.00E+00
    496 T=   214. E= -.10512058E+04 F= -.10572631E+04 E0= -.10572631E+04  EK= 0.60573E+01 SP= 0.00E+00 SK= 0.00E+00
    497 T=   211. E= -.10512861E+04 F= -.10572665E+04 E0= -.10572665E+04  EK= 0.59804E+01 SP= 0.00E+00 SK= 0.00E+00
    498 T=   207. E= -.10513744E+04 F= -.10572377E+04 E0= -.10572377E+04  EK= 0.58633E+01 SP= 0.00E+00 SK= 0.00E+00
    499 T=   202. E= -.10514379E+04 F= -.10571445E+04 E0= -.10571445E+04  EK= 0.57066E+01 SP= 0.00E+00 SK= 0.00E+00
    500 T=   200. E= -.10514067E+04 F= -.10570679E+04 E0= -.10570679E+04  EK= 0.56612E+01 SP= 0.00E+00 SK= 0.00E+00
    501 T=   202. E= -.10513423E+04 F= -.10570531E+04 E0= -.10570531E+04  EK= 0.57108E+01 SP= 0.00E+00 SK= 0.00E+00
    502 T=   202. E= -.10513635E+04 F= -.10570888E+04 E0= -.10570888E+04  EK= 0.57253E+01 SP= 0.00E+00 SK= 0.00E+00
    503 T=   203. E= -.10514108E+04 F= -.10571464E+04 E0= -.10571464E+04  EK= 0.57356E+01 SP= 0.00E+00 SK= 0.00E+00
    504 T=   203. E= -.10514598E+04 F= -.10572116E+04 E0= -.10572116E+04  EK= 0.57518E+01 SP= 0.00E+00 SK= 0.00E+00
    505 T=   206. E= -.10514581E+04 F= -.10573006E+04 E0= -.10573006E+04  EK= 0.58425E+01 SP= 0.00E+00 SK= 0.00E+00
    506 T=   209. E= -.10514757E+04 F= -.10573872E+04 E0= -.10573872E+04  EK= 0.59115E+01 SP= 0.00E+00 SK= 0.00E+00
    507 T=   208. E= -.10515171E+04 F= -.10574160E+04 E0= -.10574160E+04  EK= 0.58989E+01 SP= 0.00E+00 SK= 0.00E+00
    508 T=   206. E= -.10515632E+04 F= -.10573831E+04 E0= -.10573831E+04  EK= 0.58198E+01 SP= 0.00E+00 SK= 0.00E+00
    509 T=   203. E= -.10516159E+04 F= -.10573729E+04 E0= -.10573729E+04  EK= 0.57570E+01 SP= 0.00E+00 SK= 0.00E+00
    510 T=   204. E= -.10516522E+04 F= -.10574149E+04 E0= -.10574149E+04  EK= 0.57628E+01 SP= 0.00E+00 SK= 0.00E+00
    511 T=   205. E= -.10516803E+04 F= -.10574963E+04 E0= -.10574963E+04  EK= 0.58159E+01 SP= 0.00E+00 SK= 0.00E+00
    512 T=   207. E= -.10517518E+04 F= -.10576008E+04 E0= -.10576008E+04  EK= 0.58490E+01 SP= 0.00E+00 SK= 0.00E+00
    513 T=   203. E= -.10518999E+04 F= -.10576588E+04 E0= -.10576588E+04  EK= 0.57589E+01 SP= 0.00E+00 SK= 0.00E+00
    514 T=   201. E= -.10519502E+04 F= -.10576386E+04 E0= -.10576386E+04  EK= 0.56884E+01 SP= 0.00E+00 SK= 0.00E+00
    515 T=   198. E= -.10519594E+04 F= -.10575654E+04 E0= -.10575654E+04  EK= 0.56060E+01 SP= 0.00E+00 SK= 0.00E+00
    516 T=   193. E= -.10520003E+04 F= -.10574687E+04 E0= -.10574687E+04  EK= 0.54685E+01 SP= 0.00E+00 SK= 0.00E+00
    517 T=   194. E= -.10519650E+04 F= -.10574650E+04 E0= -.10574650E+04  EK= 0.55000E+01 SP= 0.00E+00 SK= 0.00E+00
    518 T=   199. E= -.10519411E+04 F= -.10575697E+04 E0= -.10575697E+04  EK= 0.56286E+01 SP= 0.00E+00 SK= 0.00E+00
    519 T=   206. E= -.10519268E+04 F= -.10577695E+04 E0= -.10577695E+04  EK= 0.58427E+01 SP= 0.00E+00 SK= 0.00E+00
    520 T=   215. E= -.10518652E+04 F= -.10579648E+04 E0= -.10579648E+04  EK= 0.60996E+01 SP= 0.00E+00 SK= 0.00E+00
    521 T=   218. E= -.10518713E+04 F= -.10580387E+04 E0= -.10580387E+04  EK= 0.61674E+01 SP= 0.00E+00 SK= 0.00E+00
    522 T=   213. E= -.10519071E+04 F= -.10579498E+04 E0= -.10579498E+04  EK= 0.60427E+01 SP= 0.00E+00 SK= 0.00E+00
    523 T=   206. E= -.10519521E+04 F= -.10577737E+04 E0= -.10577737E+04  EK= 0.58216E+01 SP= 0.00E+00 SK= 0.00E+00
    524 T=   201. E= -.10519319E+04 F= -.10576278E+04 E0= -.10576278E+04  EK= 0.56959E+01 SP= 0.00E+00 SK= 0.00E+00
    525 T=   202. E= -.10518827E+04 F= -.10576009E+04 E0= -.10576009E+04  EK= 0.57182E+01 SP= 0.00E+00 SK= 0.00E+00
    526 T=   205. E= -.10518635E+04 F= -.10576583E+04 E0= -.10576583E+04  EK= 0.57949E+01 SP= 0.00E+00 SK= 0.00E+00
    527 T=   209. E= -.10518445E+04 F= -.10577608E+04 E0= -.10577608E+04  EK= 0.59164E+01 SP= 0.00E+00 SK= 0.00E+00
    528 T=   212. E= -.10518909E+04 F= -.10578887E+04 E0= -.10578887E+04  EK= 0.59978E+01 SP= 0.00E+00 SK= 0.00E+00
    529 T=   214. E= -.10518968E+04 F= -.10579479E+04 E0= -.10579479E+04  EK= 0.60510E+01 SP= 0.00E+00 SK= 0.00E+00
    530 T=   213. E= -.10518506E+04 F= -.10578775E+04 E0= -.10578775E+04  EK= 0.60269E+01 SP= 0.00E+00 SK= 0.00E+00
    531 T=   208. E= -.10518229E+04 F= -.10577176E+04 E0= -.10577176E+04  EK= 0.58947E+01 SP= 0.00E+00 SK= 0.00E+00
    532 T=   205. E= -.10518119E+04 F= -.10576251E+04 E0= -.10576251E+04  EK= 0.58131E+01 SP= 0.00E+00 SK= 0.00E+00
    533 T=   207. E= -.10517860E+04 F= -.10576477E+04 E0= -.10576477E+04  EK= 0.58617E+01 SP= 0.00E+00 SK= 0.00E+00
    534 T=   213. E= -.10517935E+04 F= -.10578232E+04 E0= -.10578232E+04  EK= 0.60297E+01 SP= 0.00E+00 SK= 0.00E+00
    535 T=   221. E= -.10518238E+04 F= -.10580743E+04 E0= -.10580743E+04  EK= 0.62504E+01 SP= 0.00E+00 SK= 0.00E+00
    536 T=   224. E= -.10518801E+04 F= -.10582204E+04 E0= -.10582204E+04  EK= 0.63403E+01 SP= 0.00E+00 SK= 0.00E+00
    537 T=   220. E= -.10519886E+04 F= -.10582157E+04 E0= -.10582157E+04  EK= 0.62271E+01 SP= 0.00E+00 SK= 0.00E+00
    538 T=   213. E= -.10520536E+04 F= -.10580922E+04 E0= -.10580922E+04  EK= 0.60386E+01 SP= 0.00E+00 SK= 0.00E+00
    539 T=   208. E= -.10521192E+04 F= -.10579936E+04 E0= -.10579936E+04  EK= 0.58744E+01 SP= 0.00E+00 SK= 0.00E+00
    540 T=   205. E= -.10521421E+04 F= -.10579496E+04 E0= -.10579496E+04  EK= 0.58075E+01 SP= 0.00E+00 SK= 0.00E+00
    541 T=   206. E= -.10520722E+04 F= -.10579045E+04 E0= -.10579045E+04  EK= 0.58323E+01 SP= 0.00E+00 SK= 0.00E+00
    542 T=   204. E= -.10520642E+04 F= -.10578457E+04 E0= -.10578457E+04  EK= 0.57814E+01 SP= 0.00E+00 SK= 0.00E+00
    543 T=   201. E= -.10520905E+04 F= -.10577942E+04 E0= -.10577942E+04  EK= 0.57037E+01 SP= 0.00E+00 SK= 0.00E+00
    544 T=   199. E= -.10521412E+04 F= -.10577613E+04 E0= -.10577613E+04  EK= 0.56201E+01 SP= 0.00E+00 SK= 0.00E+00
    545 T=   193. E= -.10522258E+04 F= -.10576996E+04 E0= -.10576996E+04  EK= 0.54739E+01 SP= 0.00E+00 SK= 0.00E+00
    546 T=   191. E= -.10522067E+04 F= -.10576032E+04 E0= -.10576032E+04  EK= 0.53966E+01 SP= 0.00E+00 SK= 0.00E+00
    547 T=   193. E= -.10520834E+04 F= -.10575359E+04 E0= -.10575359E+04  EK= 0.54526E+01 SP= 0.00E+00 SK= 0.00E+00
    548 T=   197. E= -.10519641E+04 F= -.10575528E+04 E0= -.10575528E+04  EK= 0.55887E+01 SP= 0.00E+00 SK= 0.00E+00
    549 T=   201. E= -.10519355E+04 F= -.10576380E+04 E0= -.10576380E+04  EK= 0.57025E+01 SP= 0.00E+00 SK= 0.00E+00
    550 T=   202. E= -.10520050E+04 F= -.10577256E+04 E0= -.10577256E+04  EK= 0.57206E+01 SP= 0.00E+00 SK= 0.00E+00
    551 T=   201. E= -.10521184E+04 F= -.10578027E+04 E0= -.10578027E+04  EK= 0.56843E+01 SP= 0.00E+00 SK= 0.00E+00
    552 T=   201. E= -.10521399E+04 F= -.10578299E+04 E0= -.10578299E+04  EK= 0.56901E+01 SP= 0.00E+00 SK= 0.00E+00
    553 T=   202. E= -.10521282E+04 F= -.10578350E+04 E0= -.10578350E+04  EK= 0.57068E+01 SP= 0.00E+00 SK= 0.00E+00
    554 T=   201. E= -.10521233E+04 F= -.10578054E+04 E0= -.10578054E+04  EK= 0.56820E+01 SP= 0.00E+00 SK= 0.00E+00
    555 T=   201. E= -.10520887E+04 F= -.10577722E+04 E0= -.10577722E+04  EK= 0.56835E+01 SP= 0.00E+00 SK= 0.00E+00
    556 T=   199. E= -.10520642E+04 F= -.10576872E+04 E0= -.10576872E+04  EK= 0.56231E+01 SP= 0.00E+00 SK= 0.00E+00
    557 T=   194. E= -.10521220E+04 F= -.10576052E+04 E0= -.10576052E+04  EK= 0.54832E+01 SP= 0.00E+00 SK= 0.00E+00
    558 T=   187. E= -.10522235E+04 F= -.10575052E+04 E0= -.10575052E+04  EK= 0.52817E+01 SP= 0.00E+00 SK= 0.00E+00
    559 T=   185. E= -.10521925E+04 F= -.10574368E+04 E0= -.10574368E+04  EK= 0.52443E+01 SP= 0.00E+00 SK= 0.00E+00
    560 T=   190. E= -.10520697E+04 F= -.10574540E+04 E0= -.10574540E+04  EK= 0.53843E+01 SP= 0.00E+00 SK= 0.00E+00
    561 T=   198. E= -.10519198E+04 F= -.10575327E+04 E0= -.10575327E+04  EK= 0.56129E+01 SP= 0.00E+00 SK= 0.00E+00
    562 T=   205. E= -.10518203E+04 F= -.10576297E+04 E0= -.10576297E+04  EK= 0.58094E+01 SP= 0.00E+00 SK= 0.00E+00
    563 T=   204. E= -.10518844E+04 F= -.10576671E+04 E0= -.10576671E+04  EK= 0.57827E+01 SP= 0.00E+00 SK= 0.00E+00
    564 T=   203. E= -.10518878E+04 F= -.10576370E+04 E0= -.10576370E+04  EK= 0.57492E+01 SP= 0.00E+00 SK= 0.00E+00
    565 T=   204. E= -.10518368E+04 F= -.10576032E+04 E0= -.10576032E+04  EK= 0.57664E+01 SP= 0.00E+00 SK= 0.00E+00
    566 T=   205. E= -.10518048E+04 F= -.10576008E+04 E0= -.10576008E+04  EK= 0.57959E+01 SP= 0.00E+00 SK= 0.00E+00
    567 T=   211. E= -.10517189E+04 F= -.10577041E+04 E0= -.10577041E+04  EK= 0.59852E+01 SP= 0.00E+00 SK= 0.00E+00
    568 T=   217. E= -.10517159E+04 F= -.10578725E+04 E0= -.10578725E+04  EK= 0.61566E+01 SP= 0.00E+00 SK= 0.00E+00
       N       E                     dE             d eps       ncg     rms          rms(c)
DAV:   1    -0.780273699950E+03    0.26118E+03   -0.30978E+04 20644   0.309E+02
DAV:   2    -0.104415068282E+04   -0.26388E+03   -0.26257E+03 24488   0.791E+01
DAV:   3    -0.104851404877E+04   -0.43634E+01   -0.43614E+01 25040   0.113E+01
DAV:   4    -0.104858455178E+04   -0.70503E-01   -0.70490E-01 24472   0.140E+00    0.304E+01
DAV:   5    -0.104191209437E+04    0.66725E+01   -0.16904E+01 24840   0.821E+00    0.169E+01
DAV:   6    -0.104202293262E+04   -0.11084E+00   -0.82133E+00 25024   0.602E+00    0.536E+00
DAV:   7    -0.104244599336E+04   -0.42306E+00   -0.15866E+00 24176   0.275E+00    0.161E+00
DAV:   8    -0.104244940683E+04   -0.34135E-02   -0.15150E-01 23808   0.840E-01    0.735E-01
DAV:   9    -0.104244648943E+04    0.29174E-02   -0.41315E-02 24024   0.465E-01    0.231E-01
DAV:  10    -0.104244441831E+04    0.20711E-02   -0.75511E-03 25128   0.272E-01    0.128E-01
DAV:  11    -0.104244305983E+04    0.13585E-02   -0.43183E-03 23424   0.185E-01    0.940E-02
DAV:  12    -0.104244179933E+04    0.12605E-02   -0.99450E-04 23616   0.146E-01    0.365E-02
DAV:  13    -0.104244123761E+04    0.56172E-03   -0.83242E-04 22280   0.138E-01    0.412E-02
DAV:  14    -0.104244123773E+04   -0.12063E-06   -0.10701E-03 25168   0.825E-02    0.343E-02
DAV:  15    -0.104244123362E+04    0.41130E-05   -0.12264E-04 16456   0.217E-02
    569 T=   222. E= -.10517254E+04 F= -.10580184E+04 E0= -.10580184E+04  EK= 0.62930E+01 SP= 0.00E+00 SK= 0.00E+00
    570 T=   225. E= -.10516782E+04 F= -.10580548E+04 E0= -.10580548E+04  EK= 0.63765E+01 SP= 0.00E+00 SK= 0.00E+00
    571 T=   222. E= -.10516825E+04 F= -.10579610E+04 E0= -.10579610E+04  EK= 0.62785E+01 SP= 0.00E+00 SK= 0.00E+00
    572 T=   215. E= -.10517232E+04 F= -.10578129E+04 E0= -.10578129E+04  EK= 0.60898E+01 SP= 0.00E+00 SK= 0.00E+00
    573 T=   210. E= -.10517317E+04 F= -.10576635E+04 E0= -.10576635E+04  EK= 0.59318E+01 SP= 0.00E+00 SK= 0.00E+00
    574 T=   206. E= -.10517381E+04 F= -.10575816E+04 E0= -.10575816E+04  EK= 0.58435E+01 SP= 0.00E+00 SK= 0.00E+00
    575 T=   205. E= -.10517455E+04 F= -.10575598E+04 E0= -.10575598E+04  EK= 0.58144E+01 SP= 0.00E+00 SK= 0.00E+00
    576 T=   207. E= -.10517212E+04 F= -.10575927E+04 E0= -.10575927E+04  EK= 0.58715E+01 SP= 0.00E+00 SK= 0.00E+00
    577 T=   208. E= -.10517060E+04 F= -.10576001E+04 E0= -.10576001E+04  EK= 0.58941E+01 SP= 0.00E+00 SK= 0.00E+00
    578 T=   205. E= -.10517378E+04 F= -.10575511E+04 E0= -.10575511E+04  EK= 0.58133E+01 SP= 0.00E+00 SK= 0.00E+00
    579 T=   202. E= -.10517735E+04 F= -.10574839E+04 E0= -.10574839E+04  EK= 0.57104E+01 SP= 0.00E+00 SK= 0.00E+00
    580 T=   199. E= -.10517949E+04 F= -.10574370E+04 E0= -.10574370E+04  EK= 0.56421E+01 SP= 0.00E+00 SK= 0.00E+00
    581 T=   197. E= -.10518462E+04 F= -.10574190E+04 E0= -.10574190E+04  EK= 0.55728E+01 SP= 0.00E+00 SK= 0.00E+00
    582 T=   196. E= -.10518970E+04 F= -.10574325E+04 E0= -.10574325E+04  EK= 0.55355E+01 SP= 0.00E+00 SK= 0.00E+00
    583 T=   198. E= -.10518732E+04 F= -.10574738E+04 E0= -.10574738E+04  EK= 0.56006E+01 SP= 0.00E+00 SK= 0.00E+00
    584 T=   200. E= -.10518811E+04 F= -.10575435E+04 E0= -.10575435E+04  EK= 0.56624E+01 SP= 0.00E+00 SK= 0.00E+00
    585 T=   204. E= -.10518619E+04 F= -.10576250E+04 E0= -.10576250E+04  EK= 0.57631E+01 SP= 0.00E+00 SK= 0.00E+00
    586 T=   208. E= -.10518112E+04 F= -.10577024E+04 E0= -.10577024E+04  EK= 0.58911E+01 SP= 0.00E+00 SK= 0.00E+00
    587 T=   207. E= -.10518388E+04 F= -.10576956E+04 E0= -.10576956E+04  EK= 0.58567E+01 SP= 0.00E+00 SK= 0.00E+00
    588 T=   203. E= -.10518582E+04 F= -.10576134E+04 E0= -.10576134E+04  EK= 0.57553E+01 SP= 0.00E+00 SK= 0.00E+00
    589 T=   203. E= -.10517856E+04 F= -.10575223E+04 E0= -.10575223E+04  EK= 0.57366E+01 SP= 0.00E+00 SK= 0.00E+00
    590 T=   202. E= -.10517448E+04 F= -.10574719E+04 E0= -.10574719E+04  EK= 0.57272E+01 SP= 0.00E+00 SK= 0.00E+00
    591 T=   201. E= -.10518099E+04 F= -.10574994E+04 E0= -.10574994E+04  EK= 0.56895E+01 SP= 0.00E+00 SK= 0.00E+00
    592 T=   201. E= -.10518570E+04 F= -.10575562E+04 E0= -.10575562E+04  EK= 0.56992E+01 SP= 0.00E+00 SK= 0.00E+00
    593 T=   201. E= -.10519111E+04 F= -.10576083E+04 E0= -.10576083E+04  EK= 0.56972E+01 SP= 0.00E+00 SK= 0.00E+00
    594 T=   200. E= -.10519686E+04 F= -.10576429E+04 E0= -.10576429E+04  EK= 0.56742E+01 SP= 0.00E+00 SK= 0.00E+00
    595 T=   202. E= -.10519717E+04 F= -.10576910E+04 E0= -.10576910E+04  EK= 0.57193E+01 SP= 0.00E+00 SK= 0.00E+00
    596 T=   207. E= -.10518944E+04 F= -.10577664E+04 E0= -.10577664E+04  EK= 0.58720E+01 SP= 0.00E+00 SK= 0.00E+00
    597 T=   211. E= -.10518577E+04 F= -.10578232E+04 E0= -.10578232E+04  EK= 0.59655E+01 SP= 0.00E+00 SK= 0.00E+00
    598 T=   210. E= -.10519262E+04 F= -.10578808E+04 E0= -.10578808E+04  EK= 0.59547E+01 SP= 0.00E+00 SK= 0.00E+00
    599 T=   212. E= -.10519475E+04 F= -.10579459E+04 E0= -.10579459E+04  EK= 0.59984E+01 SP= 0.00E+00 SK= 0.00E+00
    600 T=   213. E= -.10519280E+04 F= -.10579634E+04 E0= -.10579634E+04  EK= 0.60353E+01 SP= 0.00E+00 SK= 0.00E+00
    601 T=   216. E= -.10518742E+04 F= -.10579749E+04 E0= -.10579749E+04  EK= 0.61007E+01 SP= 0.00E+00 SK= 0.00E+00
    602 T=   217. E= -.10518791E+04 F= -.10580206E+04 E0= -.10580206E+04  EK= 0.61415E+01 SP= 0.00E+00 SK= 0.00E+00
    603 T=   217. E= -.10519758E+04 F= -.10581116E+04 E0= -.10581116E+04  EK= 0.61357E+01 SP= 0.00E+00 SK= 0.00E+00
    604 T=   219. E= -.10520107E+04 F= -.10582179E+04 E0= -.10582179E+04  EK= 0.62071E+01 SP= 0.00E+00 SK= 0.00E+00
    605 T=   217. E= -.10520548E+04 F= -.10582040E+04 E0= -.10582040E+04  EK= 0.61493E+01 SP= 0.00E+00 SK= 0.00E+00
    606 T=   213. E= -.10520244E+04 F= -.10580589E+04 E0= -.10580589E+04  EK= 0.60345E+01 SP= 0.00E+00 SK= 0.00E+00
    607 T=   209. E= -.10519363E+04 F= -.10578487E+04 E0= -.10578487E+04  EK= 0.59123E+01 SP= 0.00E+00 SK= 0.00E+00
    608 T=   204. E= -.10519168E+04 F= -.10576961E+04 E0= -.10576961E+04  EK= 0.57793E+01 SP= 0.00E+00 SK= 0.00E+00
    609 T=   203. E= -.10518905E+04 F= -.10576234E+04 E0= -.10576234E+04  EK= 0.57329E+01 SP= 0.00E+00 SK= 0.00E+00
    610 T=   209. E= -.10518206E+04 F= -.10577320E+04 E0= -.10577320E+04  EK= 0.59114E+01 SP= 0.00E+00 SK= 0.00E+00
    611 T=   220. E= -.10517140E+04 F= -.10579551E+04 E0= -.10579551E+04  EK= 0.62411E+01 SP= 0.00E+00 SK= 0.00E+00
    612 T=   231. E= -.10515954E+04 F= -.10581392E+04 E0= -.10581392E+04  EK= 0.65438E+01 SP= 0.00E+00 SK= 0.00E+00
    613 T=   234. E= -.10515352E+04 F= -.10581595E+04 E0= -.10581595E+04  EK= 0.66244E+01 SP= 0.00E+00 SK= 0.00E+00
    614 T=   231. E= -.10514422E+04 F= -.10579675E+04 E0= -.10579675E+04  EK= 0.65253E+01 SP= 0.00E+00 SK= 0.00E+00
    615 T=   226. E= -.10513155E+04 F= -.10577070E+04 E0= -.10577070E+04  EK= 0.63914E+01 SP= 0.00E+00 SK= 0.00E+00
    616 T=   219. E= -.10513292E+04 F= -.10575195E+04 E0= -.10575195E+04  EK= 0.61903E+01 SP= 0.00E+00 SK= 0.00E+00
    617 T=   216. E= -.10514441E+04 F= -.10575521E+04 E0= -.10575521E+04  EK= 0.61080E+01 SP= 0.00E+00 SK= 0.00E+00
    618 T=   221. E= -.10515200E+04 F= -.10577861E+04 E0= -.10577861E+04  EK= 0.62661E+01 SP= 0.00E+00 SK= 0.00E+00
    619 T=   231. E= -.10515257E+04 F= -.10580520E+04 E0= -.10580520E+04  EK= 0.65263E+01 SP= 0.00E+00 SK= 0.00E+00
    620 T=   236. E= -.10514779E+04 F= -.10581673E+04 E0= -.10581673E+04  EK= 0.66893E+01 SP= 0.00E+00 SK= 0.00E+00
    621 T=   232. E= -.10514528E+04 F= -.10580203E+04 E0= -.10580203E+04  EK= 0.65675E+01 SP= 0.00E+00 SK= 0.00E+00
    622 T=   222. E= -.10514019E+04 F= -.10576792E+04 E0= -.10576792E+04  EK= 0.62773E+01 SP= 0.00E+00 SK= 0.00E+00
    623 T=   210. E= -.10513449E+04 F= -.10573006E+04 E0= -.10573006E+04  EK= 0.59557E+01 SP= 0.00E+00 SK= 0.00E+00
    624 T=   203. E= -.10513574E+04 F= -.10571155E+04 E0= -.10571155E+04  EK= 0.57581E+01 SP= 0.00E+00 SK= 0.00E+00
    625 T=   201. E= -.10515096E+04 F= -.10571932E+04 E0= -.10571932E+04  EK= 0.56836E+01 SP= 0.00E+00 SK= 0.00E+00
    626 T=   203. E= -.10517027E+04 F= -.10574356E+04 E0= -.10574356E+04  EK= 0.57330E+01 SP= 0.00E+00 SK= 0.00E+00
    627 T=   210. E= -.10517138E+04 F= -.10576477E+04 E0= -.10576477E+04  EK= 0.59339E+01 SP= 0.00E+00 SK= 0.00E+00
    628 T=   219. E= -.10515744E+04 F= -.10577753E+04 E0= -.10577753E+04  EK= 0.62010E+01 SP= 0.00E+00 SK= 0.00E+00
       N       E                     dE             d eps       ncg     rms          rms(c)
DAV:   1    -0.823979182960E+03    0.21846E+03   -0.28252E+04 20644   0.300E+02
DAV:   2    -0.104657830809E+04   -0.22260E+03   -0.21880E+03 25244   0.734E+01
DAV:   3    -0.105076848157E+04   -0.41902E+01   -0.41865E+01 24880   0.105E+01
DAV:   4    -0.105083000887E+04   -0.61527E-01   -0.61509E-01 24792   0.127E+00    0.304E+01
DAV:   5    -0.104209024015E+04    0.87398E+01   -0.14808E+01 24952   0.875E+00    0.168E+01
DAV:   6    -0.104148748455E+04    0.60276E+00   -0.13757E+01 25072   0.753E+00    0.441E+00
DAV:   7    -0.104183323773E+04   -0.34575E+00   -0.23345E+00 24512   0.342E+00    0.191E+00
DAV:   8    -0.104185544509E+04   -0.22207E-01   -0.21578E-01 24016   0.970E-01    0.965E-01
DAV:   9    -0.104185641329E+04   -0.96820E-03   -0.79444E-02 24336   0.688E-01    0.461E-01
DAV:  10    -0.104185304587E+04    0.33674E-02   -0.15991E-02 27368   0.400E-01    0.171E-01
DAV:  11    -0.104185253553E+04    0.51034E-03   -0.96010E-03 24840   0.217E-01    0.113E-01
DAV:  12    -0.104185153992E+04    0.99562E-03   -0.10560E-03 24168   0.120E-01    0.469E-02
DAV:  13    -0.104185103268E+04    0.50724E-03   -0.10296E-03 23032   0.119E-01    0.573E-02
DAV:  14    -0.104185083403E+04    0.19865E-03   -0.72200E-04 23256   0.983E-02    0.326E-02
DAV:  15    -0.104185084463E+04   -0.10600E-04   -0.41470E-04 24264   0.425E-02
    629 T=   220. E= -.10514437E+04 F= -.10576830E+04 E0= -.10576830E+04  EK= 0.62393E+01 SP= 0.00E+00 SK= 0.00E+00
    630 T=   211. E= -.10514600E+04 F= -.10574207E+04 E0= -.10574207E+04  EK= 0.59607E+01 SP= 0.00E+00 SK= 0.00E+00
    631 T=   199. E= -.10515392E+04 F= -.10571833E+04 E0= -.10571833E+04  EK= 0.56441E+01 SP= 0.00E+00 SK= 0.00E+00
    632 T=   197. E= -.10515807E+04 F= -.10571485E+04 E0= -.10571485E+04  EK= 0.55678E+01 SP= 0.00E+00 SK= 0.00E+00
    633 T=   207. E= -.10515612E+04 F= -.10574137E+04 E0= -.10574137E+04  EK= 0.58525E+01 SP= 0.00E+00 SK= 0.00E+00
    634 T=   222. E= -.10515434E+04 F= -.10578230E+04 E0= -.10578230E+04  EK= 0.62797E+01 SP= 0.00E+00 SK= 0.00E+00
    635 T=   228. E= -.10516013E+04 F= -.10580662E+04 E0= -.10580662E+04  EK= 0.64649E+01 SP= 0.00E+00 SK= 0.00E+00
    636 T=   223. E= -.10516786E+04 F= -.10579774E+04 E0= -.10579774E+04  EK= 0.62988E+01 SP= 0.00E+00 SK= 0.00E+00
    637 T=   212. E= -.10516640E+04 F= -.10576715E+04 E0= -.10576715E+04  EK= 0.60075E+01 SP= 0.00E+00 SK= 0.00E+00
    638 T=   202. E= -.10516676E+04 F= -.10573795E+04 E0= -.10573795E+04  EK= 0.57119E+01 SP= 0.00E+00 SK= 0.00E+00
    639 T=   197. E= -.10516732E+04 F= -.10572422E+04 E0= -.10572422E+04  EK= 0.55690E+01 SP= 0.00E+00 SK= 0.00E+00
    640 T=   197. E= -.10517525E+04 F= -.10573429E+04 E0= -.10573429E+04  EK= 0.55904E+01 SP= 0.00E+00 SK= 0.00E+00
    641 T=   203. E= -.10518249E+04 F= -.10575612E+04 E0= -.10575612E+04  EK= 0.57363E+01 SP= 0.00E+00 SK= 0.00E+00
    642 T=   213. E= -.10517638E+04 F= -.10577796E+04 E0= -.10577796E+04  EK= 0.60159E+01 SP= 0.00E+00 SK= 0.00E+00
    643 T=   219. E= -.10517061E+04 F= -.10579095E+04 E0= -.10579095E+04  EK= 0.62033E+01 SP= 0.00E+00 SK= 0.00E+00
    644 T=   220. E= -.10516144E+04 F= -.10578458E+04 E0= -.10578458E+04  EK= 0.62314E+01 SP= 0.00E+00 SK= 0.00E+00
       N       E                     dE             d eps       ncg     rms          rms(c)
DAV:   1    -0.102858729533E+04    0.13264E+02   -0.51361E+03 20644   0.132E+02
DAV:   2    -0.104264222825E+04   -0.14055E+02   -0.14050E+02 24936   0.199E+01
DAV:   3    -0.104276941522E+04   -0.12719E+00   -0.12718E+00 24952   0.198E+00
DAV:   4    -0.104277196516E+04   -0.25499E-02   -0.25498E-02 25104   0.272E-01    0.137E+01
DAV:   5    -0.104150971410E+04    0.12623E+01   -0.21056E+00 24480   0.340E+00    0.780E+00
DAV:   6    -0.104153068929E+04   -0.20975E-01   -0.27012E+00 25120   0.351E+00    0.160E+00
DAV:   7    -0.104157856786E+04   -0.47879E-01   -0.43657E-01 24248   0.138E+00    0.791E-01
DAV:   8    -0.104157849665E+04    0.71216E-04   -0.41049E-02 24384   0.411E-01    0.368E-01
DAV:   9    -0.104157669382E+04    0.18028E-02   -0.70846E-03 25944   0.266E-01    0.163E-01
DAV:  10    -0.104157550167E+04    0.11921E-02   -0.26322E-03 24104   0.195E-01    0.760E-02
DAV:  11    -0.104157499146E+04    0.51022E-03   -0.24111E-03 24712   0.148E-01    0.649E-02
DAV:  12    -0.104157466745E+04    0.32400E-03   -0.43279E-04 21944   0.702E-02    0.332E-02
DAV:  13    -0.104157433210E+04    0.33535E-03   -0.35615E-04 21024   0.987E-02    0.237E-02
DAV:  14    -0.104157432721E+04    0.48861E-05   -0.36105E-04 22464   0.455E-02
    645 T=   215. E= -.10514511E+04 F= -.10575437E+04 E0= -.10575437E+04  EK= 0.60926E+01 SP= 0.00E+00 SK= 0.00E+00
    646 T=   207. E= -.10514352E+04 F= -.10573064E+04 E0= -.10573064E+04  EK= 0.58713E+01 SP= 0.00E+00 SK= 0.00E+00
    647 T=   203. E= -.10514675E+04 F= -.10572099E+04 E0= -.10572099E+04  EK= 0.57424E+01 SP= 0.00E+00 SK= 0.00E+00
    648 T=   208. E= -.10514983E+04 F= -.10573775E+04 E0= -.10573775E+04  EK= 0.58792E+01 SP= 0.00E+00 SK= 0.00E+00
    649 T=   215. E= -.10515887E+04 F= -.10576812E+04 E0= -.10576812E+04  EK= 0.60925E+01 SP= 0.00E+00 SK= 0.00E+00
    650 T=   218. E= -.10517464E+04 F= -.10579170E+04 E0= -.10579170E+04  EK= 0.61706E+01 SP= 0.00E+00 SK= 0.00E+00
    651 T=   217. E= -.10517810E+04 F= -.10579263E+04 E0= -.10579263E+04  EK= 0.61453E+01 SP= 0.00E+00 SK= 0.00E+00
    652 T=   212. E= -.10516807E+04 F= -.10576849E+04 E0= -.10576849E+04  EK= 0.60042E+01 SP= 0.00E+00 SK= 0.00E+00
    653 T=   204. E= -.10515779E+04 F= -.10573595E+04 E0= -.10573595E+04  EK= 0.57816E+01 SP= 0.00E+00 SK= 0.00E+00
    654 T=   199. E= -.10515017E+04 F= -.10571401E+04 E0= -.10571401E+04  EK= 0.56384E+01 SP= 0.00E+00 SK= 0.00E+00
    655 T=   204. E= -.10513831E+04 F= -.10571532E+04 E0= -.10571532E+04  EK= 0.57701E+01 SP= 0.00E+00 SK= 0.00E+00
    656 T=   210. E= -.10514138E+04 F= -.10573452E+04 E0= -.10573452E+04  EK= 0.59313E+01 SP= 0.00E+00 SK= 0.00E+00
    657 T=   217. E= -.10514883E+04 F= -.10576336E+04 E0= -.10576336E+04  EK= 0.61454E+01 SP= 0.00E+00 SK= 0.00E+00
    658 T=   226. E= -.10514561E+04 F= -.10578547E+04 E0= -.10578547E+04  EK= 0.63986E+01 SP= 0.00E+00 SK= 0.00E+00
    659 T=   228. E= -.10514210E+04 F= -.10578822E+04 E0= -.10578822E+04  EK= 0.64612E+01 SP= 0.00E+00 SK= 0.00E+00
    660 T=   221. E= -.10514311E+04 F= -.10576910E+04 E0= -.10576910E+04  EK= 0.62599E+01 SP= 0.00E+00 SK= 0.00E+00
    661 T=   206. E= -.10515304E+04 F= -.10573482E+04 E0= -.10573482E+04  EK= 0.58178E+01 SP= 0.00E+00 SK= 0.00E+00
    662 T=   196. E= -.10515875E+04 F= -.10571459E+04 E0= -.10571459E+04  EK= 0.55583E+01 SP= 0.00E+00 SK= 0.00E+00
    663 T=   203. E= -.10515135E+04 F= -.10572536E+04 E0= -.10572536E+04  EK= 0.57401E+01 SP= 0.00E+00 SK= 0.00E+00
    664 T=   216. E= -.10514511E+04 F= -.10575551E+04 E0= -.10575551E+04  EK= 0.61040E+01 SP= 0.00E+00 SK= 0.00E+00
    665 T=   228. E= -.10513658E+04 F= -.10578132E+04 E0= -.10578132E+04  EK= 0.64474E+01 SP= 0.00E+00 SK= 0.00E+00
    666 T=   234. E= -.10512356E+04 F= -.10578679E+04 E0= -.10578679E+04  EK= 0.66323E+01 SP= 0.00E+00 SK= 0.00E+00
    667 T=   227. E= -.10512379E+04 F= -.10576733E+04 E0= -.10576733E+04  EK= 0.64354E+01 SP= 0.00E+00 SK= 0.00E+00
    668 T=   216. E= -.10513136E+04 F= -.10574227E+04 E0= -.10574227E+04  EK= 0.61091E+01 SP= 0.00E+00 SK= 0.00E+00
    669 T=   209. E= -.10513839E+04 F= -.10572874E+04 E0= -.10572874E+04  EK= 0.59035E+01 SP= 0.00E+00 SK= 0.00E+00
    670 T=   207. E= -.10514834E+04 F= -.10573465E+04 E0= -.10573465E+04  EK= 0.58631E+01 SP= 0.00E+00 SK= 0.00E+00
    671 T=   214. E= -.10514670E+04 F= -.10575179E+04 E0= -.10575179E+04  EK= 0.60509E+01 SP= 0.00E+00 SK= 0.00E+00
    672 T=   225. E= -.10513244E+04 F= -.10576800E+04 E0= -.10576800E+04  EK= 0.63556E+01 SP= 0.00E+00 SK= 0.00E+00
    673 T=   231. E= -.10512074E+04 F= -.10577405E+04 E0= -.10577405E+04  EK= 0.65330E+01 SP= 0.00E+00 SK= 0.00E+00
    674 T=   231. E= -.10511764E+04 F= -.10577092E+04 E0= -.10577092E+04  EK= 0.65328E+01 SP= 0.00E+00 SK= 0.00E+00
    675 T=   225. E= -.10512316E+04 F= -.10575999E+04 E0= -.10575999E+04  EK= 0.63683E+01 SP= 0.00E+00 SK= 0.00E+00
    676 T=   217. E= -.10513564E+04 F= -.10575083E+04 E0= -.10575083E+04  EK= 0.61519E+01 SP= 0.00E+00 SK= 0.00E+00
    677 T=   212. E= -.10514857E+04 F= -.10574761E+04 E0= -.10574761E+04  EK= 0.59903E+01 SP= 0.00E+00 SK= 0.00E+00
    678 T=   211. E= -.10515781E+04 F= -.10575430E+04 E0= -.10575430E+04  EK= 0.59650E+01 SP= 0.00E+00 SK= 0.00E+00
    679 T=   210. E= -.10517100E+04 F= -.10576437E+04 E0= -.10576437E+04  EK= 0.59336E+01 SP= 0.00E+00 SK= 0.00E+00
    680 T=   210. E= -.10518146E+04 F= -.10577509E+04 E0= -.10577509E+04  EK= 0.59362E+01 SP= 0.00E+00 SK= 0.00E+00
    681 T=   211. E= -.10518236E+04 F= -.10577896E+04 E0= -.10577896E+04  EK= 0.59660E+01 SP= 0.00E+00 SK= 0.00E+00
    682 T=   211. E= -.10518242E+04 F= -.10577871E+04 E0= -.10577871E+04  EK= 0.59629E+01 SP= 0.00E+00 SK= 0.00E+00
    683 T=   209. E= -.10518613E+04 F= -.10577689E+04 E0= -.10577689E+04  EK= 0.59076E+01 SP= 0.00E+00 SK= 0.00E+00
    684 T=   209. E= -.10518702E+04 F= -.10577768E+04 E0= -.10577768E+04  EK= 0.59065E+01 SP= 0.00E+00 SK= 0.00E+00
    685 T=   209. E= -.10519038E+04 F= -.10578102E+04 E0= -.10578102E+04  EK= 0.59064E+01 SP= 0.00E+00 SK= 0.00E+00
    686 T=   210. E= -.10519081E+04 F= -.10578627E+04 E0= -.10578627E+04  EK= 0.59546E+01 SP= 0.00E+00 SK= 0.00E+00
    687 T=   216. E= -.10518039E+04 F= -.10579094E+04 E0= -.10579094E+04  EK= 0.61054E+01 SP= 0.00E+00 SK= 0.00E+00
    688 T=   219. E= -.10517237E+04 F= -.10579222E+04 E0= -.10579222E+04  EK= 0.61985E+01 SP= 0.00E+00 SK= 0.00E+00
    689 T=   219. E= -.10516967E+04 F= -.10578930E+04 E0= -.10578930E+04  EK= 0.61964E+01 SP= 0.00E+00 SK= 0.00E+00
       N       E                     dE             d eps       ncg     rms          rms(c)
DAV:   1    -0.930337678004E+03    0.11124E+03   -0.20267E+04 20644   0.256E+02
DAV:   2    -0.104487435988E+04   -0.11454E+03   -0.11441E+03 24680   0.536E+01
DAV:   3    -0.104618987380E+04   -0.13155E+01   -0.13152E+01 24896   0.635E+00
DAV:   4    -0.104621254968E+04   -0.22676E-01   -0.22672E-01 24872   0.823E-01    0.256E+01
DAV:   5    -0.104174524680E+04    0.44673E+01   -0.68412E+00 24776   0.605E+00    0.147E+01
DAV:   6    -0.104149460505E+04    0.25064E+00   -0.98798E+00 25192   0.655E+00    0.277E+00
DAV:   7    -0.104165202895E+04   -0.15742E+00   -0.16178E+00 23992   0.268E+00    0.141E+00
DAV:   8    -0.104166186942E+04   -0.98405E-02   -0.12904E-01 24480   0.713E-01    0.766E-01
DAV:   9    -0.104166298478E+04   -0.11154E-02   -0.60019E-02 24216   0.645E-01    0.425E-01
DAV:  10    -0.104166066285E+04    0.23219E-02   -0.14275E-02 24680   0.349E-01    0.167E-01
DAV:  11    -0.104166062275E+04    0.40094E-04   -0.89629E-03 24824   0.202E-01    0.931E-02
DAV:  12    -0.104166031852E+04    0.30423E-03   -0.10186E-03 23424   0.972E-02    0.332E-02
DAV:  13    -0.104166020450E+04    0.11403E-03   -0.45738E-04 22640   0.643E-02    0.343E-02
DAV:  14    -0.104166012471E+04    0.79790E-04   -0.11877E-04 16816   0.466E-02
    690 T=   217. E= -.10517120E+04 F= -.10578454E+04 E0= -.10578454E+04  EK= 0.61334E+01 SP= 0.00E+00 SK= 0.00E+00
    691 T=   212. E= -.10518436E+04 F= -.10578440E+04 E0= -.10578440E+04  EK= 0.60004E+01 SP= 0.00E+00 SK= 0.00E+00
    692 T=   209. E= -.10519084E+04 F= -.10578236E+04 E0= -.10578236E+04  EK= 0.59152E+01 SP= 0.00E+00 SK= 0.00E+00
    693 T=   208. E= -.10519654E+04 F= -.10578542E+04 E0= -.10578542E+04  EK= 0.58888E+01 SP= 0.00E+00 SK= 0.00E+00
    694 T=   205. E= -.10520489E+04 F= -.10578641E+04 E0= -.10578641E+04  EK= 0.58152E+01 SP= 0.00E+00 SK= 0.00E+00
    695 T=   202. E= -.10521185E+04 F= -.10578329E+04 E0= -.10578329E+04  EK= 0.57144E+01 SP= 0.00E+00 SK= 0.00E+00
    696 T=   201. E= -.10520675E+04 F= -.10577538E+04 E0= -.10577538E+04  EK= 0.56863E+01 SP= 0.00E+00 SK= 0.00E+00
    697 T=   199. E= -.10520091E+04 F= -.10576474E+04 E0= -.10576474E+04  EK= 0.56383E+01 SP= 0.00E+00 SK= 0.00E+00
    698 T=   197. E= -.10520312E+04 F= -.10576186E+04 E0= -.10576186E+04  EK= 0.55873E+01 SP= 0.00E+00 SK= 0.00E+00
    699 T=   198. E= -.10520791E+04 F= -.10576792E+04 E0= -.10576792E+04  EK= 0.56001E+01 SP= 0.00E+00 SK= 0.00E+00
    700 T=   203. E= -.10520490E+04 F= -.10577916E+04 E0= -.10577916E+04  EK= 0.57426E+01 SP= 0.00E+00 SK= 0.00E+00
    701 T=   209. E= -.10519527E+04 F= -.10578725E+04 E0= -.10578725E+04  EK= 0.59199E+01 SP= 0.00E+00 SK= 0.00E+00
    702 T=   212. E= -.10518643E+04 F= -.10578636E+04 E0= -.10578636E+04  EK= 0.59992E+01 SP= 0.00E+00 SK= 0.00E+00
    703 T=   207. E= -.10518854E+04 F= -.10577576E+04 E0= -.10577576E+04  EK= 0.58722E+01 SP= 0.00E+00 SK= 0.00E+00
    704 T=   203. E= -.10518938E+04 F= -.10576522E+04 E0= -.10576522E+04  EK= 0.57584E+01 SP= 0.00E+00 SK= 0.00E+00
    705 T=   201. E= -.10519035E+04 F= -.10575932E+04 E0= -.10575932E+04  EK= 0.56897E+01 SP= 0.00E+00 SK= 0.00E+00
    706 T=   201. E= -.10519361E+04 F= -.10576335E+04 E0= -.10576335E+04  EK= 0.56974E+01 SP= 0.00E+00 SK= 0.00E+00
    707 T=   205. E= -.10519052E+04 F= -.10577176E+04 E0= -.10577176E+04  EK= 0.58125E+01 SP= 0.00E+00 SK= 0.00E+00
    708 T=   210. E= -.10518587E+04 F= -.10578168E+04 E0= -.10578168E+04  EK= 0.59580E+01 SP= 0.00E+00 SK= 0.00E+00
    709 T=   213. E= -.10518567E+04 F= -.10578729E+04 E0= -.10578729E+04  EK= 0.60162E+01 SP= 0.00E+00 SK= 0.00E+00
    710 T=   211. E= -.10518412E+04 F= -.10578020E+04 E0= -.10578020E+04  EK= 0.59608E+01 SP= 0.00E+00 SK= 0.00E+00
    711 T=   209. E= -.10517816E+04 F= -.10577071E+04 E0= -.10577071E+04  EK= 0.59255E+01 SP= 0.00E+00 SK= 0.00E+00
    712 T=   208. E= -.10517498E+04 F= -.10576321E+04 E0= -.10576321E+04  EK= 0.58823E+01 SP= 0.00E+00 SK= 0.00E+00
    713 T=   210. E= -.10517289E+04 F= -.10576695E+04 E0= -.10576695E+04  EK= 0.59406E+01 SP= 0.00E+00 SK= 0.00E+00
    714 T=   215. E= -.10517413E+04 F= -.10578178E+04 E0= -.10578178E+04  EK= 0.60765E+01 SP= 0.00E+00 SK= 0.00E+00
    715 T=   222. E= -.10516845E+04 F= -.10579578E+04 E0= -.10579578E+04  EK= 0.62733E+01 SP= 0.00E+00 SK= 0.00E+00
    716 T=   226. E= -.10515833E+04 F= -.10579826E+04 E0= -.10579826E+04  EK= 0.63993E+01 SP= 0.00E+00 SK= 0.00E+00
    717 T=   223. E= -.10515846E+04 F= -.10578836E+04 E0= -.10578836E+04  EK= 0.62991E+01 SP= 0.00E+00 SK= 0.00E+00
    718 T=   219. E= -.10515468E+04 F= -.10577490E+04 E0= -.10577490E+04  EK= 0.62021E+01 SP= 0.00E+00 SK= 0.00E+00
    719 T=   216. E= -.10515336E+04 F= -.10576461E+04 E0= -.10576461E+04  EK= 0.61125E+01 SP= 0.00E+00 SK= 0.00E+00
    720 T=   215. E= -.10515546E+04 F= -.10576499E+04 E0= -.10576499E+04  EK= 0.60953E+01 SP= 0.00E+00 SK= 0.00E+00
    721 T=   217. E= -.10516134E+04 F= -.10577675E+04 E0= -.10577675E+04  EK= 0.61541E+01 SP= 0.00E+00 SK= 0.00E+00
    722 T=   222. E= -.10516844E+04 F= -.10579607E+04 E0= -.10579607E+04  EK= 0.62763E+01 SP= 0.00E+00 SK= 0.00E+00
    723 T=   227. E= -.10517005E+04 F= -.10581193E+04 E0= -.10581193E+04  EK= 0.64188E+01 SP= 0.00E+00 SK= 0.00E+00
    724 T=   228. E= -.10517240E+04 F= -.10581657E+04 E0= -.10581657E+04  EK= 0.64417E+01 SP= 0.00E+00 SK= 0.00E+00
    725 T=   225. E= -.10517140E+04 F= -.10580850E+04 E0= -.10580850E+04  EK= 0.63709E+01 SP= 0.00E+00 SK= 0.00E+00
    726 T=   222. E= -.10516469E+04 F= -.10579363E+04 E0= -.10579363E+04  EK= 0.62895E+01 SP= 0.00E+00 SK= 0.00E+00
    727 T=   222. E= -.10515323E+04 F= -.10578272E+04 E0= -.10578272E+04  EK= 0.62948E+01 SP= 0.00E+00 SK= 0.00E+00
    728 T=   227. E= -.10514267E+04 F= -.10578660E+04 E0= -.10578660E+04  EK= 0.64394E+01 SP= 0.00E+00 SK= 0.00E+00
    729 T=   231. E= -.10515052E+04 F= -.10580349E+04 E0= -.10580349E+04  EK= 0.65297E+01 SP= 0.00E+00 SK= 0.00E+00
       N       E                     dE             d eps       ncg     rms          rms(c)
DAV:   1    -0.947003021979E+03    0.94657E+02   -0.17158E+04 20644   0.235E+02
DAV:   2    -0.104448769172E+04   -0.97485E+02   -0.97376E+02 24760   0.497E+01
DAV:   3    -0.104562259221E+04   -0.11349E+01   -0.11346E+01 24912   0.587E+00
DAV:   4    -0.104564236813E+04   -0.19776E-01   -0.19773E-01 24952   0.772E-01    0.239E+01
DAV:   5    -0.104193263367E+04    0.37097E+01   -0.83002E+00 24864   0.623E+00    0.134E+01
DAV:   6    -0.104205276005E+04   -0.12013E+00   -0.60636E+00 24992   0.519E+00    0.360E+00
DAV:   7    -0.104226663007E+04   -0.21387E+00   -0.10321E+00 24440   0.221E+00    0.130E+00
DAV:   8    -0.104226817318E+04   -0.15431E-02   -0.10605E-01 24376   0.709E-01    0.557E-01
DAV:   9    -0.104226544582E+04    0.27274E-02   -0.20275E-02 24448   0.385E-01    0.209E-01
DAV:  10    -0.104226396805E+04    0.14778E-02   -0.53755E-03 25112   0.245E-01    0.106E-01
DAV:  11    -0.104226304484E+04    0.92321E-03   -0.30665E-03 24632   0.173E-01    0.808E-02
DAV:  12    -0.104226214632E+04    0.89852E-03   -0.62937E-04 23832   0.139E-01    0.319E-02
DAV:  13    -0.104226174412E+04    0.40220E-03   -0.67389E-04 22896   0.128E-01    0.395E-02
DAV:  14    -0.104226177043E+04   -0.26309E-04   -0.10926E-03 25104   0.821E-02    0.372E-02
DAV:  15    -0.104226176508E+04    0.53492E-05   -0.13373E-04 16064   0.221E-02
    730 T=   232. E= -.10516212E+04 F= -.10581815E+04 E0= -.10581815E+04  EK= 0.65603E+01 SP= 0.00E+00 SK= 0.00E+00
    731 T=   232. E= -.10516253E+04 F= -.10582068E+04 E0= -.10582068E+04  EK= 0.65815E+01 SP= 0.00E+00 SK= 0.00E+00
    732 T=   226. E= -.10517127E+04 F= -.10581068E+04 E0= -.10581068E+04  EK= 0.63941E+01 SP= 0.00E+00 SK= 0.00E+00
    733 T=   216. E= -.10517994E+04 F= -.10579080E+04 E0= -.10579080E+04  EK= 0.61086E+01 SP= 0.00E+00 SK= 0.00E+00
    734 T=   210. E= -.10517912E+04 F= -.10577231E+04 E0= -.10577231E+04  EK= 0.59319E+01 SP= 0.00E+00 SK= 0.00E+00
    735 T=   210. E= -.10517193E+04 F= -.10576503E+04 E0= -.10576503E+04  EK= 0.59309E+01 SP= 0.00E+00 SK= 0.00E+00
    736 T=   214. E= -.10517018E+04 F= -.10577549E+04 E0= -.10577549E+04  EK= 0.60531E+01 SP= 0.00E+00 SK= 0.00E+00
    737 T=   220. E= -.10517261E+04 F= -.10579663E+04 E0= -.10579663E+04  EK= 0.62402E+01 SP= 0.00E+00 SK= 0.00E+00
    738 T=   223. E= -.10517822E+04 F= -.10580973E+04 E0= -.10580973E+04  EK= 0.63151E+01 SP= 0.00E+00 SK= 0.00E+00
    739 T=   220. E= -.10518873E+04 F= -.10581105E+04 E0= -.10581105E+04  EK= 0.62232E+01 SP= 0.00E+00 SK= 0.00E+00
    740 T=   217. E= -.10519416E+04 F= -.10580704E+04 E0= -.10580704E+04  EK= 0.61288E+01 SP= 0.00E+00 SK= 0.00E+00
    741 T=   212. E= -.10519855E+04 F= -.10579912E+04 E0= -.10579912E+04  EK= 0.60057E+01 SP= 0.00E+00 SK= 0.00E+00
    742 T=   211. E= -.10520194E+04 F= -.10579783E+04 E0= -.10579783E+04  EK= 0.59589E+01 SP= 0.00E+00 SK= 0.00E+00
    743 T=   213. E= -.10520117E+04 F= -.10580521E+04 E0= -.10580521E+04  EK= 0.60404E+01 SP= 0.00E+00 SK= 0.00E+00
    744 T=   217. E= -.10519866E+04 F= -.10581396E+04 E0= -.10581396E+04  EK= 0.61530E+01 SP= 0.00E+00 SK= 0.00E+00
    745 T=   219. E= -.10519927E+04 F= -.10581905E+04 E0= -.10581905E+04  EK= 0.61979E+01 SP= 0.00E+00 SK= 0.00E+00
    746 T=   221. E= -.10519597E+04 F= -.10582201E+04 E0= -.10582201E+04  EK= 0.62605E+01 SP= 0.00E+00 SK= 0.00E+00
    747 T=   219. E= -.10519972E+04 F= -.10581968E+04 E0= -.10581968E+04  EK= 0.61996E+01 SP= 0.00E+00 SK= 0.00E+00
    748 T=   214. E= -.10520771E+04 F= -.10581224E+04 E0= -.10581224E+04  EK= 0.60454E+01 SP= 0.00E+00 SK= 0.00E+00
    749 T=   208. E= -.10521250E+04 F= -.10580072E+04 E0= -.10580072E+04  EK= 0.58821E+01 SP= 0.00E+00 SK= 0.00E+00
    750 T=   201. E= -.10522032E+04 F= -.10579065E+04 E0= -.10579065E+04  EK= 0.57033E+01 SP= 0.00E+00 SK= 0.00E+00
    751 T=   199. E= -.10522379E+04 F= -.10578710E+04 E0= -.10578710E+04  EK= 0.56332E+01 SP= 0.00E+00 SK= 0.00E+00
    752 T=   200. E= -.10522648E+04 F= -.10579204E+04 E0= -.10579204E+04  EK= 0.56556E+01 SP= 0.00E+00 SK= 0.00E+00
    753 T=   203. E= -.10522556E+04 F= -.10579969E+04 E0= -.10579969E+04  EK= 0.57413E+01 SP= 0.00E+00 SK= 0.00E+00
    754 T=   208. E= -.10521696E+04 F= -.10580541E+04 E0= -.10580541E+04  EK= 0.58845E+01 SP= 0.00E+00 SK= 0.00E+00
    755 T=   210. E= -.10521363E+04 F= -.10580875E+04 E0= -.10580875E+04  EK= 0.59512E+01 SP= 0.00E+00 SK= 0.00E+00
    756 T=   210. E= -.10521212E+04 F= -.10580664E+04 E0= -.10580664E+04  EK= 0.59452E+01 SP= 0.00E+00 SK= 0.00E+00
    757 T=   209. E= -.10521368E+04 F= -.10580504E+04 E0= -.10580504E+04  EK= 0.59136E+01 SP= 0.00E+00 SK= 0.00E+00
    758 T=   207. E= -.10522154E+04 F= -.10580839E+04 E0= -.10580839E+04  EK= 0.58685E+01 SP= 0.00E+00 SK= 0.00E+00
    759 T=   207. E= -.10522667E+04 F= -.10581341E+04 E0= -.10581341E+04  EK= 0.58674E+01 SP= 0.00E+00 SK= 0.00E+00
    760 T=   209. E= -.10522547E+04 F= -.10581743E+04 E0= -.10581743E+04  EK= 0.59197E+01 SP= 0.00E+00 SK= 0.00E+00
    761 T=   211. E= -.10522132E+04 F= -.10581876E+04 E0= -.10581876E+04  EK= 0.59744E+01 SP= 0.00E+00 SK= 0.00E+00
    762 T=   211. E= -.10521763E+04 F= -.10581463E+04 E0= -.10581463E+04  EK= 0.59700E+01 SP= 0.00E+00 SK= 0.00E+00
    763 T=   210. E= -.10521069E+04 F= -.10580495E+04 E0= -.10580495E+04  EK= 0.59426E+01 SP= 0.00E+00 SK= 0.00E+00
    764 T=   207. E= -.10520329E+04 F= -.10579035E+04 E0= -.10579035E+04  EK= 0.58706E+01 SP= 0.00E+00 SK= 0.00E+00
    765 T=   207. E= -.10519355E+04 F= -.10577976E+04 E0= -.10577976E+04  EK= 0.58622E+01 SP= 0.00E+00 SK= 0.00E+00
    766 T=   209. E= -.10518555E+04 F= -.10577795E+04 E0= -.10577795E+04  EK= 0.59240E+01 SP= 0.00E+00 SK= 0.00E+00
    767 T=   213. E= -.10517977E+04 F= -.10578328E+04 E0= -.10578328E+04  EK= 0.60352E+01 SP= 0.00E+00 SK= 0.00E+00
    768 T=   214. E= -.10518177E+04 F= -.10578873E+04 E0= -.10578873E+04  EK= 0.60696E+01 SP= 0.00E+00 SK= 0.00E+00
    769 T=   212. E= -.10518537E+04 F= -.10578634E+04 E0= -.10578634E+04  EK= 0.60097E+01 SP= 0.00E+00 SK= 0.00E+00
    770 T=   210. E= -.10518168E+04 F= -.10577713E+04 E0= -.10577713E+04  EK= 0.59545E+01 SP= 0.00E+00 SK= 0.00E+00
    771 T=   205. E= -.10518427E+04 F= -.10576562E+04 E0= -.10576562E+04  EK= 0.58135E+01 SP= 0.00E+00 SK= 0.00E+00
    772 T=   203. E= -.10518387E+04 F= -.10575886E+04 E0= -.10575886E+04  EK= 0.57499E+01 SP= 0.00E+00 SK= 0.00E+00
    773 T=   202. E= -.10518426E+04 F= -.10575716E+04 E0= -.10575716E+04  EK= 0.57290E+01 SP= 0.00E+00 SK= 0.00E+00
    774 T=   201. E= -.10519219E+04 F= -.10576181E+04 E0= -.10576181E+04  EK= 0.56962E+01 SP= 0.00E+00 SK= 0.00E+00
    775 T=   204. E= -.10519251E+04 F= -.10576945E+04 E0= -.10576945E+04  EK= 0.57694E+01 SP= 0.00E+00 SK= 0.00E+00
    776 T=   208. E= -.10518564E+04 F= -.10577530E+04 E0= -.10577530E+04  EK= 0.58966E+01 SP= 0.00E+00 SK= 0.00E+00
    777 T=   210. E= -.10518418E+04 F= -.10577758E+04 E0= -.10577758E+04  EK= 0.59340E+01 SP= 0.00E+00 SK= 0.00E+00
    778 T=   212. E= -.10517779E+04 F= -.10577920E+04 E0= -.10577920E+04  EK= 0.60142E+01 SP= 0.00E+00 SK= 0.00E+00
    779 T=   212. E= -.10517337E+04 F= -.10577487E+04 E0= -.10577487E+04  EK= 0.60150E+01 SP= 0.00E+00 SK= 0.00E+00
    780 T=   207. E= -.10517657E+04 F= -.10576232E+04 E0= -.10576232E+04  EK= 0.58575E+01 SP= 0.00E+00 SK= 0.00E+00
    781 T=   202. E= -.10517804E+04 F= -.10574920E+04 E0= -.10574920E+04  EK= 0.57115E+01 SP= 0.00E+00 SK= 0.00E+00
    782 T=   201. E= -.10517450E+04 F= -.10574444E+04 E0= -.10574444E+04  EK= 0.56994E+01 SP= 0.00E+00 SK= 0.00E+00
    783 T=   205. E= -.10517244E+04 F= -.10575155E+04 E0= -.10575155E+04  EK= 0.57911E+01 SP= 0.00E+00 SK= 0.00E+00
    784 T=   208. E= -.10517489E+04 F= -.10576283E+04 E0= -.10576283E+04  EK= 0.58794E+01 SP= 0.00E+00 SK= 0.00E+00
    785 T=   211. E= -.10517171E+04 F= -.10577029E+04 E0= -.10577029E+04  EK= 0.59859E+01 SP= 0.00E+00 SK= 0.00E+00
    786 T=   214. E= -.10516261E+04 F= -.10576907E+04 E0= -.10576907E+04  EK= 0.60646E+01 SP= 0.00E+00 SK= 0.00E+00
    787 T=   211. E= -.10516522E+04 F= -.10576144E+04 E0= -.10576144E+04  EK= 0.59623E+01 SP= 0.00E+00 SK= 0.00E+00
    788 T=   207. E= -.10517072E+04 F= -.10575544E+04 E0= -.10575544E+04  EK= 0.58472E+01 SP= 0.00E+00 SK= 0.00E+00
    789 T=   211. E= -.10515722E+04 F= -.10575434E+04 E0= -.10575434E+04  EK= 0.59712E+01 SP= 0.00E+00 SK= 0.00E+00
    790 T=   214. E= -.10514967E+04 F= -.10575427E+04 E0= -.10575427E+04  EK= 0.60460E+01 SP= 0.00E+00 SK= 0.00E+00
    791 T=   214. E= -.10514867E+04 F= -.10575366E+04 E0= -.10575366E+04  EK= 0.60499E+01 SP= 0.00E+00 SK= 0.00E+00
    792 T=   213. E= -.10514902E+04 F= -.10575196E+04 E0= -.10575196E+04  EK= 0.60294E+01 SP= 0.00E+00 SK= 0.00E+00
    793 T=   211. E= -.10515529E+04 F= -.10575252E+04 E0= -.10575252E+04  EK= 0.59723E+01 SP= 0.00E+00 SK= 0.00E+00
    794 T=   211. E= -.10515441E+04 F= -.10575142E+04 E0= -.10575142E+04  EK= 0.59701E+01 SP= 0.00E+00 SK= 0.00E+00
    795 T=   211. E= -.10515125E+04 F= -.10574924E+04 E0= -.10574924E+04  EK= 0.59800E+01 SP= 0.00E+00 SK= 0.00E+00
    796 T=   212. E= -.10515154E+04 F= -.10575096E+04 E0= -.10575096E+04  EK= 0.59942E+01 SP= 0.00E+00 SK= 0.00E+00
    797 T=   213. E= -.10515182E+04 F= -.10575498E+04 E0= -.10575498E+04  EK= 0.60316E+01 SP= 0.00E+00 SK= 0.00E+00
    798 T=   215. E= -.10514839E+04 F= -.10575756E+04 E0= -.10575756E+04  EK= 0.60917E+01 SP= 0.00E+00 SK= 0.00E+00
    799 T=   215. E= -.10514557E+04 F= -.10575476E+04 E0= -.10575476E+04  EK= 0.60920E+01 SP= 0.00E+00 SK= 0.00E+00
    800 T=   211. E= -.10514918E+04 F= -.10574633E+04 E0= -.10574633E+04  EK= 0.59715E+01 SP= 0.00E+00 SK= 0.00E+00
    801 T=   209. E= -.10515096E+04 F= -.10574237E+04 E0= -.10574237E+04  EK= 0.59142E+01 SP= 0.00E+00 SK= 0.00E+00
    802 T=   209. E= -.10515473E+04 F= -.10574655E+04 E0= -.10574655E+04  EK= 0.59183E+01 SP= 0.00E+00 SK= 0.00E+00
    803 T=   209. E= -.10516544E+04 F= -.10575657E+04 E0= -.10575657E+04  EK= 0.59113E+01 SP= 0.00E+00 SK= 0.00E+00
    804 T=   212. E= -.10516967E+04 F= -.10577054E+04 E0= -.10577054E+04  EK= 0.60087E+01 SP= 0.00E+00 SK= 0.00E+00
    805 T=   213. E= -.10517346E+04 F= -.10577531E+04 E0= -.10577531E+04  EK= 0.60185E+01 SP= 0.00E+00 SK= 0.00E+00
    806 T=   210. E= -.10517484E+04 F= -.10576869E+04 E0= -.10576869E+04  EK= 0.59385E+01 SP= 0.00E+00 SK= 0.00E+00
    807 T=   200. E= -.10518204E+04 F= -.10574913E+04 E0= -.10574913E+04  EK= 0.56709E+01 SP= 0.00E+00 SK= 0.00E+00
    808 T=   192. E= -.10519319E+04 F= -.10573558E+04 E0= -.10573558E+04  EK= 0.54239E+01 SP= 0.00E+00 SK= 0.00E+00
    809 T=   191. E= -.10519618E+04 F= -.10573778E+04 E0= -.10573778E+04  EK= 0.54160E+01 SP= 0.00E+00 SK= 0.00E+00
    810 T=   198. E= -.10519733E+04 F= -.10575738E+04 E0= -.10575738E+04  EK= 0.56005E+01 SP= 0.00E+00 SK= 0.00E+00
    811 T=   206. E= -.10519501E+04 F= -.10577931E+04 E0= -.10577931E+04  EK= 0.58430E+01 SP= 0.00E+00 SK= 0.00E+00
    812 T=   215. E= -.10518341E+04 F= -.10579222E+04 E0= -.10579222E+04  EK= 0.60881E+01 SP= 0.00E+00 SK= 0.00E+00
    813 T=   216. E= -.10516878E+04 F= -.10578084E+04 E0= -.10578084E+04  EK= 0.61206E+01 SP= 0.00E+00 SK= 0.00E+00
    814 T=   208. E= -.10516235E+04 F= -.10574986E+04 E0= -.10574986E+04  EK= 0.58752E+01 SP= 0.00E+00 SK= 0.00E+00
    815 T=   199. E= -.10515941E+04 F= -.10572223E+04 E0= -.10572223E+04  EK= 0.56282E+01 SP= 0.00E+00 SK= 0.00E+00
    816 T=   196. E= -.10516356E+04 F= -.10571921E+04 E0= -.10571921E+04  EK= 0.55565E+01 SP= 0.00E+00 SK= 0.00E+00
    817 T=   205. E= -.10516095E+04 F= -.10574047E+04 E0= -.10574047E+04  EK= 0.57952E+01 SP= 0.00E+00 SK= 0.00E+00
    818 T=   217. E= -.10515983E+04 F= -.10577367E+04 E0= -.10577367E+04  EK= 0.61385E+01 SP= 0.00E+00 SK= 0.00E+00
    819 T=   225. E= -.10516067E+04 F= -.10579786E+04 E0= -.10579786E+04  EK= 0.63718E+01 SP= 0.00E+00 SK= 0.00E+00
    820 T=   227. E= -.10515596E+04 F= -.10579727E+04 E0= -.10579727E+04  EK= 0.64131E+01 SP= 0.00E+00 SK= 0.00E+00
    821 T=   219. E= -.10515635E+04 F= -.10577649E+04 E0= -.10577649E+04  EK= 0.62015E+01 SP= 0.00E+00 SK= 0.00E+00
    822 T=   211. E= -.10515188E+04 F= -.10574852E+04 E0= -.10574852E+04  EK= 0.59664E+01 SP= 0.00E+00 SK= 0.00E+00
    823 T=   206. E= -.10515034E+04 F= -.10573354E+04 E0= -.10573354E+04  EK= 0.58319E+01 SP= 0.00E+00 SK= 0.00E+00
    824 T=   211. E= -.10514749E+04 F= -.10574428E+04 E0= -.10574428E+04  EK= 0.59679E+01 SP= 0.00E+00 SK= 0.00E+00
    825 T=   220. E= -.10514562E+04 F= -.10576849E+04 E0= -.10576849E+04  EK= 0.62287E+01 SP= 0.00E+00 SK= 0.00E+00
    826 T=   226. E= -.10515413E+04 F= -.10579297E+04 E0= -.10579297E+04  EK= 0.63884E+01 SP= 0.00E+00 SK= 0.00E+00
    827 T=   226. E= -.10516279E+04 F= -.10580199E+04 E0= -.10580199E+04  EK= 0.63920E+01 SP= 0.00E+00 SK= 0.00E+00
    828 T=   222. E= -.10516118E+04 F= -.10578973E+04 E0= -.10578973E+04  EK= 0.62855E+01 SP= 0.00E+00 SK= 0.00E+00
    829 T=   215. E= -.10515807E+04 F= -.10576633E+04 E0= -.10576633E+04  EK= 0.60826E+01 SP= 0.00E+00 SK= 0.00E+00
    830 T=   212. E= -.10515116E+04 F= -.10575039E+04 E0= -.10575039E+04  EK= 0.59923E+01 SP= 0.00E+00 SK= 0.00E+00
    831 T=   214. E= -.10514463E+04 F= -.10575079E+04 E0= -.10575079E+04  EK= 0.60616E+01 SP= 0.00E+00 SK= 0.00E+00
    832 T=   221. E= -.10514253E+04 F= -.10576823E+04 E0= -.10576823E+04  EK= 0.62571E+01 SP= 0.00E+00 SK= 0.00E+00
    833 T=   228. E= -.10514025E+04 F= -.10578622E+04 E0= -.10578622E+04  EK= 0.64598E+01 SP= 0.00E+00 SK= 0.00E+00
    834 T=   233. E= -.10513353E+04 F= -.10579254E+04 E0= -.10579254E+04  EK= 0.65901E+01 SP= 0.00E+00 SK= 0.00E+00
    835 T=   233. E= -.10512426E+04 F= -.10578302E+04 E0= -.10578302E+04  EK= 0.65876E+01 SP= 0.00E+00 SK= 0.00E+00
    836 T=   227. E= -.10511974E+04 F= -.10576374E+04 E0= -.10576374E+04  EK= 0.64400E+01 SP= 0.00E+00 SK= 0.00E+00
    837 T=   223. E= -.10511710E+04 F= -.10574697E+04 E0= -.10574697E+04  EK= 0.62987E+01 SP= 0.00E+00 SK= 0.00E+00
    838 T=   221. E= -.10511955E+04 F= -.10574432E+04 E0= -.10574432E+04  EK= 0.62477E+01 SP= 0.00E+00 SK= 0.00E+00
    839 T=   223. E= -.10512002E+04 F= -.10574989E+04 E0= -.10574989E+04  EK= 0.62987E+01 SP= 0.00E+00 SK= 0.00E+00
    840 T=   226. E= -.10512107E+04 F= -.10576192E+04 E0= -.10576192E+04  EK= 0.64084E+01 SP= 0.00E+00 SK= 0.00E+00
    841 T=   227. E= -.10513056E+04 F= -.10577177E+04 E0= -.10577177E+04  EK= 0.64120E+01 SP= 0.00E+00 SK= 0.00E+00
    842 T=   224. E= -.10513934E+04 F= -.10577297E+04 E0= -.10577297E+04  EK= 0.63363E+01 SP= 0.00E+00 SK= 0.00E+00
    843 T=   219. E= -.10514292E+04 F= -.10576322E+04 E0= -.10576322E+04  EK= 0.62031E+01 SP= 0.00E+00 SK= 0.00E+00
    844 T=   211. E= -.10514687E+04 F= -.10574530E+04 E0= -.10574530E+04  EK= 0.59844E+01 SP= 0.00E+00 SK= 0.00E+00
    845 T=   207. E= -.10514465E+04 F= -.10572997E+04 E0= -.10572997E+04  EK= 0.58532E+01 SP= 0.00E+00 SK= 0.00E+00
    846 T=   205. E= -.10514378E+04 F= -.10572388E+04 E0= -.10572388E+04  EK= 0.58010E+01 SP= 0.00E+00 SK= 0.00E+00
    847 T=   207. E= -.10514438E+04 F= -.10573093E+04 E0= -.10573093E+04  EK= 0.58656E+01 SP= 0.00E+00 SK= 0.00E+00
    848 T=   213. E= -.10514160E+04 F= -.10574340E+04 E0= -.10574340E+04  EK= 0.60180E+01 SP= 0.00E+00 SK= 0.00E+00
    849 T=   217. E= -.10513735E+04 F= -.10575039E+04 E0= -.10575039E+04  EK= 0.61304E+01 SP= 0.00E+00 SK= 0.00E+00
    850 T=   218. E= -.10513131E+04 F= -.10574764E+04 E0= -.10574764E+04  EK= 0.61633E+01 SP= 0.00E+00 SK= 0.00E+00
    851 T=   214. E= -.10513221E+04 F= -.10573797E+04 E0= -.10573797E+04  EK= 0.60576E+01 SP= 0.00E+00 SK= 0.00E+00
    852 T=   208. E= -.10513733E+04 F= -.10572625E+04 E0= -.10572625E+04  EK= 0.58892E+01 SP= 0.00E+00 SK= 0.00E+00
    853 T=   205. E= -.10514074E+04 F= -.10571967E+04 E0= -.10571967E+04  EK= 0.57893E+01 SP= 0.00E+00 SK= 0.00E+00
    854 T=   208. E= -.10513408E+04 F= -.10572335E+04 E0= -.10572335E+04  EK= 0.58927E+01 SP= 0.00E+00 SK= 0.00E+00
    855 T=   211. E= -.10513400E+04 F= -.10573173E+04 E0= -.10573173E+04  EK= 0.59774E+01 SP= 0.00E+00 SK= 0.00E+00
    856 T=   210. E= -.10514240E+04 F= -.10573764E+04 E0= -.10573764E+04  EK= 0.59523E+01 SP= 0.00E+00 SK= 0.00E+00
    857 T=   211. E= -.10514320E+04 F= -.10574178E+04 E0= -.10574178E+04  EK= 0.59858E+01 SP= 0.00E+00 SK= 0.00E+00
    858 T=   216. E= -.10513707E+04 F= -.10574821E+04 E0= -.10574821E+04  EK= 0.61114E+01 SP= 0.00E+00 SK= 0.00E+00
    859 T=   218. E= -.10513531E+04 F= -.10575279E+04 E0= -.10575279E+04  EK= 0.61748E+01 SP= 0.00E+00 SK= 0.00E+00
    860 T=   217. E= -.10514625E+04 F= -.10576010E+04 E0= -.10576010E+04  EK= 0.61384E+01 SP= 0.00E+00 SK= 0.00E+00
    861 T=   219. E= -.10515153E+04 F= -.10577198E+04 E0= -.10577198E+04  EK= 0.62046E+01 SP= 0.00E+00 SK= 0.00E+00
    862 T=   223. E= -.10515189E+04 F= -.10578386E+04 E0= -.10578386E+04  EK= 0.63197E+01 SP= 0.00E+00 SK= 0.00E+00
    863 T=   223. E= -.10516084E+04 F= -.10579169E+04 E0= -.10579169E+04  EK= 0.63085E+01 SP= 0.00E+00 SK= 0.00E+00
    864 T=   221. E= -.10516733E+04 F= -.10579359E+04 E0= -.10579359E+04  EK= 0.62626E+01 SP= 0.00E+00 SK= 0.00E+00
    865 T=   220. E= -.10517078E+04 F= -.10579453E+04 E0= -.10579453E+04  EK= 0.62375E+01 SP= 0.00E+00 SK= 0.00E+00
    866 T=   222. E= -.10517236E+04 F= -.10580196E+04 E0= -.10580196E+04  EK= 0.62959E+01 SP= 0.00E+00 SK= 0.00E+00
    867 T=   225. E= -.10517590E+04 F= -.10581280E+04 E0= -.10581280E+04  EK= 0.63689E+01 SP= 0.00E+00 SK= 0.00E+00
    868 T=   225. E= -.10518920E+04 F= -.10582657E+04 E0= -.10582657E+04  EK= 0.63737E+01 SP= 0.00E+00 SK= 0.00E+00
    869 T=   228. E= -.10519370E+04 F= -.10583940E+04 E0= -.10583940E+04  EK= 0.64570E+01 SP= 0.00E+00 SK= 0.00E+00
    870 T=   229. E= -.10519659E+04 F= -.10584490E+04 E0= -.10584490E+04  EK= 0.64831E+01 SP= 0.00E+00 SK= 0.00E+00
    871 T=   222. E= -.10520894E+04 F= -.10583786E+04 E0= -.10583786E+04  EK= 0.62892E+01 SP= 0.00E+00 SK= 0.00E+00
    872 T=   214. E= -.10521736E+04 F= -.10582310E+04 E0= -.10582310E+04  EK= 0.60574E+01 SP= 0.00E+00 SK= 0.00E+00
    873 T=   210. E= -.10521490E+04 F= -.10580997E+04 E0= -.10580997E+04  EK= 0.59507E+01 SP= 0.00E+00 SK= 0.00E+00
    874 T=   210. E= -.10521102E+04 F= -.10580525E+04 E0= -.10580525E+04  EK= 0.59423E+01 SP= 0.00E+00 SK= 0.00E+00
    875 T=   212. E= -.10520803E+04 F= -.10580762E+04 E0= -.10580762E+04  EK= 0.59959E+01 SP= 0.00E+00 SK= 0.00E+00
    876 T=   214. E= -.10520698E+04 F= -.10581364E+04 E0= -.10581364E+04  EK= 0.60666E+01 SP= 0.00E+00 SK= 0.00E+00
    877 T=   214. E= -.10520677E+04 F= -.10581185E+04 E0= -.10581185E+04  EK= 0.60508E+01 SP= 0.00E+00 SK= 0.00E+00
    878 T=   210. E= -.10520560E+04 F= -.10580097E+04 E0= -.10580097E+04  EK= 0.59537E+01 SP= 0.00E+00 SK= 0.00E+00
    879 T=   201. E= -.10521166E+04 F= -.10578091E+04 E0= -.10578091E+04  EK= 0.56925E+01 SP= 0.00E+00 SK= 0.00E+00
    880 T=   189. E= -.10522428E+04 F= -.10576068E+04 E0= -.10576068E+04  EK= 0.53640E+01 SP= 0.00E+00 SK= 0.00E+00
    881 T=   183. E= -.10523150E+04 F= -.10574941E+04 E0= -.10574941E+04  EK= 0.51791E+01 SP= 0.00E+00 SK= 0.00E+00
    882 T=   182. E= -.10523224E+04 F= -.10574794E+04 E0= -.10574794E+04  EK= 0.51570E+01 SP= 0.00E+00 SK= 0.00E+00
    883 T=   186. E= -.10522806E+04 F= -.10575482E+04 E0= -.10575482E+04  EK= 0.52676E+01 SP= 0.00E+00 SK= 0.00E+00
    884 T=   189. E= -.10522702E+04 F= -.10576098E+04 E0= -.10576098E+04  EK= 0.53395E+01 SP= 0.00E+00 SK= 0.00E+00
       N       E                     dE             d eps       ncg     rms          rms(c)
DAV:   1    -0.619001447653E+03    0.42326E+03   -0.40124E+04 20644   0.349E+02
DAV:   2    -0.104166648759E+04   -0.42267E+03   -0.41563E+03 24028   0.989E+01
DAV:   3    -0.105142935556E+04   -0.97629E+01   -0.97528E+01 24488   0.166E+01
DAV:   4    -0.105156641701E+04   -0.13706E+00   -0.13703E+00 24800   0.192E+00    0.340E+01
DAV:   5    -0.104102301171E+04    0.10543E+02   -0.26356E+01 24888   0.101E+01    0.188E+01
DAV:   6    -0.104115730509E+04   -0.13429E+00   -0.12008E+01 24984   0.703E+00    0.673E+00
DAV:   7    -0.104185408662E+04   -0.69678E+00   -0.23490E+00 24568   0.338E+00    0.198E+00
DAV:   8    -0.104187507266E+04   -0.20986E-01   -0.22366E-01 24552   0.105E+00    0.902E-01
DAV:   9    -0.104187452470E+04    0.54796E-03   -0.72217E-02 24152   0.603E-01    0.303E-01
DAV:  10    -0.104187248867E+04    0.20360E-02   -0.12230E-02 25280   0.301E-01    0.163E-01
DAV:  11    -0.104187130935E+04    0.11793E-02   -0.61614E-03 23560   0.184E-01    0.107E-01
DAV:  12    -0.104187010327E+04    0.12061E-02   -0.86668E-04 25200   0.139E-01    0.429E-02
DAV:  13    -0.104186950449E+04    0.59878E-03   -0.12686E-03 23400   0.141E-01    0.519E-02
DAV:  14    -0.104186944877E+04    0.55718E-04   -0.90241E-04 25080   0.786E-02
    885 T=   188. E= -.10522574E+04 F= -.10575892E+04 E0= -.10575892E+04  EK= 0.53318E+01 SP= 0.00E+00 SK= 0.00E+00
    886 T=   188. E= -.10522380E+04 F= -.10575597E+04 E0= -.10575597E+04  EK= 0.53217E+01 SP= 0.00E+00 SK= 0.00E+00
    887 T=   189. E= -.10521574E+04 F= -.10575013E+04 E0= -.10575013E+04  EK= 0.53439E+01 SP= 0.00E+00 SK= 0.00E+00
    888 T=   188. E= -.10521344E+04 F= -.10574598E+04 E0= -.10574598E+04  EK= 0.53254E+01 SP= 0.00E+00 SK= 0.00E+00
    889 T=   190. E= -.10520888E+04 F= -.10574667E+04 E0= -.10574667E+04  EK= 0.53778E+01 SP= 0.00E+00 SK= 0.00E+00
    890 T=   193. E= -.10520554E+04 F= -.10575154E+04 E0= -.10575154E+04  EK= 0.54600E+01 SP= 0.00E+00 SK= 0.00E+00
    891 T=   197. E= -.10520602E+04 F= -.10576432E+04 E0= -.10576432E+04  EK= 0.55830E+01 SP= 0.00E+00 SK= 0.00E+00
    892 T=   199. E= -.10521052E+04 F= -.10577405E+04 E0= -.10577405E+04  EK= 0.56353E+01 SP= 0.00E+00 SK= 0.00E+00
    893 T=   198. E= -.10521807E+04 F= -.10577964E+04 E0= -.10577964E+04  EK= 0.56157E+01 SP= 0.00E+00 SK= 0.00E+00
    894 T=   198. E= -.10521744E+04 F= -.10577801E+04 E0= -.10577801E+04  EK= 0.56057E+01 SP= 0.00E+00 SK= 0.00E+00
       N       E                     dE             d eps       ncg     rms          rms(c)
DAV:   1    -0.103746973079E+04    0.43998E+01   -0.21855E+03 20644   0.864E+01
DAV:   2    -0.104276738153E+04   -0.52977E+01   -0.52963E+01 25112   0.124E+01
DAV:   3    -0.104281734069E+04   -0.49959E-01   -0.49956E-01 25040   0.123E+00
DAV:   4    -0.104281840259E+04   -0.10619E-02   -0.10618E-02 25064   0.176E-01    0.983E+00
DAV:   5    -0.104199516576E+04    0.82324E+00   -0.19043E+00 25360   0.340E+00    0.526E+00
DAV:   6    -0.104200857950E+04   -0.13414E-01   -0.11943E+00 25248   0.232E+00    0.178E+00
DAV:   7    -0.104203158382E+04   -0.23004E-01   -0.22684E-01 25424   0.125E+00    0.565E-01
DAV:   8    -0.104203058808E+04    0.99574E-03   -0.32136E-02 23616   0.414E-01    0.302E-01
DAV:   9    -0.104202767589E+04    0.29122E-02   -0.12837E-02 23800   0.263E-01    0.161E-01
DAV:  10    -0.104202608515E+04    0.15907E-02   -0.23910E-03 27744   0.176E-01    0.734E-02
DAV:  11    -0.104202534425E+04    0.74090E-03   -0.20510E-03 23520   0.130E-01    0.629E-02
DAV:  12    -0.104202486876E+04    0.47549E-03   -0.44110E-04 22456   0.886E-02    0.299E-02
DAV:  13    -0.104202467710E+04    0.19165E-03   -0.35395E-04 20616   0.708E-02    0.245E-02
DAV:  14    -0.104202465532E+04    0.21786E-04   -0.18405E-04 17472   0.405E-02
    895 T=   195. E= -.10522012E+04 F= -.10577100E+04 E0= -.10577100E+04  EK= 0.55087E+01 SP= 0.00E+00 SK= 0.00E+00
    896 T=   191. E= -.10522278E+04 F= -.10576390E+04 E0= -.10576390E+04  EK= 0.54111E+01 SP= 0.00E+00 SK= 0.00E+00
    897 T=   189. E= -.10522107E+04 F= -.10575653E+04 E0= -.10575653E+04  EK= 0.53546E+01 SP= 0.00E+00 SK= 0.00E+00
    898 T=   193. E= -.10521008E+04 F= -.10575602E+04 E0= -.10575602E+04  EK= 0.54595E+01 SP= 0.00E+00 SK= 0.00E+00
    899 T=   199. E= -.10519709E+04 F= -.10576113E+04 E0= -.10576113E+04  EK= 0.56404E+01 SP= 0.00E+00 SK= 0.00E+00
    900 T=   202. E= -.10519358E+04 F= -.10576486E+04 E0= -.10576486E+04  EK= 0.57128E+01 SP= 0.00E+00 SK= 0.00E+00
    901 T=   202. E= -.10518936E+04 F= -.10576221E+04 E0= -.10576221E+04  EK= 0.57286E+01 SP= 0.00E+00 SK= 0.00E+00
    902 T=   199. E= -.10518816E+04 F= -.10575184E+04 E0= -.10575184E+04  EK= 0.56368E+01 SP= 0.00E+00 SK= 0.00E+00
    903 T=   192. E= -.10519630E+04 F= -.10574076E+04 E0= -.10574076E+04  EK= 0.54446E+01 SP= 0.00E+00 SK= 0.00E+00
    904 T=   192. E= -.10519697E+04 F= -.10574117E+04 E0= -.10574117E+04  EK= 0.54420E+01 SP= 0.00E+00 SK= 0.00E+00
    905 T=   196. E= -.10519474E+04 F= -.10574999E+04 E0= -.10574999E+04  EK= 0.55524E+01 SP= 0.00E+00 SK= 0.00E+00
    906 T=   196. E= -.10520604E+04 F= -.10576152E+04 E0= -.10576152E+04  EK= 0.55548E+01 SP= 0.00E+00 SK= 0.00E+00
       N       E                     dE             d eps       ncg     rms          rms(c)
DAV:   1    -0.103537345587E+04    0.66512E+01   -0.30993E+03 20644   0.103E+02
DAV:   2    -0.104298955288E+04   -0.76161E+01   -0.76141E+01 24912   0.147E+01
DAV:   3    -0.104306198783E+04   -0.72435E-01   -0.72429E-01 25016   0.148E+00
DAV:   4    -0.104306352990E+04   -0.15421E-02   -0.15420E-02 25112   0.210E-01    0.111E+01
DAV:   5    -0.104208182880E+04    0.98170E+00   -0.21065E+00 24992   0.347E+00    0.606E+00
DAV:   6    -0.104208603635E+04   -0.42076E-02   -0.14356E+00 25152   0.258E+00    0.185E+00
DAV:   7    -0.104211714175E+04   -0.31105E-01   -0.26460E-01 24712   0.128E+00    0.620E-01
DAV:   8    -0.104211543986E+04    0.17019E-02   -0.34218E-02 24032   0.406E-01    0.324E-01
DAV:   9    -0.104211216450E+04    0.32754E-02   -0.10806E-02 24056   0.273E-01    0.141E-01
DAV:  10    -0.104211066389E+04    0.15006E-02   -0.25498E-03 27520   0.191E-01    0.789E-02
DAV:  11    -0.104211006041E+04    0.60347E-03   -0.23126E-03 24056   0.142E-01    0.708E-02
DAV:  12    -0.104210957970E+04    0.48072E-03   -0.58252E-04 24288   0.113E-01    0.272E-02
DAV:  13    -0.104210945558E+04    0.12412E-03   -0.47658E-04 23504   0.766E-02    0.374E-02
DAV:  14    -0.104210942085E+04    0.34736E-04   -0.23248E-04 18288   0.435E-02
    907 T=   195. E= -.10521893E+04 F= -.10577044E+04 E0= -.10577044E+04  EK= 0.55151E+01 SP= 0.00E+00 SK= 0.00E+00
    908 T=   193. E= -.10522090E+04 F= -.10576815E+04 E0= -.10576815E+04  EK= 0.54724E+01 SP= 0.00E+00 SK= 0.00E+00
    909 T=   192. E= -.10521987E+04 F= -.10576459E+04 E0= -.10576459E+04  EK= 0.54472E+01 SP= 0.00E+00 SK= 0.00E+00
    910 T=   193. E= -.10521192E+04 F= -.10575927E+04 E0= -.10575927E+04  EK= 0.54735E+01 SP= 0.00E+00 SK= 0.00E+00
    911 T=   192. E= -.10520816E+04 F= -.10575257E+04 E0= -.10575257E+04  EK= 0.54441E+01 SP= 0.00E+00 SK= 0.00E+00
    912 T=   194. E= -.10520023E+04 F= -.10574961E+04 E0= -.10574961E+04  EK= 0.54938E+01 SP= 0.00E+00 SK= 0.00E+00
    913 T=   199. E= -.10518644E+04 F= -.10574950E+04 E0= -.10574950E+04  EK= 0.56306E+01 SP= 0.00E+00 SK= 0.00E+00
    914 T=   203. E= -.10517970E+04 F= -.10575511E+04 E0= -.10575511E+04  EK= 0.57541E+01 SP= 0.00E+00 SK= 0.00E+00
    915 T=   206. E= -.10517585E+04 F= -.10576018E+04 E0= -.10576018E+04  EK= 0.58433E+01 SP= 0.00E+00 SK= 0.00E+00
    916 T=   206. E= -.10517158E+04 F= -.10575549E+04 E0= -.10575549E+04  EK= 0.58391E+01 SP= 0.00E+00 SK= 0.00E+00
       N       E                     dE             d eps       ncg     rms          rms(c)
DAV:   1    -0.103696267652E+04    0.51468E+01   -0.23255E+03 20644   0.893E+01
DAV:   2    -0.104272610199E+04   -0.57634E+01   -0.57620E+01 25088   0.128E+01
DAV:   3    -0.104278096549E+04   -0.54863E-01   -0.54860E-01 25024   0.129E+00
DAV:   4    -0.104278214463E+04   -0.11791E-02   -0.11791E-02 25024   0.184E-01    0.101E+01
DAV:   5    -0.104195116611E+04    0.83098E+00   -0.18006E+00 25160   0.336E+00    0.544E+00
DAV:   6    -0.104196655123E+04   -0.15385E-01   -0.11943E+00 25008   0.237E+00    0.173E+00
DAV:   7    -0.104199524242E+04   -0.28691E-01   -0.22737E-01 25080   0.117E+00    0.568E-01
DAV:   8    -0.104199382001E+04    0.14224E-02   -0.25727E-02 23848   0.389E-01    0.280E-01
DAV:   9    -0.104199207402E+04    0.17460E-02   -0.10519E-02 23640   0.230E-01    0.142E-01
DAV:  10    -0.104199097938E+04    0.10946E-02   -0.19868E-03 28184   0.155E-01    0.510E-02
DAV:  11    -0.104199058830E+04    0.39108E-03   -0.11329E-03 23320   0.884E-02    0.480E-02
DAV:  12    -0.104199028149E+04    0.30682E-03   -0.22821E-04 18536   0.689E-02    0.185E-02
DAV:  13    -0.104199020385E+04    0.77635E-04   -0.28782E-04 19968   0.516E-02
    917 T=   201. E= -.10517928E+04 F= -.10574944E+04 E0= -.10574944E+04  EK= 0.57016E+01 SP= 0.00E+00 SK= 0.00E+00
    918 T=   197. E= -.10518291E+04 F= -.10574009E+04 E0= -.10574009E+04  EK= 0.55718E+01 SP= 0.00E+00 SK= 0.00E+00
    919 T=   197. E= -.10518536E+04 F= -.10574391E+04 E0= -.10574391E+04  EK= 0.55855E+01 SP= 0.00E+00 SK= 0.00E+00
    920 T=   201. E= -.10518865E+04 F= -.10575669E+04 E0= -.10575669E+04  EK= 0.56804E+01 SP= 0.00E+00 SK= 0.00E+00
    921 T=   207. E= -.10519291E+04 F= -.10577908E+04 E0= -.10577908E+04  EK= 0.58617E+01 SP= 0.00E+00 SK= 0.00E+00
    922 T=   212. E= -.10520214E+04 F= -.10580103E+04 E0= -.10580103E+04  EK= 0.59890E+01 SP= 0.00E+00 SK= 0.00E+00
    923 T=   214. E= -.10521106E+04 F= -.10581567E+04 E0= -.10581567E+04  EK= 0.60461E+01 SP= 0.00E+00 SK= 0.00E+00
    924 T=   216. E= -.10520621E+04 F= -.10581750E+04 E0= -.10581750E+04  EK= 0.61128E+01 SP= 0.00E+00 SK= 0.00E+00
    925 T=   218. E= -.10519550E+04 F= -.10581192E+04 E0= -.10581192E+04  EK= 0.61642E+01 SP= 0.00E+00 SK= 0.00E+00
    926 T=   222. E= -.10518343E+04 F= -.10581156E+04 E0= -.10581156E+04  EK= 0.62813E+01 SP= 0.00E+00 SK= 0.00E+00
    927 T=   226. E= -.10517900E+04 F= -.10581826E+04 E0= -.10581826E+04  EK= 0.63926E+01 SP= 0.00E+00 SK= 0.00E+00
    928 T=   229. E= -.10518092E+04 F= -.10582942E+04 E0= -.10582942E+04  EK= 0.64850E+01 SP= 0.00E+00 SK= 0.00E+00
    929 T=   235. E= -.10517484E+04 F= -.10583965E+04 E0= -.10583965E+04  EK= 0.66481E+01 SP= 0.00E+00 SK= 0.00E+00
    930 T=   235. E= -.10517238E+04 F= -.10583845E+04 E0= -.10583845E+04  EK= 0.66607E+01 SP= 0.00E+00 SK= 0.00E+00
    931 T=   227. E= -.10517900E+04 F= -.10582195E+04 E0= -.10582195E+04  EK= 0.64295E+01 SP= 0.00E+00 SK= 0.00E+00
    932 T=   220. E= -.10517820E+04 F= -.10580146E+04 E0= -.10580146E+04  EK= 0.62326E+01 SP= 0.00E+00 SK= 0.00E+00
    933 T=   216. E= -.10517328E+04 F= -.10578471E+04 E0= -.10578471E+04  EK= 0.61144E+01 SP= 0.00E+00 SK= 0.00E+00
    934 T=   214. E= -.10517571E+04 F= -.10578173E+04 E0= -.10578173E+04  EK= 0.60602E+01 SP= 0.00E+00 SK= 0.00E+00
    935 T=   212. E= -.10518762E+04 F= -.10578805E+04 E0= -.10578805E+04  EK= 0.60043E+01 SP= 0.00E+00 SK= 0.00E+00
    936 T=   213. E= -.10519235E+04 F= -.10579629E+04 E0= -.10579629E+04  EK= 0.60394E+01 SP= 0.00E+00 SK= 0.00E+00
    937 T=   220. E= -.10517965E+04 F= -.10580116E+04 E0= -.10580116E+04  EK= 0.62152E+01 SP= 0.00E+00 SK= 0.00E+00
    938 T=   222. E= -.10517106E+04 F= -.10579814E+04 E0= -.10579814E+04  EK= 0.62708E+01 SP= 0.00E+00 SK= 0.00E+00
    939 T=   216. E= -.10517289E+04 F= -.10578492E+04 E0= -.10578492E+04  EK= 0.61203E+01 SP= 0.00E+00 SK= 0.00E+00
    940 T=   210. E= -.10517626E+04 F= -.10577136E+04 E0= -.10577136E+04  EK= 0.59510E+01 SP= 0.00E+00 SK= 0.00E+00
    941 T=   208. E= -.10518015E+04 F= -.10576999E+04 E0= -.10576999E+04  EK= 0.58985E+01 SP= 0.00E+00 SK= 0.00E+00
    942 T=   212. E= -.10518055E+04 F= -.10578104E+04 E0= -.10578104E+04  EK= 0.60049E+01 SP= 0.00E+00 SK= 0.00E+00
    943 T=   220. E= -.10517508E+04 F= -.10579742E+04 E0= -.10579742E+04  EK= 0.62235E+01 SP= 0.00E+00 SK= 0.00E+00
    944 T=   223. E= -.10517241E+04 F= -.10580274E+04 E0= -.10580274E+04  EK= 0.63033E+01 SP= 0.00E+00 SK= 0.00E+00
    945 T=   220. E= -.10516615E+04 F= -.10578768E+04 E0= -.10578768E+04  EK= 0.62153E+01 SP= 0.00E+00 SK= 0.00E+00
    946 T=   214. E= -.10515551E+04 F= -.10576177E+04 E0= -.10576177E+04  EK= 0.60626E+01 SP= 0.00E+00 SK= 0.00E+00
    947 T=   208. E= -.10515125E+04 F= -.10573952E+04 E0= -.10573952E+04  EK= 0.58827E+01 SP= 0.00E+00 SK= 0.00E+00
    948 T=   204. E= -.10515289E+04 F= -.10573007E+04 E0= -.10573007E+04  EK= 0.57718E+01 SP= 0.00E+00 SK= 0.00E+00
    949 T=   205. E= -.10515325E+04 F= -.10573472E+04 E0= -.10573472E+04  EK= 0.58147E+01 SP= 0.00E+00 SK= 0.00E+00
    950 T=   212. E= -.10514350E+04 F= -.10574331E+04 E0= -.10574331E+04  EK= 0.59981E+01 SP= 0.00E+00 SK= 0.00E+00
    951 T=   214. E= -.10513891E+04 F= -.10574499E+04 E0= -.10574499E+04  EK= 0.60607E+01 SP= 0.00E+00 SK= 0.00E+00
    952 T=   212. E= -.10513993E+04 F= -.10574106E+04 E0= -.10574106E+04  EK= 0.60113E+01 SP= 0.00E+00 SK= 0.00E+00
    953 T=   212. E= -.10513096E+04 F= -.10573173E+04 E0= -.10573173E+04  EK= 0.60077E+01 SP= 0.00E+00 SK= 0.00E+00
    954 T=   212. E= -.10512207E+04 F= -.10572296E+04 E0= -.10572296E+04  EK= 0.60089E+01 SP= 0.00E+00 SK= 0.00E+00
    955 T=   212. E= -.10512444E+04 F= -.10572362E+04 E0= -.10572362E+04  EK= 0.59918E+01 SP= 0.00E+00 SK= 0.00E+00
    956 T=   216. E= -.10512623E+04 F= -.10573665E+04 E0= -.10573665E+04  EK= 0.61042E+01 SP= 0.00E+00 SK= 0.00E+00
    957 T=   223. E= -.10512744E+04 F= -.10575948E+04 E0= -.10575948E+04  EK= 0.63204E+01 SP= 0.00E+00 SK= 0.00E+00
    958 T=   228. E= -.10513892E+04 F= -.10578324E+04 E0= -.10578324E+04  EK= 0.64432E+01 SP= 0.00E+00 SK= 0.00E+00
    959 T=   228. E= -.10514732E+04 F= -.10579317E+04 E0= -.10579317E+04  EK= 0.64584E+01 SP= 0.00E+00 SK= 0.00E+00
       N       E                     dE             d eps       ncg     rms          rms(c)
DAV:   1    -0.901819785544E+03    0.14017E+03   -0.22649E+04 20644   0.269E+02
DAV:   2    -0.104601200766E+04   -0.14419E+03   -0.14400E+03 24416   0.606E+01
DAV:   3    -0.104778509630E+04   -0.17731E+01   -0.17726E+01 24944   0.733E+00
DAV:   4    -0.104781482626E+04   -0.29730E-01   -0.29725E-01 24752   0.951E-01    0.273E+01
DAV:   5    -0.104249776268E+04    0.53171E+01   -0.11013E+01 24760   0.683E+00    0.154E+01
DAV:   6    -0.104231402498E+04    0.18374E+00   -0.77011E+00 25072   0.578E+00    0.403E+00
DAV:   7    -0.104258246450E+04   -0.26844E+00   -0.12952E+00 24312   0.234E+00    0.149E+00
DAV:   8    -0.104258237465E+04    0.89849E-04   -0.12056E-01 23928   0.746E-01    0.607E-01
DAV:   9    -0.104257961087E+04    0.27638E-02   -0.21301E-02 24288   0.384E-01    0.227E-01
DAV:  10    -0.104257826934E+04    0.13415E-02   -0.68971E-03 23672   0.238E-01    0.107E-01
DAV:  11    -0.104257750322E+04    0.76611E-03   -0.25881E-03 24712   0.144E-01    0.748E-02
DAV:  12    -0.104257681865E+04    0.68457E-03   -0.43786E-04 22888   0.930E-02    0.287E-02
DAV:  13    -0.104257640018E+04    0.41847E-03   -0.53900E-04 22256   0.112E-01    0.275E-02
DAV:  14    -0.104257640096E+04   -0.77572E-06   -0.71385E-04 23608   0.714E-02
    960 T=   227. E= -.10513766E+04 F= -.10578029E+04 E0= -.10578029E+04  EK= 0.64263E+01 SP= 0.00E+00 SK= 0.00E+00
    961 T=   219. E= -.10514062E+04 F= -.10576134E+04 E0= -.10576134E+04  EK= 0.62072E+01 SP= 0.00E+00 SK= 0.00E+00
    962 T=   211. E= -.10514377E+04 F= -.10574183E+04 E0= -.10574183E+04  EK= 0.59806E+01 SP= 0.00E+00 SK= 0.00E+00
    963 T=   207. E= -.10514720E+04 F= -.10573277E+04 E0= -.10573277E+04  EK= 0.58558E+01 SP= 0.00E+00 SK= 0.00E+00
    964 T=   208. E= -.10514759E+04 F= -.10573694E+04 E0= -.10573694E+04  EK= 0.58935E+01 SP= 0.00E+00 SK= 0.00E+00
    965 T=   211. E= -.10514902E+04 F= -.10574665E+04 E0= -.10574665E+04  EK= 0.59762E+01 SP= 0.00E+00 SK= 0.00E+00
    966 T=   214. E= -.10515256E+04 F= -.10575780E+04 E0= -.10575780E+04  EK= 0.60525E+01 SP= 0.00E+00 SK= 0.00E+00
    967 T=   213. E= -.10515901E+04 F= -.10576166E+04 E0= -.10576166E+04  EK= 0.60265E+01 SP= 0.00E+00 SK= 0.00E+00
    968 T=   209. E= -.10516588E+04 F= -.10575766E+04 E0= -.10575766E+04  EK= 0.59179E+01 SP= 0.00E+00 SK= 0.00E+00
    969 T=   205. E= -.10516636E+04 F= -.10574579E+04 E0= -.10574579E+04  EK= 0.57943E+01 SP= 0.00E+00 SK= 0.00E+00
    970 T=   202. E= -.10516308E+04 F= -.10573483E+04 E0= -.10573483E+04  EK= 0.57175E+01 SP= 0.00E+00 SK= 0.00E+00
    971 T=   202. E= -.10515789E+04 F= -.10573071E+04 E0= -.10573071E+04  EK= 0.57282E+01 SP= 0.00E+00 SK= 0.00E+00
    972 T=   207. E= -.10515673E+04 F= -.10574278E+04 E0= -.10574278E+04  EK= 0.58604E+01 SP= 0.00E+00 SK= 0.00E+00
    973 T=   208. E= -.10516616E+04 F= -.10575536E+04 E0= -.10575536E+04  EK= 0.58920E+01 SP= 0.00E+00 SK= 0.00E+00
    974 T=   207. E= -.10517728E+04 F= -.10576333E+04 E0= -.10576333E+04  EK= 0.58605E+01 SP= 0.00E+00 SK= 0.00E+00
    975 T=   209. E= -.10517514E+04 F= -.10576676E+04 E0= -.10576676E+04  EK= 0.59163E+01 SP= 0.00E+00 SK= 0.00E+00
    976 T=   211. E= -.10516867E+04 F= -.10576490E+04 E0= -.10576490E+04  EK= 0.59623E+01 SP= 0.00E+00 SK= 0.00E+00
    977 T=   208. E= -.10517228E+04 F= -.10575971E+04 E0= -.10575971E+04  EK= 0.58743E+01 SP= 0.00E+00 SK= 0.00E+00
    978 T=   206. E= -.10517037E+04 F= -.10575253E+04 E0= -.10575253E+04  EK= 0.58216E+01 SP= 0.00E+00 SK= 0.00E+00
    979 T=   205. E= -.10516695E+04 F= -.10574790E+04 E0= -.10574790E+04  EK= 0.58095E+01 SP= 0.00E+00 SK= 0.00E+00
    980 T=   205. E= -.10516809E+04 F= -.10574867E+04 E0= -.10574867E+04  EK= 0.58059E+01 SP= 0.00E+00 SK= 0.00E+00
    981 T=   207. E= -.10517169E+04 F= -.10575869E+04 E0= -.10575869E+04  EK= 0.58700E+01 SP= 0.00E+00 SK= 0.00E+00
    982 T=   208. E= -.10517811E+04 F= -.10576757E+04 E0= -.10576757E+04  EK= 0.58946E+01 SP= 0.00E+00 SK= 0.00E+00
    983 T=   204. E= -.10518887E+04 F= -.10576517E+04 E0= -.10576517E+04  EK= 0.57630E+01 SP= 0.00E+00 SK= 0.00E+00
    984 T=   199. E= -.10519463E+04 F= -.10575673E+04 E0= -.10575673E+04  EK= 0.56210E+01 SP= 0.00E+00 SK= 0.00E+00
    985 T=   198. E= -.10518928E+04 F= -.10574908E+04 E0= -.10574908E+04  EK= 0.55980E+01 SP= 0.00E+00 SK= 0.00E+00
    986 T=   200. E= -.10518467E+04 F= -.10575051E+04 E0= -.10575051E+04  EK= 0.56584E+01 SP= 0.00E+00 SK= 0.00E+00
    987 T=   205. E= -.10518291E+04 F= -.10576261E+04 E0= -.10576261E+04  EK= 0.57970E+01 SP= 0.00E+00 SK= 0.00E+00
       N       E                     dE             d eps       ncg     rms          rms(c)
DAV:   1    -0.997222495988E+03    0.45354E+02   -0.11493E+04 20644   0.195E+02
DAV:   2    -0.104470932887E+04   -0.47487E+02   -0.47455E+02 24792   0.355E+01
DAV:   3    -0.104519399299E+04   -0.48466E+00   -0.48458E+00 25016   0.384E+00
DAV:   4    -0.104520293184E+04   -0.89388E-02   -0.89379E-02 24936   0.513E-01    0.201E+01
DAV:   5    -0.104259553668E+04    0.26074E+01   -0.42175E+00 24664   0.498E+00    0.115E+01
DAV:   6    -0.104247307049E+04    0.12247E+00   -0.59368E+00 25128   0.521E+00    0.227E+00
DAV:   7    -0.104255341195E+04   -0.80341E-01   -0.97067E-01 24336   0.225E+00    0.105E+00
DAV:   8    -0.104255553118E+04   -0.21192E-02   -0.10052E-01 24264   0.613E-01    0.597E-01
DAV:   9    -0.104255258135E+04    0.29498E-02   -0.39532E-02 24200   0.522E-01    0.350E-01
DAV:  10    -0.104254898872E+04    0.35926E-02   -0.97265E-03 24880   0.330E-01    0.127E-01
DAV:  11    -0.104254848762E+04    0.50110E-03   -0.74665E-03 24744   0.195E-01    0.102E-01
DAV:  12    -0.104254771376E+04    0.77386E-03   -0.96951E-04 23320   0.930E-02    0.422E-02
DAV:  13    -0.104254723505E+04    0.47871E-03   -0.66100E-04 22056   0.984E-02    0.407E-02
DAV:  14    -0.104254714550E+04    0.89554E-04   -0.41714E-04 22872   0.681E-02
    988 T=   213. E= -.10517033E+04 F= -.10577208E+04 E0= -.10577208E+04  EK= 0.60175E+01 SP= 0.00E+00 SK= 0.00E+00
    989 T=   217. E= -.10517070E+04 F= -.10578499E+04 E0= -.10578499E+04  EK= 0.61429E+01 SP= 0.00E+00 SK= 0.00E+00
    990 T=   216. E= -.10517270E+04 F= -.10578548E+04 E0= -.10578548E+04  EK= 0.61278E+01 SP= 0.00E+00 SK= 0.00E+00
    991 T=   215. E= -.10516876E+04 F= -.10577613E+04 E0= -.10577613E+04  EK= 0.60737E+01 SP= 0.00E+00 SK= 0.00E+00
    992 T=   214. E= -.10515861E+04 F= -.10576354E+04 E0= -.10576354E+04  EK= 0.60492E+01 SP= 0.00E+00 SK= 0.00E+00
    993 T=   210. E= -.10515852E+04 F= -.10575286E+04 E0= -.10575286E+04  EK= 0.59434E+01 SP= 0.00E+00 SK= 0.00E+00
    994 T=   208. E= -.10515754E+04 F= -.10574755E+04 E0= -.10574755E+04  EK= 0.59001E+01 SP= 0.00E+00 SK= 0.00E+00
    995 T=   213. E= -.10514461E+04 F= -.10574779E+04 E0= -.10574779E+04  EK= 0.60317E+01 SP= 0.00E+00 SK= 0.00E+00
    996 T=   214. E= -.10514132E+04 F= -.10574728E+04 E0= -.10574728E+04  EK= 0.60596E+01 SP= 0.00E+00 SK= 0.00E+00
    997 T=   213. E= -.10514288E+04 F= -.10574682E+04 E0= -.10574682E+04  EK= 0.60395E+01 SP= 0.00E+00 SK= 0.00E+00
    998 T=   210. E= -.10514577E+04 F= -.10573966E+04 E0= -.10573966E+04  EK= 0.59390E+01 SP= 0.00E+00 SK= 0.00E+00
    999 T=   208. E= -.10514362E+04 F= -.10573376E+04 E0= -.10573376E+04  EK= 0.59015E+01 SP= 0.00E+00 SK= 0.00E+00
   1000 T=   209. E= -.10513967E+04 F= -.10572989E+04 E0= -.10572989E+04  EK= 0.59023E+01 SP= 0.00E+00 SK= 0.00E+00
   1001 T=   211. E= -.10513089E+04 F= -.10572818E+04 E0= -.10572818E+04  EK= 0.59729E+01 SP= 0.00E+00 SK= 0.00E+00
   1002 T=   213. E= -.10512203E+04 F= -.10572471E+04 E0= -.10572471E+04  EK= 0.60268E+01 SP= 0.00E+00 SK= 0.00E+00
   1003 T=   208. E= -.10512786E+04 F= -.10571790E+04 E0= -.10571790E+04  EK= 0.59004E+01 SP= 0.00E+00 SK= 0.00E+00
   1004 T=   207. E= -.10513083E+04 F= -.10571549E+04 E0= -.10571549E+04  EK= 0.58466E+01 SP= 0.00E+00 SK= 0.00E+00
   1005 T=   212. E= -.10512544E+04 F= -.10572550E+04 E0= -.10572550E+04  EK= 0.60006E+01 SP= 0.00E+00 SK= 0.00E+00
   1006 T=   217. E= -.10512617E+04 F= -.10574180E+04 E0= -.10574180E+04  EK= 0.61563E+01 SP= 0.00E+00 SK= 0.00E+00
   1007 T=   218. E= -.10513781E+04 F= -.10575381E+04 E0= -.10575381E+04  EK= 0.61600E+01 SP= 0.00E+00 SK= 0.00E+00
   1008 T=   217. E= -.10514481E+04 F= -.10575908E+04 E0= -.10575908E+04  EK= 0.61427E+01 SP= 0.00E+00 SK= 0.00E+00
   1009 T=   214. E= -.10514693E+04 F= -.10575147E+04 E0= -.10575147E+04  EK= 0.60454E+01 SP= 0.00E+00 SK= 0.00E+00
   1010 T=   209. E= -.10514412E+04 F= -.10573483E+04 E0= -.10573483E+04  EK= 0.59071E+01 SP= 0.00E+00 SK= 0.00E+00
   1011 T=   206. E= -.10514006E+04 F= -.10572411E+04 E0= -.10572411E+04  EK= 0.58405E+01 SP= 0.00E+00 SK= 0.00E+00
   1012 T=   210. E= -.10513301E+04 F= -.10572779E+04 E0= -.10572779E+04  EK= 0.59478E+01 SP= 0.00E+00 SK= 0.00E+00
   1013 T=   215. E= -.10513389E+04 F= -.10574142E+04 E0= -.10574142E+04  EK= 0.60753E+01 SP= 0.00E+00 SK= 0.00E+00
   1014 T=   219. E= -.10513649E+04 F= -.10575723E+04 E0= -.10575723E+04  EK= 0.62074E+01 SP= 0.00E+00 SK= 0.00E+00
   1015 T=   224. E= -.10513549E+04 F= -.10576854E+04 E0= -.10576854E+04  EK= 0.63304E+01 SP= 0.00E+00 SK= 0.00E+00
   1016 T=   224. E= -.10513587E+04 F= -.10576998E+04 E0= -.10576998E+04  EK= 0.63411E+01 SP= 0.00E+00 SK= 0.00E+00
   1017 T=   222. E= -.10513165E+04 F= -.10576038E+04 E0= -.10576038E+04  EK= 0.62873E+01 SP= 0.00E+00 SK= 0.00E+00
   1018 T=   218. E= -.10512697E+04 F= -.10574430E+04 E0= -.10574430E+04  EK= 0.61733E+01 SP= 0.00E+00 SK= 0.00E+00
   1019 T=   213. E= -.10512934E+04 F= -.10573178E+04 E0= -.10573178E+04  EK= 0.60244E+01 SP= 0.00E+00 SK= 0.00E+00
   1020 T=   211. E= -.10513490E+04 F= -.10573280E+04 E0= -.10573280E+04  EK= 0.59790E+01 SP= 0.00E+00 SK= 0.00E+00
   1021 T=   214. E= -.10514194E+04 F= -.10574858E+04 E0= -.10574858E+04  EK= 0.60663E+01 SP= 0.00E+00 SK= 0.00E+00
   1022 T=   220. E= -.10514500E+04 F= -.10576824E+04 E0= -.10576824E+04  EK= 0.62324E+01 SP= 0.00E+00 SK= 0.00E+00
   1023 T=   225. E= -.10513998E+04 F= -.10577659E+04 E0= -.10577659E+04  EK= 0.63661E+01 SP= 0.00E+00 SK= 0.00E+00
   1024 T=   223. E= -.10513848E+04 F= -.10576893E+04 E0= -.10576893E+04  EK= 0.63044E+01 SP= 0.00E+00 SK= 0.00E+00
   1025 T=   217. E= -.10513723E+04 F= -.10575254E+04 E0= -.10575254E+04  EK= 0.61530E+01 SP= 0.00E+00 SK= 0.00E+00
   1026 T=   213. E= -.10513434E+04 F= -.10573748E+04 E0= -.10573748E+04  EK= 0.60314E+01 SP= 0.00E+00 SK= 0.00E+00
   1027 T=   212. E= -.10512973E+04 F= -.10573014E+04 E0= -.10573014E+04  EK= 0.60041E+01 SP= 0.00E+00 SK= 0.00E+00
   1028 T=   217. E= -.10511642E+04 F= -.10573160E+04 E0= -.10573160E+04  EK= 0.61518E+01 SP= 0.00E+00 SK= 0.00E+00
   1029 T=   221. E= -.10511035E+04 F= -.10573664E+04 E0= -.10573664E+04  EK= 0.62630E+01 SP= 0.00E+00 SK= 0.00E+00
   1030 T=   224. E= -.10511062E+04 F= -.10574527E+04 E0= -.10574527E+04  EK= 0.63465E+01 SP= 0.00E+00 SK= 0.00E+00
   1031 T=   229. E= -.10509619E+04 F= -.10574515E+04 E0= -.10574515E+04  EK= 0.64896E+01 SP= 0.00E+00 SK= 0.00E+00
   1032 T=   231. E= -.10507768E+04 F= -.10573205E+04 E0= -.10573205E+04  EK= 0.65436E+01 SP= 0.00E+00 SK= 0.00E+00
   1033 T=   223. E= -.10507449E+04 F= -.10570649E+04 E0= -.10570649E+04  EK= 0.63199E+01 SP= 0.00E+00 SK= 0.00E+00
   1034 T=   213. E= -.10507814E+04 F= -.10568247E+04 E0= -.10568247E+04  EK= 0.60433E+01 SP= 0.00E+00 SK= 0.00E+00
   1035 T=   208. E= -.10508230E+04 F= -.10567225E+04 E0= -.10567225E+04  EK= 0.58995E+01 SP= 0.00E+00 SK= 0.00E+00
   1036 T=   209. E= -.10508808E+04 F= -.10568037E+04 E0= -.10568037E+04  EK= 0.59230E+01 SP= 0.00E+00 SK= 0.00E+00
   1037 T=   215. E= -.10508969E+04 F= -.10569704E+04 E0= -.10569704E+04  EK= 0.60734E+01 SP= 0.00E+00 SK= 0.00E+00
   1038 T=   220. E= -.10508558E+04 F= -.10570903E+04 E0= -.10570903E+04  EK= 0.62344E+01 SP= 0.00E+00 SK= 0.00E+00
   1039 T=   220. E= -.10509015E+04 F= -.10571391E+04 E0= -.10571391E+04  EK= 0.62376E+01 SP= 0.00E+00 SK= 0.00E+00
   1040 T=   218. E= -.10509355E+04 F= -.10571072E+04 E0= -.10571072E+04  EK= 0.61716E+01 SP= 0.00E+00 SK= 0.00E+00
   1041 T=   214. E= -.10509968E+04 F= -.10570683E+04 E0= -.10570683E+04  EK= 0.60716E+01 SP= 0.00E+00 SK= 0.00E+00
   1042 T=   211. E= -.10511163E+04 F= -.10570832E+04 E0= -.10570832E+04  EK= 0.59669E+01 SP= 0.00E+00 SK= 0.00E+00
   1043 T=   212. E= -.10511598E+04 F= -.10571533E+04 E0= -.10571533E+04  EK= 0.59935E+01 SP= 0.00E+00 SK= 0.00E+00
   1044 T=   216. E= -.10511750E+04 F= -.10572839E+04 E0= -.10572839E+04  EK= 0.61089E+01 SP= 0.00E+00 SK= 0.00E+00
   1045 T=   218. E= -.10512580E+04 F= -.10574223E+04 E0= -.10574223E+04  EK= 0.61643E+01 SP= 0.00E+00 SK= 0.00E+00
   1046 T=   215. E= -.10514224E+04 F= -.10575161E+04 E0= -.10575161E+04  EK= 0.60937E+01 SP= 0.00E+00 SK= 0.00E+00
   1047 T=   214. E= -.10514643E+04 F= -.10575125E+04 E0= -.10575125E+04  EK= 0.60482E+01 SP= 0.00E+00 SK= 0.00E+00
   1048 T=   211. E= -.10514326E+04 F= -.10574169E+04 E0= -.10574169E+04  EK= 0.59844E+01 SP= 0.00E+00 SK= 0.00E+00
   1049 T=   210. E= -.10514052E+04 F= -.10573436E+04 E0= -.10573436E+04  EK= 0.59384E+01 SP= 0.00E+00 SK= 0.00E+00
   1050 T=   213. E= -.10513414E+04 F= -.10573689E+04 E0= -.10573689E+04  EK= 0.60275E+01 SP= 0.00E+00 SK= 0.00E+00
   1051 T=   218. E= -.10512914E+04 F= -.10574630E+04 E0= -.10574630E+04  EK= 0.61716E+01 SP= 0.00E+00 SK= 0.00E+00
   1052 T=   223. E= -.10512714E+04 F= -.10575728E+04 E0= -.10575728E+04  EK= 0.63014E+01 SP= 0.00E+00 SK= 0.00E+00
   1053 T=   224. E= -.10512300E+04 F= -.10575745E+04 E0= -.10575745E+04  EK= 0.63445E+01 SP= 0.00E+00 SK= 0.00E+00
   1054 T=   222. E= -.10512712E+04 F= -.10575431E+04 E0= -.10575431E+04  EK= 0.62719E+01 SP= 0.00E+00 SK= 0.00E+00
       N       E                     dE             d eps       ncg     rms          rms(c)
DAV:   1    -0.778728382930E+03    0.26382E+03   -0.32736E+04 20644   0.319E+02
DAV:   2    -0.104651772013E+04   -0.26779E+03   -0.26571E+03 24512   0.798E+01
DAV:   3    -0.105125910227E+04   -0.47414E+01   -0.47393E+01 24712   0.115E+01
DAV:   4    -0.105133687629E+04   -0.77774E-01   -0.77760E-01 24864   0.144E+00    0.314E+01
DAV:   5    -0.104189388661E+04    0.94430E+01   -0.14753E+01 24944   0.872E+00    0.175E+01
DAV:   6    -0.104121805661E+04    0.67583E+00   -0.16095E+01 25192   0.819E+00    0.411E+00
DAV:   7    -0.104156465314E+04   -0.34660E+00   -0.26112E+00 23968   0.336E+00    0.203E+00
DAV:   8    -0.104158975259E+04   -0.25099E-01   -0.21632E-01 24456   0.926E-01    0.101E+00
DAV:   9    -0.104158998743E+04   -0.23484E-03   -0.67440E-02 24488   0.720E-01    0.455E-01
DAV:  10    -0.104158829165E+04    0.16958E-02   -0.15875E-02 24576   0.371E-01    0.183E-01
DAV:  11    -0.104158796521E+04    0.32644E-03   -0.10218E-02 24696   0.225E-01    0.111E-01
DAV:  12    -0.104158732307E+04    0.64214E-03   -0.13898E-03 24200   0.121E-01    0.396E-02
DAV:  13    -0.104158696002E+04    0.36305E-03   -0.61925E-04 22712   0.103E-01    0.457E-02
DAV:  14    -0.104158679239E+04    0.16762E-03   -0.50207E-04 22632   0.863E-02    0.210E-02
DAV:  15    -0.104158680752E+04   -0.15124E-04   -0.32948E-04 21792   0.370E-02
   1055 T=   220. E= -.10512790E+04 F= -.10575016E+04 E0= -.10575016E+04  EK= 0.62226E+01 SP= 0.00E+00 SK= 0.00E+00
   1056 T=   223. E= -.10512539E+04 F= -.10575688E+04 E0= -.10575688E+04  EK= 0.63149E+01 SP= 0.00E+00 SK= 0.00E+00
   1057 T=   225. E= -.10512450E+04 F= -.10576136E+04 E0= -.10576136E+04  EK= 0.63687E+01 SP= 0.00E+00 SK= 0.00E+00
   1058 T=   225. E= -.10512437E+04 F= -.10576257E+04 E0= -.10576257E+04  EK= 0.63821E+01 SP= 0.00E+00 SK= 0.00E+00
   1059 T=   226. E= -.10512017E+04 F= -.10576007E+04 E0= -.10576007E+04  EK= 0.63990E+01 SP= 0.00E+00 SK= 0.00E+00
   1060 T=   224. E= -.10511946E+04 F= -.10575407E+04 E0= -.10575407E+04  EK= 0.63462E+01 SP= 0.00E+00 SK= 0.00E+00
   1061 T=   221. E= -.10511921E+04 F= -.10574540E+04 E0= -.10574540E+04  EK= 0.62619E+01 SP= 0.00E+00 SK= 0.00E+00
   1062 T=   219. E= -.10511369E+04 F= -.10573504E+04 E0= -.10573504E+04  EK= 0.62135E+01 SP= 0.00E+00 SK= 0.00E+00
   1063 T=   217. E= -.10511187E+04 F= -.10572477E+04 E0= -.10572477E+04  EK= 0.61290E+01 SP= 0.00E+00 SK= 0.00E+00
   1064 T=   213. E= -.10511726E+04 F= -.10572116E+04 E0= -.10572116E+04  EK= 0.60390E+01 SP= 0.00E+00 SK= 0.00E+00
       N       E                     dE             d eps       ncg     rms          rms(c)
DAV:   1    -0.103491174945E+04    0.66750E+01   -0.26856E+03 20644   0.957E+01
DAV:   2    -0.104191417266E+04   -0.70024E+01   -0.70007E+01 25080   0.141E+01
DAV:   3    -0.104197768665E+04   -0.63514E-01   -0.63510E-01 25000   0.139E+00
DAV:   4    -0.104197897715E+04   -0.12905E-02   -0.12904E-02 25000   0.195E-01    0.104E+01
DAV:   5    -0.104116415918E+04    0.81482E+00   -0.15506E+00 25216   0.328E+00    0.579E+00
DAV:   6    -0.104118817725E+04   -0.24018E-01   -0.14939E+00 25104   0.265E+00    0.156E+00
DAV:   7    -0.104121856322E+04   -0.30386E-01   -0.26631E-01 24424   0.129E+00    0.568E-01
DAV:   8    -0.104121845750E+04    0.10571E-03   -0.28520E-02 23616   0.414E-01    0.280E-01
DAV:   9    -0.104121816007E+04    0.29744E-03   -0.12872E-02 24056   0.258E-01    0.180E-01
DAV:  10    -0.104121714659E+04    0.10135E-02   -0.32987E-03 29032   0.186E-01    0.468E-02
DAV:  11    -0.104121693449E+04    0.21210E-03   -0.10594E-03 23672   0.767E-02    0.445E-02
DAV:  12    -0.104121665703E+04    0.27746E-03   -0.20791E-04 18112   0.629E-02    0.175E-02
DAV:  13    -0.104121657693E+04    0.80094E-04   -0.29563E-04 20528   0.531E-02
   1065 T=   212. E= -.10511485E+04 F= -.10571545E+04 E0= -.10571545E+04  EK= 0.60060E+01 SP= 0.00E+00 SK= 0.00E+00
   1066 T=   211. E= -.10512880E+04 F= -.10572584E+04 E0= -.10572584E+04  EK= 0.59703E+01 SP= 0.00E+00 SK= 0.00E+00
   1067 T=   210. E= -.10512817E+04 F= -.10572201E+04 E0= -.10572201E+04  EK= 0.59385E+01 SP= 0.00E+00 SK= 0.00E+00
   1068 T=   210. E= -.10512101E+04 F= -.10571630E+04 E0= -.10571630E+04  EK= 0.59529E+01 SP= 0.00E+00 SK= 0.00E+00
   1069 T=   209. E= -.10511533E+04 F= -.10570699E+04 E0= -.10570699E+04  EK= 0.59166E+01 SP= 0.00E+00 SK= 0.00E+00
   1070 T=   209. E= -.10510692E+04 F= -.10569781E+04 E0= -.10569781E+04  EK= 0.59089E+01 SP= 0.00E+00 SK= 0.00E+00
   1071 T=   209. E= -.10510227E+04 F= -.10569415E+04 E0= -.10569415E+04  EK= 0.59188E+01 SP= 0.00E+00 SK= 0.00E+00
   1072 T=   213. E= -.10509430E+04 F= -.10569775E+04 E0= -.10569775E+04  EK= 0.60344E+01 SP= 0.00E+00 SK= 0.00E+00
   1073 T=   216. E= -.10509175E+04 F= -.10570292E+04 E0= -.10570292E+04  EK= 0.61117E+01 SP= 0.00E+00 SK= 0.00E+00
   1074 T=   215. E= -.10510091E+04 F= -.10570820E+04 E0= -.10570820E+04  EK= 0.60729E+01 SP= 0.00E+00 SK= 0.00E+00
       N       E                     dE             d eps       ncg     rms          rms(c)
DAV:   1    -0.103583589008E+04    0.53808E+01   -0.23045E+03 20644   0.888E+01
DAV:   2    -0.104163901036E+04   -0.58031E+01   -0.58017E+01 25064   0.129E+01
DAV:   3    -0.104169119131E+04   -0.52181E-01   -0.52177E-01 25024   0.126E+00
DAV:   4    -0.104169225501E+04   -0.10637E-02   -0.10636E-02 25048   0.178E-01    0.996E+00
DAV:   5    -0.104100950602E+04    0.68275E+00   -0.15626E+00 25344   0.330E+00    0.549E+00
DAV:   6    -0.104106420583E+04   -0.54700E-01   -0.12093E+00 25048   0.239E+00    0.164E+00
DAV:   7    -0.104109515491E+04   -0.30949E-01   -0.21746E-01 24584   0.117E+00    0.543E-01
DAV:   8    -0.104109483669E+04    0.31822E-03   -0.25446E-02 23696   0.379E-01    0.281E-01
DAV:   9    -0.104109416927E+04    0.66742E-03   -0.11474E-02 23696   0.244E-01    0.160E-01
DAV:  10    -0.104109329929E+04    0.86998E-03   -0.24961E-03 29256   0.173E-01    0.441E-02
DAV:  11    -0.104109315434E+04    0.14495E-03   -0.97796E-04 23776   0.745E-02    0.426E-02
DAV:  12    -0.104109295425E+04    0.20009E-03   -0.17151E-04 17360   0.621E-02    0.148E-02
DAV:  13    -0.104109291070E+04    0.43548E-04   -0.23266E-04 18448   0.500E-02
   1075 T=   213. E= -.10510117E+04 F= -.10570292E+04 E0= -.10570292E+04  EK= 0.60175E+01 SP= 0.00E+00 SK= 0.00E+00
   1076 T=   210. E= -.10511291E+04 F= -.10570861E+04 E0= -.10570861E+04  EK= 0.59570E+01 SP= 0.00E+00 SK= 0.00E+00
   1077 T=   208. E= -.10512463E+04 F= -.10571338E+04 E0= -.10571338E+04  EK= 0.58875E+01 SP= 0.00E+00 SK= 0.00E+00
   1078 T=   212. E= -.10512419E+04 F= -.10572309E+04 E0= -.10572309E+04  EK= 0.59890E+01 SP= 0.00E+00 SK= 0.00E+00
   1079 T=   219. E= -.10511184E+04 F= -.10573220E+04 E0= -.10573220E+04  EK= 0.62035E+01 SP= 0.00E+00 SK= 0.00E+00
   1080 T=   218. E= -.10511807E+04 F= -.10573593E+04 E0= -.10573593E+04  EK= 0.61786E+01 SP= 0.00E+00 SK= 0.00E+00
   1081 T=   215. E= -.10512546E+04 F= -.10573268E+04 E0= -.10573268E+04  EK= 0.60722E+01 SP= 0.00E+00 SK= 0.00E+00
   1082 T=   214. E= -.10511890E+04 F= -.10572514E+04 E0= -.10572514E+04  EK= 0.60624E+01 SP= 0.00E+00 SK= 0.00E+00
   1083 T=   217. E= -.10510786E+04 F= -.10572097E+04 E0= -.10572097E+04  EK= 0.61311E+01 SP= 0.00E+00 SK= 0.00E+00
   1084 T=   219. E= -.10510443E+04 F= -.10572451E+04 E0= -.10572451E+04  EK= 0.62008E+01 SP= 0.00E+00 SK= 0.00E+00
   1085 T=   219. E= -.10511232E+04 F= -.10573239E+04 E0= -.10573239E+04  EK= 0.62007E+01 SP= 0.00E+00 SK= 0.00E+00
   1086 T=   222. E= -.10511309E+04 F= -.10574114E+04 E0= -.10574114E+04  EK= 0.62804E+01 SP= 0.00E+00 SK= 0.00E+00
   1087 T=   227. E= -.10510822E+04 F= -.10575163E+04 E0= -.10575163E+04  EK= 0.64341E+01 SP= 0.00E+00 SK= 0.00E+00
   1088 T=   229. E= -.10510795E+04 F= -.10575585E+04 E0= -.10575585E+04  EK= 0.64790E+01 SP= 0.00E+00 SK= 0.00E+00
   1089 T=   225. E= -.10511574E+04 F= -.10575155E+04 E0= -.10575155E+04  EK= 0.63581E+01 SP= 0.00E+00 SK= 0.00E+00
   1090 T=   219. E= -.10512109E+04 F= -.10574015E+04 E0= -.10574015E+04  EK= 0.61906E+01 SP= 0.00E+00 SK= 0.00E+00
   1091 T=   215. E= -.10512206E+04 F= -.10573073E+04 E0= -.10573073E+04  EK= 0.60868E+01 SP= 0.00E+00 SK= 0.00E+00
   1092 T=   218. E= -.10511705E+04 F= -.10573454E+04 E0= -.10573454E+04  EK= 0.61749E+01 SP= 0.00E+00 SK= 0.00E+00
   1093 T=   224. E= -.10511381E+04 F= -.10574659E+04 E0= -.10574659E+04  EK= 0.63278E+01 SP= 0.00E+00 SK= 0.00E+00
   1094 T=   226. E= -.10512009E+04 F= -.10575966E+04 E0= -.10575966E+04  EK= 0.63957E+01 SP= 0.00E+00 SK= 0.00E+00
   1095 T=   229. E= -.10511711E+04 F= -.10576590E+04 E0= -.10576590E+04  EK= 0.64879E+01 SP= 0.00E+00 SK= 0.00E+00
   1096 T=   230. E= -.10510912E+04 F= -.10576093E+04 E0= -.10576093E+04  EK= 0.65182E+01 SP= 0.00E+00 SK= 0.00E+00
   1097 T=   226. E= -.10510880E+04 F= -.10574962E+04 E0= -.10574962E+04  EK= 0.64082E+01 SP= 0.00E+00 SK= 0.00E+00
   1098 T=   220. E= -.10511266E+04 F= -.10573662E+04 E0= -.10573662E+04  EK= 0.62396E+01 SP= 0.00E+00 SK= 0.00E+00
   1099 T=   217. E= -.10511934E+04 F= -.10573365E+04 E0= -.10573365E+04  EK= 0.61432E+01 SP= 0.00E+00 SK= 0.00E+00
   1100 T=   216. E= -.10512612E+04 F= -.10573616E+04 E0= -.10573616E+04  EK= 0.61005E+01 SP= 0.00E+00 SK= 0.00E+00
   1101 T=   215. E= -.10513551E+04 F= -.10574542E+04 E0= -.10574542E+04  EK= 0.60990E+01 SP= 0.00E+00 SK= 0.00E+00
   1102 T=   220. E= -.10513738E+04 F= -.10576011E+04 E0= -.10576011E+04  EK= 0.62272E+01 SP= 0.00E+00 SK= 0.00E+00
   1103 T=   227. E= -.10513104E+04 F= -.10577438E+04 E0= -.10577438E+04  EK= 0.64334E+01 SP= 0.00E+00 SK= 0.00E+00
   1104 T=   231. E= -.10512368E+04 F= -.10577740E+04 E0= -.10577740E+04  EK= 0.65372E+01 SP= 0.00E+00 SK= 0.00E+00
   1105 T=   230. E= -.10512139E+04 F= -.10577245E+04 E0= -.10577245E+04  EK= 0.65106E+01 SP= 0.00E+00 SK= 0.00E+00
   1106 T=   226. E= -.10512401E+04 F= -.10576334E+04 E0= -.10576334E+04  EK= 0.63932E+01 SP= 0.00E+00 SK= 0.00E+00
   1107 T=   223. E= -.10512842E+04 F= -.10575976E+04 E0= -.10575976E+04  EK= 0.63134E+01 SP= 0.00E+00 SK= 0.00E+00
   1108 T=   224. E= -.10513116E+04 F= -.10576409E+04 E0= -.10576409E+04  EK= 0.63294E+01 SP= 0.00E+00 SK= 0.00E+00
   1109 T=   227. E= -.10513199E+04 F= -.10577322E+04 E0= -.10577322E+04  EK= 0.64122E+01 SP= 0.00E+00 SK= 0.00E+00
   1110 T=   229. E= -.10512923E+04 F= -.10577614E+04 E0= -.10577614E+04  EK= 0.64691E+01 SP= 0.00E+00 SK= 0.00E+00
   1111 T=   226. E= -.10512672E+04 F= -.10576741E+04 E0= -.10576741E+04  EK= 0.64069E+01 SP= 0.00E+00 SK= 0.00E+00
   1112 T=   220. E= -.10512811E+04 F= -.10575048E+04 E0= -.10575048E+04  EK= 0.62238E+01 SP= 0.00E+00 SK= 0.00E+00
   1113 T=   214. E= -.10512729E+04 F= -.10573308E+04 E0= -.10573308E+04  EK= 0.60579E+01 SP= 0.00E+00 SK= 0.00E+00
   1114 T=   211. E= -.10512308E+04 F= -.10572118E+04 E0= -.10572118E+04  EK= 0.59810E+01 SP= 0.00E+00 SK= 0.00E+00
   1115 T=   212. E= -.10511562E+04 F= -.10571649E+04 E0= -.10571649E+04  EK= 0.60088E+01 SP= 0.00E+00 SK= 0.00E+00
   1116 T=   217. E= -.10510846E+04 F= -.10572303E+04 E0= -.10572303E+04  EK= 0.61456E+01 SP= 0.00E+00 SK= 0.00E+00
   1117 T=   220. E= -.10511057E+04 F= -.10573453E+04 E0= -.10573453E+04  EK= 0.62396E+01 SP= 0.00E+00 SK= 0.00E+00
   1118 T=   222. E= -.10512029E+04 F= -.10574743E+04 E0= -.10574743E+04  EK= 0.62713E+01 SP= 0.00E+00 SK= 0.00E+00
   1119 T=   224. E= -.10512597E+04 F= -.10576040E+04 E0= -.10576040E+04  EK= 0.63443E+01 SP= 0.00E+00 SK= 0.00E+00
   1120 T=   227. E= -.10512576E+04 F= -.10576834E+04 E0= -.10576834E+04  EK= 0.64258E+01 SP= 0.00E+00 SK= 0.00E+00
   1121 T=   225. E= -.10512900E+04 F= -.10576527E+04 E0= -.10576527E+04  EK= 0.63627E+01 SP= 0.00E+00 SK= 0.00E+00
   1122 T=   222. E= -.10512832E+04 F= -.10575702E+04 E0= -.10575702E+04  EK= 0.62870E+01 SP= 0.00E+00 SK= 0.00E+00
   1123 T=   218. E= -.10512841E+04 F= -.10574615E+04 E0= -.10574615E+04  EK= 0.61774E+01 SP= 0.00E+00 SK= 0.00E+00
   1124 T=   215. E= -.10513149E+04 F= -.10573972E+04 E0= -.10573972E+04  EK= 0.60824E+01 SP= 0.00E+00 SK= 0.00E+00
   1125 T=   212. E= -.10513945E+04 F= -.10574078E+04 E0= -.10574078E+04  EK= 0.60133E+01 SP= 0.00E+00 SK= 0.00E+00
   1126 T=   212. E= -.10514929E+04 F= -.10574899E+04 E0= -.10574899E+04  EK= 0.59970E+01 SP= 0.00E+00 SK= 0.00E+00
   1127 T=   215. E= -.10514873E+04 F= -.10575837E+04 E0= -.10575837E+04  EK= 0.60964E+01 SP= 0.00E+00 SK= 0.00E+00
   1128 T=   218. E= -.10514277E+04 F= -.10576036E+04 E0= -.10576036E+04  EK= 0.61759E+01 SP= 0.00E+00 SK= 0.00E+00
   1129 T=   220. E= -.10513496E+04 F= -.10575747E+04 E0= -.10575747E+04  EK= 0.62251E+01 SP= 0.00E+00 SK= 0.00E+00
   1130 T=   220. E= -.10512207E+04 F= -.10574484E+04 E0= -.10574484E+04  EK= 0.62277E+01 SP= 0.00E+00 SK= 0.00E+00
   1131 T=   219. E= -.10511281E+04 F= -.10573141E+04 E0= -.10573141E+04  EK= 0.61860E+01 SP= 0.00E+00 SK= 0.00E+00
   1132 T=   218. E= -.10510967E+04 F= -.10572768E+04 E0= -.10572768E+04  EK= 0.61802E+01 SP= 0.00E+00 SK= 0.00E+00
   1133 T=   225. E= -.10509981E+04 F= -.10573541E+04 E0= -.10573541E+04  EK= 0.63561E+01 SP= 0.00E+00 SK= 0.00E+00
   1134 T=   231. E= -.10509454E+04 F= -.10574969E+04 E0= -.10574969E+04  EK= 0.65515E+01 SP= 0.00E+00 SK= 0.00E+00
   1135 T=   232. E= -.10510488E+04 F= -.10576244E+04 E0= -.10576244E+04  EK= 0.65756E+01 SP= 0.00E+00 SK= 0.00E+00
   1136 T=   232. E= -.10510667E+04 F= -.10576210E+04 E0= -.10576210E+04  EK= 0.65543E+01 SP= 0.00E+00 SK= 0.00E+00
   1137 T=   229. E= -.10510755E+04 F= -.10575507E+04 E0= -.10575507E+04  EK= 0.64752E+01 SP= 0.00E+00 SK= 0.00E+00
   1138 T=   223. E= -.10511672E+04 F= -.10574749E+04 E0= -.10574749E+04  EK= 0.63077E+01 SP= 0.00E+00 SK= 0.00E+00
   1139 T=   221. E= -.10511791E+04 F= -.10574246E+04 E0= -.10574246E+04  EK= 0.62455E+01 SP= 0.00E+00 SK= 0.00E+00
   1140 T=   220. E= -.10511264E+04 F= -.10573416E+04 E0= -.10573416E+04  EK= 0.62152E+01 SP= 0.00E+00 SK= 0.00E+00
   1141 T=   220. E= -.10510241E+04 F= -.10572473E+04 E0= -.10572473E+04  EK= 0.62233E+01 SP= 0.00E+00 SK= 0.00E+00
   1142 T=   220. E= -.10509361E+04 F= -.10571604E+04 E0= -.10571604E+04  EK= 0.62243E+01 SP= 0.00E+00 SK= 0.00E+00
   1143 T=   217. E= -.10509032E+04 F= -.10570559E+04 E0= -.10570559E+04  EK= 0.61528E+01 SP= 0.00E+00 SK= 0.00E+00
   1144 T=   212. E= -.10509375E+04 F= -.10569491E+04 E0= -.10569491E+04  EK= 0.60116E+01 SP= 0.00E+00 SK= 0.00E+00
   1145 T=   209. E= -.10510082E+04 F= -.10569369E+04 E0= -.10569369E+04  EK= 0.59287E+01 SP= 0.00E+00 SK= 0.00E+00
   1146 T=   213. E= -.10509902E+04 F= -.10570080E+04 E0= -.10570080E+04  EK= 0.60178E+01 SP= 0.00E+00 SK= 0.00E+00
   1147 T=   218. E= -.10509241E+04 F= -.10571027E+04 E0= -.10571027E+04  EK= 0.61786E+01 SP= 0.00E+00 SK= 0.00E+00
   1148 T=   219. E= -.10509105E+04 F= -.10571159E+04 E0= -.10571159E+04  EK= 0.62054E+01 SP= 0.00E+00 SK= 0.00E+00
   1149 T=   218. E= -.10508510E+04 F= -.10570114E+04 E0= -.10570114E+04  EK= 0.61605E+01 SP= 0.00E+00 SK= 0.00E+00
   1150 T=   218. E= -.10507264E+04 F= -.10568850E+04 E0= -.10568850E+04  EK= 0.61586E+01 SP= 0.00E+00 SK= 0.00E+00
   1151 T=   215. E= -.10507287E+04 F= -.10568091E+04 E0= -.10568091E+04  EK= 0.60804E+01 SP= 0.00E+00 SK= 0.00E+00
   1152 T=   215. E= -.10507785E+04 F= -.10568678E+04 E0= -.10568678E+04  EK= 0.60893E+01 SP= 0.00E+00 SK= 0.00E+00
   1153 T=   221. E= -.10508530E+04 F= -.10571018E+04 E0= -.10571018E+04  EK= 0.62487E+01 SP= 0.00E+00 SK= 0.00E+00
   1154 T=   229. E= -.10509032E+04 F= -.10573943E+04 E0= -.10573943E+04  EK= 0.64911E+01 SP= 0.00E+00 SK= 0.00E+00
   1155 T=   240. E= -.10507888E+04 F= -.10575860E+04 E0= -.10575860E+04  EK= 0.67972E+01 SP= 0.00E+00 SK= 0.00E+00
   1156 T=   239. E= -.10507549E+04 F= -.10575067E+04 E0= -.10575067E+04  EK= 0.67518E+01 SP= 0.00E+00 SK= 0.00E+00
   1157 T=   228. E= -.10508132E+04 F= -.10572533E+04 E0= -.10572533E+04  EK= 0.64401E+01 SP= 0.00E+00 SK= 0.00E+00
   1158 T=   220. E= -.10508063E+04 F= -.10570280E+04 E0= -.10570280E+04  EK= 0.62216E+01 SP= 0.00E+00 SK= 0.00E+00
   1159 T=   217. E= -.10508575E+04 F= -.10570091E+04 E0= -.10570091E+04  EK= 0.61516E+01 SP= 0.00E+00 SK= 0.00E+00
   1160 T=   219. E= -.10509819E+04 F= -.10571729E+04 E0= -.10571729E+04  EK= 0.61909E+01 SP= 0.00E+00 SK= 0.00E+00
   1161 T=   225. E= -.10510494E+04 F= -.10574294E+04 E0= -.10574294E+04  EK= 0.63800E+01 SP= 0.00E+00 SK= 0.00E+00
   1162 T=   234. E= -.10510895E+04 F= -.10576998E+04 E0= -.10576998E+04  EK= 0.66104E+01 SP= 0.00E+00 SK= 0.00E+00
   1163 T=   236. E= -.10511215E+04 F= -.10577913E+04 E0= -.10577913E+04  EK= 0.66698E+01 SP= 0.00E+00 SK= 0.00E+00
   1164 T=   233. E= -.10510742E+04 F= -.10576644E+04 E0= -.10576644E+04  EK= 0.65902E+01 SP= 0.00E+00 SK= 0.00E+00
   1165 T=   228. E= -.10509784E+04 F= -.10574352E+04 E0= -.10574352E+04  EK= 0.64567E+01 SP= 0.00E+00 SK= 0.00E+00
   1166 T=   223. E= -.10509294E+04 F= -.10572523E+04 E0= -.10572523E+04  EK= 0.63228E+01 SP= 0.00E+00 SK= 0.00E+00
   1167 T=   226. E= -.10508649E+04 F= -.10572613E+04 E0= -.10572613E+04  EK= 0.63963E+01 SP= 0.00E+00 SK= 0.00E+00
   1168 T=   236. E= -.10508188E+04 F= -.10575034E+04 E0= -.10575034E+04  EK= 0.66846E+01 SP= 0.00E+00 SK= 0.00E+00
   1169 T=   245. E= -.10508594E+04 F= -.10578034E+04 E0= -.10578034E+04  EK= 0.69440E+01 SP= 0.00E+00 SK= 0.00E+00
   1170 T=   249. E= -.10508875E+04 F= -.10579415E+04 E0= -.10579415E+04  EK= 0.70539E+01 SP= 0.00E+00 SK= 0.00E+00
   1171 T=   244. E= -.10508711E+04 F= -.10577864E+04 E0= -.10577864E+04  EK= 0.69153E+01 SP= 0.00E+00 SK= 0.00E+00
   1172 T=   232. E= -.10508735E+04 F= -.10574371E+04 E0= -.10574371E+04  EK= 0.65636E+01 SP= 0.00E+00 SK= 0.00E+00
   1173 T=   222. E= -.10508568E+04 F= -.10571395E+04 E0= -.10571395E+04  EK= 0.62827E+01 SP= 0.00E+00 SK= 0.00E+00
   1174 T=   216. E= -.10508814E+04 F= -.10570006E+04 E0= -.10570006E+04  EK= 0.61192E+01 SP= 0.00E+00 SK= 0.00E+00
   1175 T=   211. E= -.10510048E+04 F= -.10569888E+04 E0= -.10569888E+04  EK= 0.59840E+01 SP= 0.00E+00 SK= 0.00E+00
   1176 T=   212. E= -.10510786E+04 F= -.10570890E+04 E0= -.10570890E+04  EK= 0.60104E+01 SP= 0.00E+00 SK= 0.00E+00
       N       E                     dE             d eps       ncg     rms          rms(c)
DAV:   1    -0.594661126232E+03    0.44643E+03   -0.40851E+04 20644   0.352E+02
DAV:   2    -0.103893537743E+04   -0.44427E+03   -0.43507E+03 24201   0.101E+02
DAV:   3    -0.104954612634E+04   -0.10611E+02   -0.10601E+02 24600   0.171E+01
DAV:   4    -0.104969797959E+04   -0.15185E+00   -0.15181E+00 24720   0.202E+00    0.352E+01
DAV:   5    -0.104026253321E+04    0.94354E+01   -0.29105E+01 24624   0.995E+00    0.194E+01
DAV:   6    -0.104094061268E+04   -0.67808E+00   -0.97513E+00 24800   0.631E+00    0.721E+00
DAV:   7    -0.104168432703E+04   -0.74371E+00   -0.20575E+00 23936   0.307E+00    0.183E+00
DAV:   8    -0.104170264819E+04   -0.18321E-01   -0.18124E-01 24632   0.931E-01    0.832E-01
DAV:   9    -0.104170495795E+04   -0.23098E-02   -0.60881E-02 23488   0.550E-01    0.256E-01
DAV:  10    -0.104170350459E+04    0.14534E-02   -0.10993E-02 25120   0.284E-01    0.133E-01
DAV:  11    -0.104170294046E+04    0.56414E-03   -0.37126E-03 23296   0.130E-01    0.861E-02
DAV:  12    -0.104170221750E+04    0.72295E-03   -0.53503E-04 22592   0.103E-01    0.361E-02
DAV:  13    -0.104170180987E+04    0.40763E-03   -0.70783E-04 22792   0.113E-01    0.388E-02
DAV:  14    -0.104170177527E+04    0.34602E-04   -0.73000E-04 23416   0.747E-02
   1177 T=   217. E= -.10510091E+04 F= -.10571387E+04 E0= -.10571387E+04  EK= 0.61296E+01 SP= 0.00E+00 SK= 0.00E+00
   1178 T=   218. E= -.10510360E+04 F= -.10571995E+04 E0= -.10571995E+04  EK= 0.61635E+01 SP= 0.00E+00 SK= 0.00E+00
   1179 T=   217. E= -.10509715E+04 F= -.10571166E+04 E0= -.10571166E+04  EK= 0.61452E+01 SP= 0.00E+00 SK= 0.00E+00
   1180 T=   210. E= -.10509330E+04 F= -.10568914E+04 E0= -.10568914E+04  EK= 0.59583E+01 SP= 0.00E+00 SK= 0.00E+00
   1181 T=   204. E= -.10509115E+04 F= -.10566924E+04 E0= -.10566924E+04  EK= 0.57809E+01 SP= 0.00E+00 SK= 0.00E+00
   1182 T=   203. E= -.10508906E+04 F= -.10566278E+04 E0= -.10566278E+04  EK= 0.57372E+01 SP= 0.00E+00 SK= 0.00E+00
   1183 T=   207. E= -.10508543E+04 F= -.10567167E+04 E0= -.10567167E+04  EK= 0.58625E+01 SP= 0.00E+00 SK= 0.00E+00
   1184 T=   213. E= -.10508166E+04 F= -.10568510E+04 E0= -.10568510E+04  EK= 0.60343E+01 SP= 0.00E+00 SK= 0.00E+00
   1185 T=   214. E= -.10509011E+04 F= -.10569677E+04 E0= -.10569677E+04  EK= 0.60666E+01 SP= 0.00E+00 SK= 0.00E+00
   1186 T=   218. E= -.10508590E+04 F= -.10570440E+04 E0= -.10570440E+04  EK= 0.61850E+01 SP= 0.00E+00 SK= 0.00E+00
   1187 T=   222. E= -.10508055E+04 F= -.10570817E+04 E0= -.10570817E+04  EK= 0.62762E+01 SP= 0.00E+00 SK= 0.00E+00
   1188 T=   220. E= -.10508364E+04 F= -.10570512E+04 E0= -.10570512E+04  EK= 0.62148E+01 SP= 0.00E+00 SK= 0.00E+00
   1189 T=   217. E= -.10508488E+04 F= -.10569936E+04 E0= -.10569936E+04  EK= 0.61448E+01 SP= 0.00E+00 SK= 0.00E+00
   1190 T=   214. E= -.10508320E+04 F= -.10568778E+04 E0= -.10568778E+04  EK= 0.60458E+01 SP= 0.00E+00 SK= 0.00E+00
   1191 T=   211. E= -.10507918E+04 F= -.10567640E+04 E0= -.10567640E+04  EK= 0.59723E+01 SP= 0.00E+00 SK= 0.00E+00
       N       E                     dE             d eps       ncg     rms          rms(c)
DAV:   1    -0.103027220902E+04    0.11430E+02   -0.43747E+03 20644   0.121E+02
DAV:   2    -0.104208720255E+04   -0.11815E+02   -0.11811E+02 24864   0.180E+01
DAV:   3    -0.104219747597E+04   -0.11027E+00   -0.11026E+00 25032   0.184E+00
DAV:   4    -0.104219972929E+04   -0.22533E-02   -0.22532E-02 25160   0.258E-01    0.129E+01
DAV:   5    -0.104118796111E+04    0.10118E+01   -0.20676E+00 24632   0.324E+00    0.730E+00
DAV:   6    -0.104128903245E+04   -0.10107E+00   -0.18891E+00 25160   0.293E+00    0.172E+00
DAV:   7    -0.104133943832E+04   -0.50406E-01   -0.29221E-01 24152   0.112E+00    0.682E-01
DAV:   8    -0.104133932196E+04    0.11637E-03   -0.30896E-02 23976   0.356E-01    0.277E-01
DAV:   9    -0.104133822696E+04    0.10950E-02   -0.40698E-03 26520   0.205E-01    0.120E-01
DAV:  10    -0.104133767419E+04    0.55278E-03   -0.20791E-03 24120   0.147E-01    0.573E-02
DAV:  11    -0.104133741428E+04    0.25990E-03   -0.88327E-04 24704   0.855E-02    0.426E-02
DAV:  12    -0.104133721902E+04    0.19526E-03   -0.10253E-04 16592   0.455E-02    0.201E-02
DAV:  13    -0.104133704479E+04    0.17423E-03   -0.19872E-04 18344   0.717E-02    0.144E-02
DAV:  14    -0.104133704667E+04   -0.18732E-05   -0.23560E-04 19928   0.373E-02
   1192 T=   209. E= -.10507528E+04 F= -.10566579E+04 E0= -.10566579E+04  EK= 0.59051E+01 SP= 0.00E+00 SK= 0.00E+00
   1193 T=   210. E= -.10507847E+04 F= -.10567280E+04 E0= -.10567280E+04  EK= 0.59432E+01 SP= 0.00E+00 SK= 0.00E+00
   1194 T=   217. E= -.10507044E+04 F= -.10568497E+04 E0= -.10568497E+04  EK= 0.61452E+01 SP= 0.00E+00 SK= 0.00E+00
   1195 T=   225. E= -.10506327E+04 F= -.10570044E+04 E0= -.10570044E+04  EK= 0.63716E+01 SP= 0.00E+00 SK= 0.00E+00
   1196 T=   226. E= -.10506782E+04 F= -.10570686E+04 E0= -.10570686E+04  EK= 0.63904E+01 SP= 0.00E+00 SK= 0.00E+00
   1197 T=   223. E= -.10507322E+04 F= -.10570505E+04 E0= -.10570505E+04  EK= 0.63183E+01 SP= 0.00E+00 SK= 0.00E+00
   1198 T=   220. E= -.10507788E+04 F= -.10570032E+04 E0= -.10570032E+04  EK= 0.62244E+01 SP= 0.00E+00 SK= 0.00E+00
   1199 T=   218. E= -.10507502E+04 F= -.10569242E+04 E0= -.10569242E+04  EK= 0.61741E+01 SP= 0.00E+00 SK= 0.00E+00
   1200 T=   216. E= -.10506847E+04 F= -.10568127E+04 E0= -.10568127E+04  EK= 0.61281E+01 SP= 0.00E+00 SK= 0.00E+00
   1201 T=   214. E= -.10507235E+04 F= -.10567678E+04 E0= -.10567678E+04  EK= 0.60443E+01 SP= 0.00E+00 SK= 0.00E+00
       N       E                     dE             d eps       ncg     rms          rms(c)
DAV:   1    -0.103640481396E+04    0.49322E+01   -0.24487E+03 20644   0.915E+01
DAV:   2    -0.104242089405E+04   -0.60161E+01   -0.60143E+01 25048   0.132E+01
DAV:   3    -0.104247796316E+04   -0.57069E-01   -0.57064E-01 25016   0.131E+00
DAV:   4    -0.104247918809E+04   -0.12249E-02   -0.12248E-02 25000   0.188E-01    0.108E+01
DAV:   5    -0.104147716449E+04    0.10020E+01   -0.24063E+00 25720   0.376E+00    0.573E+00
DAV:   6    -0.104148271251E+04   -0.55480E-02   -0.12118E+00 24920   0.233E+00    0.200E+00
DAV:   7    -0.104151764139E+04   -0.34929E-01   -0.25553E-01 26192   0.129E+00    0.598E-01
DAV:   8    -0.104151624789E+04    0.13935E-02   -0.32874E-02 23768   0.426E-01    0.324E-01
DAV:   9    -0.104151429884E+04    0.19491E-02   -0.15380E-02 23784   0.270E-01    0.174E-01
DAV:  10    -0.104151293869E+04    0.13601E-02   -0.28815E-03 29216   0.193E-01    0.667E-02
DAV:  11    -0.104151247741E+04    0.46128E-03   -0.18734E-03 23808   0.126E-01    0.673E-02
DAV:  12    -0.104151207079E+04    0.40662E-03   -0.38261E-04 22256   0.886E-02    0.276E-02
DAV:  13    -0.104151189001E+04    0.18078E-03   -0.32937E-04 20920   0.808E-02    0.258E-02
DAV:  14    -0.104151187747E+04    0.12537E-04   -0.27418E-04 19872   0.469E-02
   1202 T=   213. E= -.10507689E+04 F= -.10568101E+04 E0= -.10568101E+04  EK= 0.60412E+01 SP= 0.00E+00 SK= 0.00E+00
   1203 T=   218. E= -.10508461E+04 F= -.10570249E+04 E0= -.10570249E+04  EK= 0.61788E+01 SP= 0.00E+00 SK= 0.00E+00
   1204 T=   226. E= -.10507836E+04 F= -.10571942E+04 E0= -.10571942E+04  EK= 0.64106E+01 SP= 0.00E+00 SK= 0.00E+00
   1205 T=   231. E= -.10507147E+04 F= -.10572654E+04 E0= -.10572654E+04  EK= 0.65507E+01 SP= 0.00E+00 SK= 0.00E+00
   1206 T=   229. E= -.10507363E+04 F= -.10572068E+04 E0= -.10572068E+04  EK= 0.64706E+01 SP= 0.00E+00 SK= 0.00E+00
   1207 T=   224. E= -.10507333E+04 F= -.10570704E+04 E0= -.10570704E+04  EK= 0.63371E+01 SP= 0.00E+00 SK= 0.00E+00
   1208 T=   223. E= -.10506429E+04 F= -.10569476E+04 E0= -.10569476E+04  EK= 0.63047E+01 SP= 0.00E+00 SK= 0.00E+00
   1209 T=   225. E= -.10505596E+04 F= -.10569188E+04 E0= -.10569188E+04  EK= 0.63592E+01 SP= 0.00E+00 SK= 0.00E+00
   1210 T=   226. E= -.10505412E+04 F= -.10569315E+04 E0= -.10569315E+04  EK= 0.63904E+01 SP= 0.00E+00 SK= 0.00E+00
   1211 T=   229. E= -.10505079E+04 F= -.10569961E+04 E0= -.10569961E+04  EK= 0.64882E+01 SP= 0.00E+00 SK= 0.00E+00
   1212 T=   231. E= -.10505199E+04 F= -.10570499E+04 E0= -.10570499E+04  EK= 0.65300E+01 SP= 0.00E+00 SK= 0.00E+00
   1213 T=   228. E= -.10505632E+04 F= -.10570183E+04 E0= -.10570183E+04  EK= 0.64551E+01 SP= 0.00E+00 SK= 0.00E+00
   1214 T=   225. E= -.10505261E+04 F= -.10568992E+04 E0= -.10568992E+04  EK= 0.63730E+01 SP= 0.00E+00 SK= 0.00E+00
       N       E                     dE             d eps       ncg     rms          rms(c)
DAV:   1    -0.103169779429E+04    0.98141E+01   -0.39436E+03 20644   0.115E+02
DAV:   2    -0.104219209412E+04   -0.10494E+02   -0.10490E+02 24792   0.171E+01
DAV:   3    -0.104229538951E+04   -0.10330E+00   -0.10329E+00 24952   0.176E+00
DAV:   4    -0.104229760987E+04   -0.22204E-02   -0.22202E-02 25032   0.249E-01    0.122E+01
DAV:   5    -0.104136276927E+04    0.93484E+00   -0.17027E+00 24792   0.319E+00    0.692E+00
DAV:   6    -0.104140503946E+04   -0.42270E-01   -0.19162E+00 25104   0.298E+00    0.155E+00
DAV:   7    -0.104143891773E+04   -0.33878E-01   -0.31512E-01 24352   0.128E+00    0.657E-01
DAV:   8    -0.104143867822E+04    0.23950E-03   -0.36499E-02 23960   0.387E-01    0.324E-01
DAV:   9    -0.104143716084E+04    0.15174E-02   -0.75138E-03 24504   0.239E-01    0.148E-01
DAV:  10    -0.104143625114E+04    0.90969E-03   -0.19408E-03 23976   0.165E-01    0.664E-02
DAV:  11    -0.104143595885E+04    0.29230E-03   -0.18192E-03 24976   0.120E-01    0.576E-02
DAV:  12    -0.104143572558E+04    0.23327E-03   -0.40940E-04 22776   0.703E-02    0.242E-02
DAV:  13    -0.104143557163E+04    0.15395E-03   -0.16321E-04 17088   0.690E-02    0.256E-02
DAV:  14    -0.104143555252E+04    0.19108E-04   -0.22780E-04 19248   0.422E-02
   1215 T=   220. E= -.10504810E+04 F= -.10567020E+04 E0= -.10567020E+04  EK= 0.62209E+01 SP= 0.00E+00 SK= 0.00E+00
   1216 T=   213. E= -.10506149E+04 F= -.10566451E+04 E0= -.10566451E+04  EK= 0.60301E+01 SP= 0.00E+00 SK= 0.00E+00
   1217 T=   210. E= -.10507054E+04 F= -.10566392E+04 E0= -.10566392E+04  EK= 0.59338E+01 SP= 0.00E+00 SK= 0.00E+00
   1218 T=   209. E= -.10508071E+04 F= -.10567110E+04 E0= -.10567110E+04  EK= 0.59039E+01 SP= 0.00E+00 SK= 0.00E+00
   1219 T=   212. E= -.10508164E+04 F= -.10568257E+04 E0= -.10568257E+04  EK= 0.60093E+01 SP= 0.00E+00 SK= 0.00E+00
   1220 T=   217. E= -.10507585E+04 F= -.10568878E+04 E0= -.10568878E+04  EK= 0.61293E+01 SP= 0.00E+00 SK= 0.00E+00
   1221 T=   219. E= -.10507415E+04 F= -.10569292E+04 E0= -.10569292E+04  EK= 0.61877E+01 SP= 0.00E+00 SK= 0.00E+00
   1222 T=   219. E= -.10507503E+04 F= -.10569611E+04 E0= -.10569611E+04  EK= 0.62108E+01 SP= 0.00E+00 SK= 0.00E+00
   1223 T=   217. E= -.10508024E+04 F= -.10569507E+04 E0= -.10569507E+04  EK= 0.61483E+01 SP= 0.00E+00 SK= 0.00E+00
   1224 T=   214. E= -.10508487E+04 F= -.10569018E+04 E0= -.10569018E+04  EK= 0.60532E+01 SP= 0.00E+00 SK= 0.00E+00
   1225 T=   213. E= -.10508168E+04 F= -.10568335E+04 E0= -.10568335E+04  EK= 0.60166E+01 SP= 0.00E+00 SK= 0.00E+00
   1226 T=   215. E= -.10507399E+04 F= -.10568193E+04 E0= -.10568193E+04  EK= 0.60795E+01 SP= 0.00E+00 SK= 0.00E+00
   1227 T=   217. E= -.10506917E+04 F= -.10568484E+04 E0= -.10568484E+04  EK= 0.61567E+01 SP= 0.00E+00 SK= 0.00E+00
   1228 T=   219. E= -.10506884E+04 F= -.10568853E+04 E0= -.10568853E+04  EK= 0.61969E+01 SP= 0.00E+00 SK= 0.00E+00
   1229 T=   218. E= -.10507145E+04 F= -.10568913E+04 E0= -.10568913E+04  EK= 0.61768E+01 SP= 0.00E+00 SK= 0.00E+00
   1230 T=   215. E= -.10507754E+04 F= -.10568519E+04 E0= -.10568519E+04  EK= 0.60765E+01 SP= 0.00E+00 SK= 0.00E+00
   1231 T=   213. E= -.10508165E+04 F= -.10568424E+04 E0= -.10568424E+04  EK= 0.60259E+01 SP= 0.00E+00 SK= 0.00E+00
   1232 T=   214. E= -.10508871E+04 F= -.10569360E+04 E0= -.10569360E+04  EK= 0.60489E+01 SP= 0.00E+00 SK= 0.00E+00
   1233 T=   215. E= -.10509725E+04 F= -.10570528E+04 E0= -.10570528E+04  EK= 0.60803E+01 SP= 0.00E+00 SK= 0.00E+00
   1234 T=   215. E= -.10510234E+04 F= -.10571223E+04 E0= -.10571223E+04  EK= 0.60989E+01 SP= 0.00E+00 SK= 0.00E+00
       N       E                     dE             d eps       ncg     rms          rms(c)
DAV:   1    -0.101979272120E+04    0.21643E+02   -0.71955E+03 20644   0.155E+02
DAV:   2    -0.104323705434E+04   -0.23444E+02   -0.23433E+02 24864   0.250E+01
DAV:   3    -0.104345400006E+04   -0.21695E+00   -0.21692E+00 25016   0.259E+00
DAV:   4    -0.104345824992E+04   -0.42499E-02   -0.42495E-02 25040   0.351E-01    0.164E+01
DAV:   5    -0.104170088182E+04    0.17574E+01   -0.28916E+00 25008   0.414E+00    0.938E+00
DAV:   6    -0.104179621051E+04   -0.95329E-01   -0.37485E+00 25032   0.404E+00    0.195E+00
DAV:   7    -0.104185514412E+04   -0.58934E-01   -0.62686E-01 24256   0.187E+00    0.839E-01
DAV:   8    -0.104185751138E+04   -0.23673E-02   -0.65568E-02 23824   0.514E-01    0.500E-01
DAV:   9    -0.104185727065E+04    0.24074E-03   -0.33937E-02 23608   0.440E-01    0.319E-01
DAV:  10    -0.104185499879E+04    0.22719E-02   -0.76838E-03 28240   0.294E-01    0.102E-01
DAV:  11    -0.104185487013E+04    0.12866E-03   -0.42857E-03 24728   0.146E-01    0.691E-02
DAV:  12    -0.104185458740E+04    0.28273E-03   -0.43667E-04 22648   0.622E-02    0.322E-02
DAV:  13    -0.104185439586E+04    0.19154E-03   -0.26926E-04 19400   0.640E-02    0.211E-02
DAV:  14    -0.104185434933E+04    0.46536E-04   -0.16054E-04 17536   0.454E-02
   1235 T=   214. E= -.10510311E+04 F= -.10570755E+04 E0= -.10570755E+04  EK= 0.60444E+01 SP= 0.00E+00 SK= 0.00E+00
   1236 T=   212. E= -.10511050E+04 F= -.10571061E+04 E0= -.10571061E+04  EK= 0.60011E+01 SP= 0.00E+00 SK= 0.00E+00
   1237 T=   211. E= -.10512159E+04 F= -.10571885E+04 E0= -.10571885E+04  EK= 0.59726E+01 SP= 0.00E+00 SK= 0.00E+00
   1238 T=   211. E= -.10513423E+04 F= -.10573153E+04 E0= -.10573153E+04  EK= 0.59731E+01 SP= 0.00E+00 SK= 0.00E+00
   1239 T=   216. E= -.10513493E+04 F= -.10574772E+04 E0= -.10574772E+04  EK= 0.61279E+01 SP= 0.00E+00 SK= 0.00E+00
   1240 T=   222. E= -.10512600E+04 F= -.10575547E+04 E0= -.10575547E+04  EK= 0.62948E+01 SP= 0.00E+00 SK= 0.00E+00
   1241 T=   225. E= -.10511796E+04 F= -.10575530E+04 E0= -.10575530E+04  EK= 0.63733E+01 SP= 0.00E+00 SK= 0.00E+00
   1242 T=   224. E= -.10511774E+04 F= -.10575272E+04 E0= -.10575272E+04  EK= 0.63498E+01 SP= 0.00E+00 SK= 0.00E+00
   1243 T=   223. E= -.10512338E+04 F= -.10575473E+04 E0= -.10575473E+04  EK= 0.63134E+01 SP= 0.00E+00 SK= 0.00E+00
   1244 T=   221. E= -.10513239E+04 F= -.10575875E+04 E0= -.10575875E+04  EK= 0.62636E+01 SP= 0.00E+00 SK= 0.00E+00
   1245 T=   219. E= -.10514318E+04 F= -.10576340E+04 E0= -.10576340E+04  EK= 0.62021E+01 SP= 0.00E+00 SK= 0.00E+00
   1246 T=   220. E= -.10515147E+04 F= -.10577293E+04 E0= -.10577293E+04  EK= 0.62146E+01 SP= 0.00E+00 SK= 0.00E+00
   1247 T=   224. E= -.10515493E+04 F= -.10578943E+04 E0= -.10578943E+04  EK= 0.63450E+01 SP= 0.00E+00 SK= 0.00E+00
   1248 T=   230. E= -.10515741E+04 F= -.10580906E+04 E0= -.10580906E+04  EK= 0.65165E+01 SP= 0.00E+00 SK= 0.00E+00
   1249 T=   235. E= -.10515307E+04 F= -.10581950E+04 E0= -.10581950E+04  EK= 0.66643E+01 SP= 0.00E+00 SK= 0.00E+00
   1250 T=   238. E= -.10514213E+04 F= -.10581582E+04 E0= -.10581582E+04  EK= 0.67368E+01 SP= 0.00E+00 SK= 0.00E+00
   1251 T=   239. E= -.10512746E+04 F= -.10580369E+04 E0= -.10580369E+04  EK= 0.67623E+01 SP= 0.00E+00 SK= 0.00E+00
   1252 T=   237. E= -.10512105E+04 F= -.10579132E+04 E0= -.10579132E+04  EK= 0.67027E+01 SP= 0.00E+00 SK= 0.00E+00
   1253 T=   234. E= -.10512036E+04 F= -.10578354E+04 E0= -.10578354E+04  EK= 0.66318E+01 SP= 0.00E+00 SK= 0.00E+00
   1254 T=   237. E= -.10511608E+04 F= -.10578774E+04 E0= -.10578774E+04  EK= 0.67166E+01 SP= 0.00E+00 SK= 0.00E+00
   1255 T=   240. E= -.10511913E+04 F= -.10579713E+04 E0= -.10579713E+04  EK= 0.67801E+01 SP= 0.00E+00 SK= 0.00E+00
   1256 T=   240. E= -.10512724E+04 F= -.10580770E+04 E0= -.10580770E+04  EK= 0.68046E+01 SP= 0.00E+00 SK= 0.00E+00
   1257 T=   241. E= -.10512814E+04 F= -.10581055E+04 E0= -.10581055E+04  EK= 0.68241E+01 SP= 0.00E+00 SK= 0.00E+00
   1258 T=   242. E= -.10511926E+04 F= -.10580544E+04 E0= -.10580544E+04  EK= 0.68618E+01 SP= 0.00E+00 SK= 0.00E+00
   1259 T=   239. E= -.10511279E+04 F= -.10579071E+04 E0= -.10579071E+04  EK= 0.67792E+01 SP= 0.00E+00 SK= 0.00E+00
   1260 T=   236. E= -.10510698E+04 F= -.10577367E+04 E0= -.10577367E+04  EK= 0.66669E+01 SP= 0.00E+00 SK= 0.00E+00
   1261 T=   235. E= -.10510356E+04 F= -.10576772E+04 E0= -.10576772E+04  EK= 0.66416E+01 SP= 0.00E+00 SK= 0.00E+00
   1262 T=   233. E= -.10510977E+04 F= -.10576904E+04 E0= -.10576904E+04  EK= 0.65927E+01 SP= 0.00E+00 SK= 0.00E+00
   1263 T=   234. E= -.10511133E+04 F= -.10577438E+04 E0= -.10577438E+04  EK= 0.66305E+01 SP= 0.00E+00 SK= 0.00E+00
   1264 T=   239. E= -.10510483E+04 F= -.10578103E+04 E0= -.10578103E+04  EK= 0.67620E+01 SP= 0.00E+00 SK= 0.00E+00
   1265 T=   241. E= -.10510068E+04 F= -.10578310E+04 E0= -.10578310E+04  EK= 0.68242E+01 SP= 0.00E+00 SK= 0.00E+00
   1266 T=   236. E= -.10510164E+04 F= -.10576990E+04 E0= -.10576990E+04  EK= 0.66826E+01 SP= 0.00E+00 SK= 0.00E+00
   1267 T=   228. E= -.10510253E+04 F= -.10574786E+04 E0= -.10574786E+04  EK= 0.64533E+01 SP= 0.00E+00 SK= 0.00E+00
   1268 T=   223. E= -.10509977E+04 F= -.10572974E+04 E0= -.10572974E+04  EK= 0.62997E+01 SP= 0.00E+00 SK= 0.00E+00
   1269 T=   223. E= -.10508838E+04 F= -.10571987E+04 E0= -.10571987E+04  EK= 0.63149E+01 SP= 0.00E+00 SK= 0.00E+00
   1270 T=   226. E= -.10508241E+04 F= -.10572184E+04 E0= -.10572184E+04  EK= 0.63943E+01 SP= 0.00E+00 SK= 0.00E+00
   1271 T=   229. E= -.10508234E+04 F= -.10573110E+04 E0= -.10573110E+04  EK= 0.64876E+01 SP= 0.00E+00 SK= 0.00E+00
   1272 T=   235. E= -.10507874E+04 F= -.10574275E+04 E0= -.10574275E+04  EK= 0.66400E+01 SP= 0.00E+00 SK= 0.00E+00
   1273 T=   240. E= -.10507001E+04 F= -.10574887E+04 E0= -.10574887E+04  EK= 0.67886E+01 SP= 0.00E+00 SK= 0.00E+00
   1274 T=   238. E= -.10506837E+04 F= -.10574323E+04 E0= -.10574323E+04  EK= 0.67486E+01 SP= 0.00E+00 SK= 0.00E+00
   1275 T=   234. E= -.10506583E+04 F= -.10572794E+04 E0= -.10572794E+04  EK= 0.66211E+01 SP= 0.00E+00 SK= 0.00E+00
   1276 T=   228. E= -.10506087E+04 F= -.10570555E+04 E0= -.10570555E+04  EK= 0.64468E+01 SP= 0.00E+00 SK= 0.00E+00
   1277 T=   223. E= -.10506088E+04 F= -.10569288E+04 E0= -.10569288E+04  EK= 0.63200E+01 SP= 0.00E+00 SK= 0.00E+00
   1278 T=   223. E= -.10505718E+04 F= -.10568874E+04 E0= -.10568874E+04  EK= 0.63155E+01 SP= 0.00E+00 SK= 0.00E+00
       N       E                     dE             d eps       ncg     rms          rms(c)
DAV:   1    -0.869839724124E+03    0.17201E+03   -0.24896E+04 20644   0.282E+02
DAV:   2    -0.104593198553E+04   -0.17609E+03   -0.17536E+03 24696   0.659E+01
DAV:   3    -0.104855515949E+04   -0.26232E+01   -0.26222E+01 24896   0.869E+00
DAV:   4    -0.104859891827E+04   -0.43759E-01   -0.43750E-01 24920   0.110E+00    0.290E+01
DAV:   5    -0.104174312099E+04    0.68558E+01   -0.11306E+01 25096   0.766E+00    0.164E+01
DAV:   6    -0.104108255454E+04    0.66057E+00   -0.12931E+01 25144   0.760E+00    0.367E+00
DAV:   7    -0.104135736138E+04   -0.27481E+00   -0.22422E+00 24384   0.319E+00    0.182E+00
DAV:   8    -0.104136762029E+04   -0.10259E-01   -0.19794E-01 24312   0.890E-01    0.937E-01
DAV:   9    -0.104136435697E+04    0.32633E-02   -0.63048E-02 24624   0.673E-01    0.430E-01
DAV:  10    -0.104136067341E+04    0.36836E-02   -0.14175E-02 24136   0.391E-01    0.185E-01
DAV:  11    -0.104135971627E+04    0.95714E-03   -0.12798E-02 24776   0.270E-01    0.141E-01
DAV:  12    -0.104135835249E+04    0.13638E-02   -0.28268E-03 24888   0.180E-01    0.587E-02
DAV:  13    -0.104135775073E+04    0.60176E-03   -0.10721E-03 24304   0.140E-01    0.764E-02
DAV:  14    -0.104135752140E+04    0.22933E-03   -0.10506E-03 24792   0.107E-01    0.309E-02
DAV:  15    -0.104135754114E+04   -0.19738E-04   -0.46672E-04 23784   0.427E-02
   1279 T=   226. E= -.10505588E+04 F= -.10569437E+04 E0= -.10569437E+04  EK= 0.63848E+01 SP= 0.00E+00 SK= 0.00E+00
   1280 T=   226. E= -.10505543E+04 F= -.10569551E+04 E0= -.10569551E+04  EK= 0.64008E+01 SP= 0.00E+00 SK= 0.00E+00
   1281 T=   226. E= -.10506033E+04 F= -.10569905E+04 E0= -.10569905E+04  EK= 0.63872E+01 SP= 0.00E+00 SK= 0.00E+00
   1282 T=   224. E= -.10507021E+04 F= -.10570308E+04 E0= -.10570308E+04  EK= 0.63287E+01 SP= 0.00E+00 SK= 0.00E+00
   1283 T=   222. E= -.10507462E+04 F= -.10570179E+04 E0= -.10570179E+04  EK= 0.62718E+01 SP= 0.00E+00 SK= 0.00E+00
   1284 T=   220. E= -.10507260E+04 F= -.10569563E+04 E0= -.10569563E+04  EK= 0.62302E+01 SP= 0.00E+00 SK= 0.00E+00
   1285 T=   219. E= -.10506599E+04 F= -.10568692E+04 E0= -.10568692E+04  EK= 0.62093E+01 SP= 0.00E+00 SK= 0.00E+00
   1286 T=   219. E= -.10505909E+04 F= -.10567872E+04 E0= -.10567872E+04  EK= 0.61963E+01 SP= 0.00E+00 SK= 0.00E+00
   1287 T=   220. E= -.10505631E+04 F= -.10568041E+04 E0= -.10568041E+04  EK= 0.62410E+01 SP= 0.00E+00 SK= 0.00E+00
   1288 T=   221. E= -.10505814E+04 F= -.10568479E+04 E0= -.10568479E+04  EK= 0.62665E+01 SP= 0.00E+00 SK= 0.00E+00
   1289 T=   223. E= -.10505988E+04 F= -.10569185E+04 E0= -.10569185E+04  EK= 0.63197E+01 SP= 0.00E+00 SK= 0.00E+00
   1290 T=   226. E= -.10505737E+04 F= -.10569764E+04 E0= -.10569764E+04  EK= 0.64027E+01 SP= 0.00E+00 SK= 0.00E+00
   1291 T=   226. E= -.10505634E+04 F= -.10569502E+04 E0= -.10569502E+04  EK= 0.63868E+01 SP= 0.00E+00 SK= 0.00E+00
   1292 T=   225. E= -.10505065E+04 F= -.10568850E+04 E0= -.10568850E+04  EK= 0.63785E+01 SP= 0.00E+00 SK= 0.00E+00
   1293 T=   222. E= -.10505104E+04 F= -.10567840E+04 E0= -.10567840E+04  EK= 0.62736E+01 SP= 0.00E+00 SK= 0.00E+00
   1294 T=   218. E= -.10505043E+04 F= -.10566633E+04 E0= -.10566633E+04  EK= 0.61590E+01 SP= 0.00E+00 SK= 0.00E+00
   1295 T=   219. E= -.10503998E+04 F= -.10565904E+04 E0= -.10565904E+04  EK= 0.61906E+01 SP= 0.00E+00 SK= 0.00E+00
   1296 T=   221. E= -.10503922E+04 F= -.10566341E+04 E0= -.10566341E+04  EK= 0.62420E+01 SP= 0.00E+00 SK= 0.00E+00
   1297 T=   221. E= -.10505141E+04 F= -.10567737E+04 E0= -.10567737E+04  EK= 0.62596E+01 SP= 0.00E+00 SK= 0.00E+00
   1298 T=   224. E= -.10506082E+04 F= -.10569591E+04 E0= -.10569591E+04  EK= 0.63509E+01 SP= 0.00E+00 SK= 0.00E+00
   1299 T=   231. E= -.10505745E+04 F= -.10571136E+04 E0= -.10571136E+04  EK= 0.65391E+01 SP= 0.00E+00 SK= 0.00E+00
   1300 T=   234. E= -.10505239E+04 F= -.10571474E+04 E0= -.10571474E+04  EK= 0.66235E+01 SP= 0.00E+00 SK= 0.00E+00
   1301 T=   232. E= -.10505238E+04 F= -.10570905E+04 E0= -.10570905E+04  EK= 0.65667E+01 SP= 0.00E+00 SK= 0.00E+00
   1302 T=   231. E= -.10505051E+04 F= -.10570333E+04 E0= -.10570333E+04  EK= 0.65283E+01 SP= 0.00E+00 SK= 0.00E+00
   1303 T=   232. E= -.10504581E+04 F= -.10570319E+04 E0= -.10570319E+04  EK= 0.65739E+01 SP= 0.00E+00 SK= 0.00E+00
   1304 T=   234. E= -.10504896E+04 F= -.10571020E+04 E0= -.10571020E+04  EK= 0.66123E+01 SP= 0.00E+00 SK= 0.00E+00
   1305 T=   237. E= -.10505620E+04 F= -.10572597E+04 E0= -.10572597E+04  EK= 0.66977E+01 SP= 0.00E+00 SK= 0.00E+00
   1306 T=   246. E= -.10505350E+04 F= -.10574862E+04 E0= -.10574862E+04  EK= 0.69512E+01 SP= 0.00E+00 SK= 0.00E+00
   1307 T=   253. E= -.10505197E+04 F= -.10576797E+04 E0= -.10576797E+04  EK= 0.71600E+01 SP= 0.00E+00 SK= 0.00E+00
   1308 T=   254. E= -.10505760E+04 F= -.10577781E+04 E0= -.10577781E+04  EK= 0.72020E+01 SP= 0.00E+00 SK= 0.00E+00
   1309 T=   254. E= -.10506335E+04 F= -.10578158E+04 E0= -.10578158E+04  EK= 0.71823E+01 SP= 0.00E+00 SK= 0.00E+00
   1310 T=   252. E= -.10506503E+04 F= -.10577748E+04 E0= -.10577748E+04  EK= 0.71245E+01 SP= 0.00E+00 SK= 0.00E+00
   1311 T=   248. E= -.10506839E+04 F= -.10577066E+04 E0= -.10577066E+04  EK= 0.70226E+01 SP= 0.00E+00 SK= 0.00E+00
   1312 T=   247. E= -.10506924E+04 F= -.10576842E+04 E0= -.10576842E+04  EK= 0.69917E+01 SP= 0.00E+00 SK= 0.00E+00
   1313 T=   249. E= -.10506135E+04 F= -.10576758E+04 E0= -.10576758E+04  EK= 0.70623E+01 SP= 0.00E+00 SK= 0.00E+00
   1314 T=   252. E= -.10505424E+04 F= -.10576750E+04 E0= -.10576750E+04  EK= 0.71326E+01 SP= 0.00E+00 SK= 0.00E+00
   1315 T=   255. E= -.10504525E+04 F= -.10576832E+04 E0= -.10576832E+04  EK= 0.72307E+01 SP= 0.00E+00 SK= 0.00E+00
   1316 T=   255. E= -.10504911E+04 F= -.10577115E+04 E0= -.10577115E+04  EK= 0.72204E+01 SP= 0.00E+00 SK= 0.00E+00
   1317 T=   252. E= -.10505672E+04 F= -.10576942E+04 E0= -.10576942E+04  EK= 0.71270E+01 SP= 0.00E+00 SK= 0.00E+00
   1318 T=   250. E= -.10505293E+04 F= -.10576034E+04 E0= -.10576034E+04  EK= 0.70741E+01 SP= 0.00E+00 SK= 0.00E+00
   1319 T=   246. E= -.10504467E+04 F= -.10574063E+04 E0= -.10574063E+04  EK= 0.69596E+01 SP= 0.00E+00 SK= 0.00E+00
   1320 T=   243. E= -.10503245E+04 F= -.10571996E+04 E0= -.10571996E+04  EK= 0.68751E+01 SP= 0.00E+00 SK= 0.00E+00
   1321 T=   238. E= -.10502942E+04 F= -.10570370E+04 E0= -.10570370E+04  EK= 0.67428E+01 SP= 0.00E+00 SK= 0.00E+00
   1322 T=   233. E= -.10503769E+04 F= -.10569791E+04 E0= -.10569791E+04  EK= 0.66022E+01 SP= 0.00E+00 SK= 0.00E+00
   1323 T=   235. E= -.10503769E+04 F= -.10570179E+04 E0= -.10570179E+04  EK= 0.66409E+01 SP= 0.00E+00 SK= 0.00E+00
   1324 T=   237. E= -.10503790E+04 F= -.10570862E+04 E0= -.10570862E+04  EK= 0.67072E+01 SP= 0.00E+00 SK= 0.00E+00
   1325 T=   233. E= -.10505035E+04 F= -.10570880E+04 E0= -.10570880E+04  EK= 0.65845E+01 SP= 0.00E+00 SK= 0.00E+00
   1326 T=   227. E= -.10505617E+04 F= -.10569798E+04 E0= -.10569798E+04  EK= 0.64181E+01 SP= 0.00E+00 SK= 0.00E+00
   1327 T=   222. E= -.10505205E+04 F= -.10568147E+04 E0= -.10568147E+04  EK= 0.62942E+01 SP= 0.00E+00 SK= 0.00E+00
   1328 T=   220. E= -.10504483E+04 F= -.10566746E+04 E0= -.10566746E+04  EK= 0.62263E+01 SP= 0.00E+00 SK= 0.00E+00
   1329 T=   221. E= -.10503735E+04 F= -.10566257E+04 E0= -.10566257E+04  EK= 0.62523E+01 SP= 0.00E+00 SK= 0.00E+00
   1330 T=   227. E= -.10503206E+04 F= -.10567336E+04 E0= -.10567336E+04  EK= 0.64131E+01 SP= 0.00E+00 SK= 0.00E+00
   1331 T=   234. E= -.10502758E+04 F= -.10569079E+04 E0= -.10569079E+04  EK= 0.66321E+01 SP= 0.00E+00 SK= 0.00E+00
   1332 T=   239. E= -.10502645E+04 F= -.10570340E+04 E0= -.10570340E+04  EK= 0.67696E+01 SP= 0.00E+00 SK= 0.00E+00
   1333 T=   240. E= -.10502661E+04 F= -.10570647E+04 E0= -.10570647E+04  EK= 0.67986E+01 SP= 0.00E+00 SK= 0.00E+00
   1334 T=   238. E= -.10502857E+04 F= -.10570090E+04 E0= -.10570090E+04  EK= 0.67232E+01 SP= 0.00E+00 SK= 0.00E+00
   1335 T=   237. E= -.10502880E+04 F= -.10569924E+04 E0= -.10569924E+04  EK= 0.67044E+01 SP= 0.00E+00 SK= 0.00E+00
   1336 T=   239. E= -.10502821E+04 F= -.10570400E+04 E0= -.10570400E+04  EK= 0.67579E+01 SP= 0.00E+00 SK= 0.00E+00
   1337 T=   242. E= -.10503023E+04 F= -.10571473E+04 E0= -.10571473E+04  EK= 0.68450E+01 SP= 0.00E+00 SK= 0.00E+00
   1338 T=   244. E= -.10503473E+04 F= -.10572445E+04 E0= -.10572445E+04  EK= 0.68972E+01 SP= 0.00E+00 SK= 0.00E+00
   1339 T=   245. E= -.10503521E+04 F= -.10572978E+04 E0= -.10572978E+04  EK= 0.69457E+01 SP= 0.00E+00 SK= 0.00E+00
   1340 T=   245. E= -.10503690E+04 F= -.10572962E+04 E0= -.10572962E+04  EK= 0.69272E+01 SP= 0.00E+00 SK= 0.00E+00
   1341 T=   238. E= -.10504950E+04 F= -.10572419E+04 E0= -.10572419E+04  EK= 0.67468E+01 SP= 0.00E+00 SK= 0.00E+00
   1342 T=   232. E= -.10505976E+04 F= -.10571644E+04 E0= -.10571644E+04  EK= 0.65668E+01 SP= 0.00E+00 SK= 0.00E+00
   1343 T=   230. E= -.10505702E+04 F= -.10570895E+04 E0= -.10570895E+04  EK= 0.65193E+01 SP= 0.00E+00 SK= 0.00E+00
   1344 T=   231. E= -.10505371E+04 F= -.10570737E+04 E0= -.10570737E+04  EK= 0.65367E+01 SP= 0.00E+00 SK= 0.00E+00
   1345 T=   233. E= -.10505379E+04 F= -.10571425E+04 E0= -.10571425E+04  EK= 0.66046E+01 SP= 0.00E+00 SK= 0.00E+00
   1346 T=   236. E= -.10505361E+04 F= -.10572290E+04 E0= -.10572290E+04  EK= 0.66929E+01 SP= 0.00E+00 SK= 0.00E+00
   1347 T=   238. E= -.10505681E+04 F= -.10572998E+04 E0= -.10572998E+04  EK= 0.67317E+01 SP= 0.00E+00 SK= 0.00E+00
   1348 T=   238. E= -.10506142E+04 F= -.10573461E+04 E0= -.10573461E+04  EK= 0.67318E+01 SP= 0.00E+00 SK= 0.00E+00
   1349 T=   237. E= -.10506110E+04 F= -.10573243E+04 E0= -.10573243E+04  EK= 0.67134E+01 SP= 0.00E+00 SK= 0.00E+00
   1350 T=   237. E= -.10505790E+04 F= -.10572950E+04 E0= -.10572950E+04  EK= 0.67160E+01 SP= 0.00E+00 SK= 0.00E+00
   1351 T=   237. E= -.10505905E+04 F= -.10572866E+04 E0= -.10572866E+04  EK= 0.66961E+01 SP= 0.00E+00 SK= 0.00E+00
   1352 T=   238. E= -.10506223E+04 F= -.10573487E+04 E0= -.10573487E+04  EK= 0.67264E+01 SP= 0.00E+00 SK= 0.00E+00
   1353 T=   238. E= -.10506741E+04 F= -.10574125E+04 E0= -.10574125E+04  EK= 0.67385E+01 SP= 0.00E+00 SK= 0.00E+00
   1354 T=   242. E= -.10506424E+04 F= -.10574846E+04 E0= -.10574846E+04  EK= 0.68422E+01 SP= 0.00E+00 SK= 0.00E+00
   1355 T=   246. E= -.10505977E+04 F= -.10575642E+04 E0= -.10575642E+04  EK= 0.69665E+01 SP= 0.00E+00 SK= 0.00E+00
   1356 T=   247. E= -.10505970E+04 F= -.10575900E+04 E0= -.10575900E+04  EK= 0.69930E+01 SP= 0.00E+00 SK= 0.00E+00
   1357 T=   246. E= -.10506120E+04 F= -.10575705E+04 E0= -.10575705E+04  EK= 0.69584E+01 SP= 0.00E+00 SK= 0.00E+00
   1358 T=   246. E= -.10505971E+04 F= -.10575574E+04 E0= -.10575574E+04  EK= 0.69603E+01 SP= 0.00E+00 SK= 0.00E+00
   1359 T=   247. E= -.10505812E+04 F= -.10575663E+04 E0= -.10575663E+04  EK= 0.69851E+01 SP= 0.00E+00 SK= 0.00E+00
   1360 T=   248. E= -.10505942E+04 F= -.10576258E+04 E0= -.10576258E+04  EK= 0.70316E+01 SP= 0.00E+00 SK= 0.00E+00
   1361 T=   248. E= -.10506736E+04 F= -.10576887E+04 E0= -.10576887E+04  EK= 0.70151E+01 SP= 0.00E+00 SK= 0.00E+00
   1362 T=   246. E= -.10507410E+04 F= -.10577028E+04 E0= -.10577028E+04  EK= 0.69618E+01 SP= 0.00E+00 SK= 0.00E+00
   1363 T=   245. E= -.10507722E+04 F= -.10577018E+04 E0= -.10577018E+04  EK= 0.69295E+01 SP= 0.00E+00 SK= 0.00E+00
   1364 T=   244. E= -.10507631E+04 F= -.10576691E+04 E0= -.10576691E+04  EK= 0.69060E+01 SP= 0.00E+00 SK= 0.00E+00
   1365 T=   246. E= -.10507112E+04 F= -.10576649E+04 E0= -.10576649E+04  EK= 0.69537E+01 SP= 0.00E+00 SK= 0.00E+00
   1366 T=   245. E= -.10507391E+04 F= -.10576874E+04 E0= -.10576874E+04  EK= 0.69483E+01 SP= 0.00E+00 SK= 0.00E+00
   1367 T=   243. E= -.10508276E+04 F= -.10577180E+04 E0= -.10577180E+04  EK= 0.68904E+01 SP= 0.00E+00 SK= 0.00E+00
   1368 T=   242. E= -.10508809E+04 F= -.10577371E+04 E0= -.10577371E+04  EK= 0.68562E+01 SP= 0.00E+00 SK= 0.00E+00
   1369 T=   242. E= -.10508491E+04 F= -.10577070E+04 E0= -.10577070E+04  EK= 0.68579E+01 SP= 0.00E+00 SK= 0.00E+00
   1370 T=   242. E= -.10508131E+04 F= -.10576595E+04 E0= -.10576595E+04  EK= 0.68464E+01 SP= 0.00E+00 SK= 0.00E+00
   1371 T=   238. E= -.10508458E+04 F= -.10575866E+04 E0= -.10575866E+04  EK= 0.67408E+01 SP= 0.00E+00 SK= 0.00E+00
   1372 T=   233. E= -.10509040E+04 F= -.10574943E+04 E0= -.10574943E+04  EK= 0.65903E+01 SP= 0.00E+00 SK= 0.00E+00
   1373 T=   229. E= -.10508955E+04 F= -.10573899E+04 E0= -.10573899E+04  EK= 0.64944E+01 SP= 0.00E+00 SK= 0.00E+00
   1374 T=   230. E= -.10507491E+04 F= -.10572737E+04 E0= -.10572737E+04  EK= 0.65246E+01 SP= 0.00E+00 SK= 0.00E+00
   1375 T=   231. E= -.10506291E+04 F= -.10571567E+04 E0= -.10571567E+04  EK= 0.65276E+01 SP= 0.00E+00 SK= 0.00E+00
   1376 T=   230. E= -.10505893E+04 F= -.10570965E+04 E0= -.10570965E+04  EK= 0.65072E+01 SP= 0.00E+00 SK= 0.00E+00
   1377 T=   235. E= -.10504424E+04 F= -.10570862E+04 E0= -.10570862E+04  EK= 0.66438E+01 SP= 0.00E+00 SK= 0.00E+00
   1378 T=   239. E= -.10503512E+04 F= -.10571284E+04 E0= -.10571284E+04  EK= 0.67772E+01 SP= 0.00E+00 SK= 0.00E+00
   1379 T=   239. E= -.10504366E+04 F= -.10572155E+04 E0= -.10572155E+04  EK= 0.67789E+01 SP= 0.00E+00 SK= 0.00E+00
   1380 T=   240. E= -.10504631E+04 F= -.10572686E+04 E0= -.10572686E+04  EK= 0.68056E+01 SP= 0.00E+00 SK= 0.00E+00
   1381 T=   241. E= -.10503888E+04 F= -.10572156E+04 E0= -.10572156E+04  EK= 0.68268E+01 SP= 0.00E+00 SK= 0.00E+00
   1382 T=   239. E= -.10503533E+04 F= -.10571127E+04 E0= -.10571127E+04  EK= 0.67594E+01 SP= 0.00E+00 SK= 0.00E+00
   1383 T=   237. E= -.10503204E+04 F= -.10570203E+04 E0= -.10570203E+04  EK= 0.66998E+01 SP= 0.00E+00 SK= 0.00E+00
   1384 T=   240. E= -.10502196E+04 F= -.10570274E+04 E0= -.10570274E+04  EK= 0.68079E+01 SP= 0.00E+00 SK= 0.00E+00
   1385 T=   244. E= -.10502308E+04 F= -.10571418E+04 E0= -.10571418E+04  EK= 0.69110E+01 SP= 0.00E+00 SK= 0.00E+00
   1386 T=   246. E= -.10502909E+04 F= -.10572578E+04 E0= -.10572578E+04  EK= 0.69669E+01 SP= 0.00E+00 SK= 0.00E+00
   1387 T=   248. E= -.10502929E+04 F= -.10573200E+04 E0= -.10573200E+04  EK= 0.70271E+01 SP= 0.00E+00 SK= 0.00E+00
   1388 T=   252. E= -.10501878E+04 F= -.10573208E+04 E0= -.10573208E+04  EK= 0.71330E+01 SP= 0.00E+00 SK= 0.00E+00
   1389 T=   255. E= -.10500746E+04 F= -.10572831E+04 E0= -.10572831E+04  EK= 0.72085E+01 SP= 0.00E+00 SK= 0.00E+00
   1390 T=   257. E= -.10499944E+04 F= -.10572567E+04 E0= -.10572567E+04  EK= 0.72623E+01 SP= 0.00E+00 SK= 0.00E+00
   1391 T=   258. E= -.10498926E+04 F= -.10572025E+04 E0= -.10572025E+04  EK= 0.73099E+01 SP= 0.00E+00 SK= 0.00E+00
   1392 T=   255. E= -.10498557E+04 F= -.10570778E+04 E0= -.10570778E+04  EK= 0.72221E+01 SP= 0.00E+00 SK= 0.00E+00
   1393 T=   249. E= -.10498589E+04 F= -.10569094E+04 E0= -.10569094E+04  EK= 0.70505E+01 SP= 0.00E+00 SK= 0.00E+00
   1394 T=   245. E= -.10499006E+04 F= -.10568302E+04 E0= -.10568302E+04  EK= 0.69296E+01 SP= 0.00E+00 SK= 0.00E+00
   1395 T=   244. E= -.10499620E+04 F= -.10568571E+04 E0= -.10568571E+04  EK= 0.68951E+01 SP= 0.00E+00 SK= 0.00E+00
   1396 T=   245. E= -.10500591E+04 F= -.10569918E+04 E0= -.10569918E+04  EK= 0.69327E+01 SP= 0.00E+00 SK= 0.00E+00
   1397 T=   245. E= -.10501407E+04 F= -.10570700E+04 E0= -.10570700E+04  EK= 0.69294E+01 SP= 0.00E+00 SK= 0.00E+00
   1398 T=   243. E= -.10501286E+04 F= -.10570208E+04 E0= -.10570208E+04  EK= 0.68922E+01 SP= 0.00E+00 SK= 0.00E+00
   1399 T=   239. E= -.10501171E+04 F= -.10568717E+04 E0= -.10568717E+04  EK= 0.67546E+01 SP= 0.00E+00 SK= 0.00E+00
       N       E                     dE             d eps       ncg     rms          rms(c)
DAV:   1    -0.502453916602E+03    0.53890E+03   -0.48698E+04 20644   0.382E+02
DAV:   2    -0.103933674533E+04   -0.53688E+03   -0.52347E+03 24353   0.111E+02
DAV:   3    -0.105378771446E+04   -0.14451E+02   -0.14437E+02 24616   0.195E+01
DAV:   4    -0.105399497810E+04   -0.20726E+00   -0.20721E+00 24848   0.227E+00    0.368E+01
DAV:   5    -0.104083450798E+04    0.13160E+02   -0.23390E+01 24816   0.107E+01    0.207E+01
DAV:   6    -0.104029794891E+04    0.53656E+00   -0.20317E+01 24960   0.914E+00    0.579E+00
DAV:   7    -0.104088669637E+04   -0.58875E+00   -0.34339E+00 24440   0.409E+00    0.236E+00
DAV:   8    -0.104091829053E+04   -0.31594E-01   -0.28991E-01 24048   0.121E+00    0.109E+00
DAV:   9    -0.104092192803E+04   -0.36375E-02   -0.10313E-01 24528   0.743E-01    0.483E-01
DAV:  10    -0.104091837891E+04    0.35491E-02   -0.19511E-02 27808   0.431E-01    0.164E-01
DAV:  11    -0.104091774964E+04    0.62928E-03   -0.87224E-03 24360   0.211E-01    0.126E-01
DAV:  12    -0.104091631238E+04    0.14373E-02   -0.11654E-03 23848   0.159E-01    0.479E-02
DAV:  13    -0.104091573118E+04    0.58119E-03   -0.16475E-03 24264   0.150E-01    0.717E-02
DAV:  14    -0.104091555374E+04    0.17744E-03   -0.10929E-03 24880   0.104E-01    0.357E-02
DAV:  15    -0.104091555585E+04   -0.21063E-05   -0.33867E-04 20544   0.386E-02
   1400 T=   237. E= -.10500360E+04 F= -.10567317E+04 E0= -.10567317E+04  EK= 0.66957E+01 SP= 0.00E+00 SK= 0.00E+00
   1401 T=   239. E= -.10499751E+04 F= -.10567274E+04 E0= -.10567274E+04  EK= 0.67523E+01 SP= 0.00E+00 SK= 0.00E+00
   1402 T=   237. E= -.10499848E+04 F= -.10566999E+04 E0= -.10566999E+04  EK= 0.67151E+01 SP= 0.00E+00 SK= 0.00E+00
   1403 T=   236. E= -.10500313E+04 F= -.10567066E+04 E0= -.10567066E+04  EK= 0.66753E+01 SP= 0.00E+00 SK= 0.00E+00
   1404 T=   238. E= -.10500602E+04 F= -.10568036E+04 E0= -.10568036E+04  EK= 0.67433E+01 SP= 0.00E+00 SK= 0.00E+00
   1405 T=   242. E= -.10500719E+04 F= -.10569261E+04 E0= -.10569261E+04  EK= 0.68542E+01 SP= 0.00E+00 SK= 0.00E+00
   1406 T=   244. E= -.10500669E+04 F= -.10569668E+04 E0= -.10569668E+04  EK= 0.69000E+01 SP= 0.00E+00 SK= 0.00E+00
   1407 T=   239. E= -.10500364E+04 F= -.10568138E+04 E0= -.10568138E+04  EK= 0.67774E+01 SP= 0.00E+00 SK= 0.00E+00
   1408 T=   229. E= -.10500306E+04 F= -.10565013E+04 E0= -.10565013E+04  EK= 0.64707E+01 SP= 0.00E+00 SK= 0.00E+00
   1409 T=   219. E= -.10500673E+04 F= -.10562546E+04 E0= -.10562546E+04  EK= 0.61873E+01 SP= 0.00E+00 SK= 0.00E+00
       N       E                     dE             d eps       ncg     rms          rms(c)
DAV:   1    -0.103241497091E+04    0.85006E+01   -0.32319E+03 20644   0.104E+02
DAV:   2    -0.104166166743E+04   -0.92467E+01   -0.92438E+01 25040   0.158E+01
DAV:   3    -0.104174438973E+04   -0.82722E-01   -0.82716E-01 24976   0.158E+00
DAV:   4    -0.104174605119E+04   -0.16615E-02   -0.16614E-02 25024   0.219E-01    0.116E+01
DAV:   5    -0.104050539130E+04    0.12407E+01   -0.29203E+00 25120   0.399E+00    0.607E+00
DAV:   6    -0.104048500659E+04    0.20385E-01   -0.14080E+00 25136   0.246E+00    0.218E+00
DAV:   7    -0.104052094886E+04   -0.35942E-01   -0.27778E-01 26048   0.132E+00    0.647E-01
DAV:   8    -0.104052035204E+04    0.59682E-03   -0.35778E-02 24392   0.441E-01    0.350E-01
DAV:   9    -0.104051753938E+04    0.28127E-02   -0.16643E-02 24016   0.300E-01    0.181E-01
DAV:  10    -0.104051580757E+04    0.17318E-02   -0.32758E-03 28544   0.203E-01    0.789E-02
DAV:  11    -0.104051505778E+04    0.74979E-03   -0.22965E-03 23936   0.135E-01    0.722E-02
DAV:  12    -0.104051444175E+04    0.61603E-03   -0.42460E-04 21832   0.976E-02    0.301E-02
DAV:  13    -0.104051418124E+04    0.26051E-03   -0.49764E-04 22488   0.897E-02    0.272E-02
DAV:  14    -0.104051417071E+04    0.10525E-04   -0.36552E-04 23800   0.494E-02
   1410 T=   214. E= -.10501550E+04 F= -.10562133E+04 E0= -.10562133E+04  EK= 0.60583E+01 SP= 0.00E+00 SK= 0.00E+00
   1411 T=   217. E= -.10503335E+04 F= -.10564656E+04 E0= -.10564656E+04  EK= 0.61320E+01 SP= 0.00E+00 SK= 0.00E+00
   1412 T=   227. E= -.10503379E+04 F= -.10567593E+04 E0= -.10567593E+04  EK= 0.64214E+01 SP= 0.00E+00 SK= 0.00E+00
   1413 T=   229. E= -.10504112E+04 F= -.10568814E+04 E0= -.10568814E+04  EK= 0.64701E+01 SP= 0.00E+00 SK= 0.00E+00
   1414 T=   220. E= -.10505625E+04 F= -.10567984E+04 E0= -.10567984E+04  EK= 0.62359E+01 SP= 0.00E+00 SK= 0.00E+00
   1415 T=   212. E= -.10506310E+04 F= -.10566259E+04 E0= -.10566259E+04  EK= 0.59950E+01 SP= 0.00E+00 SK= 0.00E+00
   1416 T=   208. E= -.10506639E+04 F= -.10565575E+04 E0= -.10565575E+04  EK= 0.58935E+01 SP= 0.00E+00 SK= 0.00E+00
   1417 T=   212. E= -.10506408E+04 F= -.10566483E+04 E0= -.10566483E+04  EK= 0.60076E+01 SP= 0.00E+00 SK= 0.00E+00
   1418 T=   219. E= -.10505957E+04 F= -.10567947E+04 E0= -.10567947E+04  EK= 0.61990E+01 SP= 0.00E+00 SK= 0.00E+00
   1419 T=   223. E= -.10505986E+04 F= -.10569040E+04 E0= -.10569040E+04  EK= 0.63054E+01 SP= 0.00E+00 SK= 0.00E+00
   1420 T=   225. E= -.10505795E+04 F= -.10569488E+04 E0= -.10569488E+04  EK= 0.63693E+01 SP= 0.00E+00 SK= 0.00E+00
   1421 T=   221. E= -.10506220E+04 F= -.10568698E+04 E0= -.10568698E+04  EK= 0.62477E+01 SP= 0.00E+00 SK= 0.00E+00
   1422 T=   215. E= -.10506434E+04 F= -.10567359E+04 E0= -.10567359E+04  EK= 0.60925E+01 SP= 0.00E+00 SK= 0.00E+00
   1423 T=   214. E= -.10505903E+04 F= -.10566542E+04 E0= -.10566542E+04  EK= 0.60638E+01 SP= 0.00E+00 SK= 0.00E+00
   1424 T=   215. E= -.10505584E+04 F= -.10566414E+04 E0= -.10566414E+04  EK= 0.60830E+01 SP= 0.00E+00 SK= 0.00E+00
   1425 T=   220. E= -.10504723E+04 F= -.10567036E+04 E0= -.10567036E+04  EK= 0.62313E+01 SP= 0.00E+00 SK= 0.00E+00
   1426 T=   225. E= -.10503977E+04 F= -.10567692E+04 E0= -.10567692E+04  EK= 0.63715E+01 SP= 0.00E+00 SK= 0.00E+00
   1427 T=   226. E= -.10504112E+04 F= -.10568038E+04 E0= -.10568038E+04  EK= 0.63926E+01 SP= 0.00E+00 SK= 0.00E+00
   1428 T=   226. E= -.10504020E+04 F= -.10567930E+04 E0= -.10567930E+04  EK= 0.63909E+01 SP= 0.00E+00 SK= 0.00E+00
   1429 T=   227. E= -.10503909E+04 F= -.10568101E+04 E0= -.10568101E+04  EK= 0.64192E+01 SP= 0.00E+00 SK= 0.00E+00
   1430 T=   229. E= -.10504127E+04 F= -.10569017E+04 E0= -.10569017E+04  EK= 0.64890E+01 SP= 0.00E+00 SK= 0.00E+00
   1431 T=   236. E= -.10504144E+04 F= -.10570909E+04 E0= -.10570909E+04  EK= 0.66765E+01 SP= 0.00E+00 SK= 0.00E+00
   1432 T=   241. E= -.10504046E+04 F= -.10572317E+04 E0= -.10572317E+04  EK= 0.68271E+01 SP= 0.00E+00 SK= 0.00E+00
   1433 T=   240. E= -.10504340E+04 F= -.10572284E+04 E0= -.10572284E+04  EK= 0.67945E+01 SP= 0.00E+00 SK= 0.00E+00
   1434 T=   237. E= -.10504153E+04 F= -.10571358E+04 E0= -.10571358E+04  EK= 0.67205E+01 SP= 0.00E+00 SK= 0.00E+00
   1435 T=   235. E= -.10503775E+04 F= -.10570296E+04 E0= -.10570296E+04  EK= 0.66522E+01 SP= 0.00E+00 SK= 0.00E+00
   1436 T=   231. E= -.10504189E+04 F= -.10569464E+04 E0= -.10569464E+04  EK= 0.65275E+01 SP= 0.00E+00 SK= 0.00E+00
   1437 T=   229. E= -.10504433E+04 F= -.10569138E+04 E0= -.10569138E+04  EK= 0.64705E+01 SP= 0.00E+00 SK= 0.00E+00
   1438 T=   229. E= -.10504555E+04 F= -.10569352E+04 E0= -.10569352E+04  EK= 0.64797E+01 SP= 0.00E+00 SK= 0.00E+00
   1439 T=   230. E= -.10504396E+04 F= -.10569554E+04 E0= -.10569554E+04  EK= 0.65158E+01 SP= 0.00E+00 SK= 0.00E+00
   1440 T=   231. E= -.10504380E+04 F= -.10569668E+04 E0= -.10569668E+04  EK= 0.65288E+01 SP= 0.00E+00 SK= 0.00E+00
   1441 T=   225. E= -.10504646E+04 F= -.10568428E+04 E0= -.10568428E+04  EK= 0.63783E+01 SP= 0.00E+00 SK= 0.00E+00
   1442 T=   219. E= -.10504689E+04 F= -.10566640E+04 E0= -.10566640E+04  EK= 0.61951E+01 SP= 0.00E+00 SK= 0.00E+00
   1443 T=   215. E= -.10504316E+04 F= -.10565251E+04 E0= -.10565251E+04  EK= 0.60935E+01 SP= 0.00E+00 SK= 0.00E+00
   1444 T=   217. E= -.10504163E+04 F= -.10565572E+04 E0= -.10565572E+04  EK= 0.61409E+01 SP= 0.00E+00 SK= 0.00E+00
   1445 T=   225. E= -.10504127E+04 F= -.10567934E+04 E0= -.10567934E+04  EK= 0.63807E+01 SP= 0.00E+00 SK= 0.00E+00
   1446 T=   237. E= -.10504278E+04 F= -.10571405E+04 E0= -.10571405E+04  EK= 0.67127E+01 SP= 0.00E+00 SK= 0.00E+00
   1447 T=   242. E= -.10504849E+04 F= -.10573397E+04 E0= -.10573397E+04  EK= 0.68548E+01 SP= 0.00E+00 SK= 0.00E+00
   1448 T=   244. E= -.10503860E+04 F= -.10573024E+04 E0= -.10573024E+04  EK= 0.69164E+01 SP= 0.00E+00 SK= 0.00E+00
   1449 T=   238. E= -.10503310E+04 F= -.10570675E+04 E0= -.10570675E+04  EK= 0.67365E+01 SP= 0.00E+00 SK= 0.00E+00
       N       E                     dE             d eps       ncg     rms          rms(c)
DAV:   1    -0.914495192080E+03    0.12602E+03   -0.21017E+04 20644   0.258E+02
DAV:   2    -0.104633210257E+04   -0.13184E+03   -0.13167E+03 24480   0.568E+01
DAV:   3    -0.104795165698E+04   -0.16196E+01   -0.16191E+01 24912   0.704E+00
DAV:   4    -0.104797910009E+04   -0.27443E-01   -0.27438E-01 24712   0.908E-01    0.281E+01
DAV:   5    -0.104147423494E+04    0.65049E+01   -0.17909E+01 25032   0.811E+00    0.150E+01
DAV:   6    -0.104142108373E+04    0.53151E-01   -0.56121E+00 24952   0.496E+00    0.560E+00
DAV:   7    -0.104176539824E+04   -0.34431E+00   -0.11877E+00 24440   0.238E+00    0.134E+00
DAV:   8    -0.104177067942E+04   -0.52812E-02   -0.11040E-01 24320   0.720E-01    0.634E-01
DAV:   9    -0.104176890607E+04    0.17734E-02   -0.35374E-02 23416   0.418E-01    0.214E-01
DAV:  10    -0.104176740469E+04    0.15014E-02   -0.63039E-03 25728   0.230E-01    0.113E-01
DAV:  11    -0.104176660464E+04    0.80005E-03   -0.25293E-03 23088   0.120E-01    0.710E-02
DAV:  12    -0.104176592543E+04    0.67921E-03   -0.39574E-04 21360   0.929E-02    0.304E-02
DAV:  13    -0.104176561211E+04    0.31332E-03   -0.55831E-04 21864   0.969E-02    0.314E-02
DAV:  14    -0.104176559543E+04    0.16674E-04   -0.51691E-04 23416   0.585E-02
   1450 T=   231. E= -.10504454E+04 F= -.10569908E+04 E0= -.10569908E+04  EK= 0.65454E+01 SP= 0.00E+00 SK= 0.00E+00
   1451 T=   233. E= -.10502277E+04 F= -.10568301E+04 E0= -.10568301E+04  EK= 0.66025E+01 SP= 0.00E+00 SK= 0.00E+00
   1452 T=   239. E= -.10502198E+04 F= -.10569848E+04 E0= -.10569848E+04  EK= 0.67650E+01 SP= 0.00E+00 SK= 0.00E+00
   1453 T=   249. E= -.10502330E+04 F= -.10572866E+04 E0= -.10572866E+04  EK= 0.70536E+01 SP= 0.00E+00 SK= 0.00E+00
   1454 T=   257. E= -.10502741E+04 F= -.10575591E+04 E0= -.10575591E+04  EK= 0.72850E+01 SP= 0.00E+00 SK= 0.00E+00
   1455 T=   258. E= -.10503253E+04 F= -.10576368E+04 E0= -.10576368E+04  EK= 0.73115E+01 SP= 0.00E+00 SK= 0.00E+00
   1456 T=   252. E= -.10503307E+04 F= -.10574739E+04 E0= -.10574739E+04  EK= 0.71432E+01 SP= 0.00E+00 SK= 0.00E+00
   1457 T=   239. E= -.10503830E+04 F= -.10571488E+04 E0= -.10571488E+04  EK= 0.67658E+01 SP= 0.00E+00 SK= 0.00E+00
   1458 T=   228. E= -.10504510E+04 F= -.10568937E+04 E0= -.10568937E+04  EK= 0.64427E+01 SP= 0.00E+00 SK= 0.00E+00
   1459 T=   226. E= -.10504466E+04 F= -.10568403E+04 E0= -.10568403E+04  EK= 0.63936E+01 SP= 0.00E+00 SK= 0.00E+00
       N       E                     dE             d eps       ncg     rms          rms(c)
DAV:   1    -0.103383056695E+04    0.79350E+01   -0.33175E+03 20644   0.106E+02
DAV:   2    -0.104308913085E+04   -0.92586E+01   -0.92560E+01 24984   0.161E+01
DAV:   3    -0.104317267139E+04   -0.83541E-01   -0.83535E-01 24960   0.160E+00
DAV:   4    -0.104317436038E+04   -0.16890E-02   -0.16889E-02 25008   0.223E-01    0.120E+01
DAV:   5    -0.104186715242E+04    0.13072E+01   -0.28255E+00 25288   0.411E+00    0.636E+00
DAV:   6    -0.104184874925E+04    0.18403E-01   -0.16073E+00 25120   0.271E+00    0.212E+00
DAV:   7    -0.104189105897E+04   -0.42310E-01   -0.31488E-01 24888   0.135E+00    0.667E-01
DAV:   8    -0.104188921755E+04    0.18414E-02   -0.32669E-02 23904   0.447E-01    0.328E-01
DAV:   9    -0.104188729783E+04    0.19197E-02   -0.14496E-02 23896   0.275E-01    0.167E-01
DAV:  10    -0.104188601642E+04    0.12814E-02   -0.29105E-03 27920   0.178E-01    0.638E-02
DAV:  11    -0.104188556282E+04    0.45360E-03   -0.14611E-03 23528   0.978E-02    0.564E-02
DAV:  12    -0.104188516238E+04    0.40044E-03   -0.27383E-04 19336   0.825E-02    0.244E-02
DAV:  13    -0.104188504953E+04    0.11284E-03   -0.45360E-04 22400   0.667E-02    0.309E-02
DAV:  14    -0.104188502657E+04    0.22963E-04   -0.15743E-04 17648   0.352E-02
   1460 T=   233. E= -.10504552E+04 F= -.10570409E+04 E0= -.10570409E+04  EK= 0.65857E+01 SP= 0.00E+00 SK= 0.00E+00
   1461 T=   241. E= -.10504550E+04 F= -.10572887E+04 E0= -.10572887E+04  EK= 0.68338E+01 SP= 0.00E+00 SK= 0.00E+00
   1462 T=   247. E= -.10504767E+04 F= -.10574732E+04 E0= -.10574732E+04  EK= 0.69965E+01 SP= 0.00E+00 SK= 0.00E+00
   1463 T=   246. E= -.10505472E+04 F= -.10575018E+04 E0= -.10575018E+04  EK= 0.69546E+01 SP= 0.00E+00 SK= 0.00E+00
   1464 T=   238. E= -.10506549E+04 F= -.10573863E+04 E0= -.10573863E+04  EK= 0.67314E+01 SP= 0.00E+00 SK= 0.00E+00
   1465 T=   231. E= -.10507309E+04 F= -.10572566E+04 E0= -.10572566E+04  EK= 0.65257E+01 SP= 0.00E+00 SK= 0.00E+00
   1466 T=   226. E= -.10508036E+04 F= -.10571943E+04 E0= -.10571943E+04  EK= 0.63907E+01 SP= 0.00E+00 SK= 0.00E+00
   1467 T=   227. E= -.10508485E+04 F= -.10572762E+04 E0= -.10572762E+04  EK= 0.64278E+01 SP= 0.00E+00 SK= 0.00E+00
   1468 T=   232. E= -.10508348E+04 F= -.10574113E+04 E0= -.10574113E+04  EK= 0.65765E+01 SP= 0.00E+00 SK= 0.00E+00
   1469 T=   237. E= -.10508193E+04 F= -.10575147E+04 E0= -.10575147E+04  EK= 0.66954E+01 SP= 0.00E+00 SK= 0.00E+00
       N       E                     dE             d eps       ncg     rms          rms(c)
DAV:   1    -0.103523051038E+04    0.66545E+01   -0.30183E+03 20644   0.101E+02
DAV:   2    -0.104324739974E+04   -0.80169E+01   -0.80147E+01 24888   0.150E+01
DAV:   3    -0.104332157499E+04   -0.74175E-01   -0.74170E-01 25000   0.151E+00
DAV:   4    -0.104332311217E+04   -0.15372E-02   -0.15371E-02 25016   0.212E-01    0.112E+01
DAV:   5    -0.104235317701E+04    0.96994E+00   -0.21027E+00 25064   0.350E+00    0.609E+00
DAV:   6    -0.104237908924E+04   -0.25912E-01   -0.14238E+00 24976   0.252E+00    0.183E+00
DAV:   7    -0.104241446243E+04   -0.35373E-01   -0.26409E-01 25144   0.130E+00    0.621E-01
DAV:   8    -0.104241413854E+04    0.32389E-03   -0.34392E-02 23792   0.406E-01    0.338E-01
DAV:   9    -0.104241194395E+04    0.21946E-02   -0.13203E-02 23856   0.270E-01    0.168E-01
DAV:  10    -0.104241038938E+04    0.15546E-02   -0.25565E-03 27648   0.201E-01    0.677E-02
DAV:  11    -0.104240995377E+04    0.43561E-03   -0.23680E-03 24040   0.130E-01    0.698E-02
DAV:  12    -0.104240948057E+04    0.47320E-03   -0.50200E-04 22808   0.915E-02    0.238E-02
DAV:  13    -0.104240933344E+04    0.14713E-03   -0.35118E-04 21936   0.734E-02    0.360E-02
DAV:  14    -0.104240930417E+04    0.29269E-04   -0.31029E-04 21952   0.502E-02
   1470 T=   235. E= -.10508792E+04 F= -.10575356E+04 E0= -.10575356E+04  EK= 0.66564E+01 SP= 0.00E+00 SK= 0.00E+00
   1471 T=   228. E= -.10509203E+04 F= -.10573880E+04 E0= -.10573880E+04  EK= 0.64677E+01 SP= 0.00E+00 SK= 0.00E+00
   1472 T=   222. E= -.10509057E+04 F= -.10572005E+04 E0= -.10572005E+04  EK= 0.62948E+01 SP= 0.00E+00 SK= 0.00E+00
   1473 T=   219. E= -.10508292E+04 F= -.10570241E+04 E0= -.10570241E+04  EK= 0.61949E+01 SP= 0.00E+00 SK= 0.00E+00
   1474 T=   219. E= -.10507588E+04 F= -.10569623E+04 E0= -.10569623E+04  EK= 0.62035E+01 SP= 0.00E+00 SK= 0.00E+00
   1475 T=   221. E= -.10507575E+04 F= -.10570077E+04 E0= -.10570077E+04  EK= 0.62502E+01 SP= 0.00E+00 SK= 0.00E+00
   1476 T=   224. E= -.10507725E+04 F= -.10571020E+04 E0= -.10571020E+04  EK= 0.63295E+01 SP= 0.00E+00 SK= 0.00E+00
   1477 T=   222. E= -.10508247E+04 F= -.10571039E+04 E0= -.10571039E+04  EK= 0.62791E+01 SP= 0.00E+00 SK= 0.00E+00
   1478 T=   214. E= -.10509162E+04 F= -.10569834E+04 E0= -.10569834E+04  EK= 0.60671E+01 SP= 0.00E+00 SK= 0.00E+00
   1479 T=   209. E= -.10509547E+04 F= -.10568601E+04 E0= -.10568601E+04  EK= 0.59054E+01 SP= 0.00E+00 SK= 0.00E+00
   1480 T=   206. E= -.10510107E+04 F= -.10568514E+04 E0= -.10568514E+04  EK= 0.58407E+01 SP= 0.00E+00 SK= 0.00E+00
   1481 T=   208. E= -.10510673E+04 F= -.10569445E+04 E0= -.10569445E+04  EK= 0.58772E+01 SP= 0.00E+00 SK= 0.00E+00
   1482 T=   215. E= -.10510490E+04 F= -.10571233E+04 E0= -.10571233E+04  EK= 0.60743E+01 SP= 0.00E+00 SK= 0.00E+00
   1483 T=   220. E= -.10510487E+04 F= -.10572637E+04 E0= -.10572637E+04  EK= 0.62149E+01 SP= 0.00E+00 SK= 0.00E+00
   1484 T=   219. E= -.10511209E+04 F= -.10573182E+04 E0= -.10573182E+04  EK= 0.61973E+01 SP= 0.00E+00 SK= 0.00E+00
   1485 T=   215. E= -.10511937E+04 F= -.10572906E+04 E0= -.10572906E+04  EK= 0.60969E+01 SP= 0.00E+00 SK= 0.00E+00
   1486 T=   213. E= -.10512325E+04 F= -.10572483E+04 E0= -.10572483E+04  EK= 0.60158E+01 SP= 0.00E+00 SK= 0.00E+00
       N       E                     dE             d eps       ncg     rms          rms(c)
DAV:   1    -0.102109701692E+04    0.21312E+02   -0.65618E+03 20644   0.147E+02
DAV:   2    -0.104323394698E+04   -0.22137E+02   -0.22129E+02 24680   0.240E+01
DAV:   3    -0.104344231866E+04   -0.20837E+00   -0.20835E+00 24936   0.254E+00
DAV:   4    -0.104344637468E+04   -0.40560E-02   -0.40557E-02 24928   0.346E-01    0.153E+01
DAV:   5    -0.104198260803E+04    0.14638E+01   -0.25875E+00 24288   0.363E+00    0.873E+00
DAV:   6    -0.104206470076E+04   -0.82093E-01   -0.30429E+00 25072   0.363E+00    0.183E+00
DAV:   7    -0.104212337647E+04   -0.58676E-01   -0.47362E-01 23968   0.146E+00    0.827E-01
DAV:   8    -0.104212390172E+04   -0.52525E-03   -0.48713E-02 24184   0.440E-01    0.380E-01
DAV:   9    -0.104212237557E+04    0.15261E-02   -0.78400E-03 24312   0.246E-01    0.160E-01
DAV:  10    -0.104212158568E+04    0.78989E-03   -0.24843E-03 23504   0.155E-01    0.694E-02
DAV:  11    -0.104212122119E+04    0.36449E-03   -0.14708E-03 24648   0.107E-01    0.513E-02
DAV:  12    -0.104212097122E+04    0.24998E-03   -0.21823E-04 17768   0.524E-02    0.230E-02
DAV:  13    -0.104212076124E+04    0.20997E-03   -0.28088E-04 19288   0.721E-02    0.215E-02
DAV:  14    -0.104212075018E+04    0.11061E-04   -0.20931E-04 18216   0.385E-02
   1487 T=   214. E= -.10511496E+04 F= -.10571943E+04 E0= -.10571943E+04  EK= 0.60447E+01 SP= 0.00E+00 SK= 0.00E+00
   1488 T=   217. E= -.10511018E+04 F= -.10572312E+04 E0= -.10572312E+04  EK= 0.61294E+01 SP= 0.00E+00 SK= 0.00E+00
   1489 T=   219. E= -.10510309E+04 F= -.10572435E+04 E0= -.10572435E+04  EK= 0.62126E+01 SP= 0.00E+00 SK= 0.00E+00
   1490 T=   222. E= -.10509929E+04 F= -.10572707E+04 E0= -.10572707E+04  EK= 0.62778E+01 SP= 0.00E+00 SK= 0.00E+00
   1491 T=   223. E= -.10509627E+04 F= -.10572650E+04 E0= -.10572650E+04  EK= 0.63023E+01 SP= 0.00E+00 SK= 0.00E+00
   1492 T=   222. E= -.10508922E+04 F= -.10571838E+04 E0= -.10571838E+04  EK= 0.62917E+01 SP= 0.00E+00 SK= 0.00E+00
   1493 T=   219. E= -.10508609E+04 F= -.10570485E+04 E0= -.10570485E+04  EK= 0.61876E+01 SP= 0.00E+00 SK= 0.00E+00
   1494 T=   215. E= -.10508604E+04 F= -.10569364E+04 E0= -.10569364E+04  EK= 0.60760E+01 SP= 0.00E+00 SK= 0.00E+00
   1495 T=   215. E= -.10508544E+04 F= -.10569301E+04 E0= -.10569301E+04  EK= 0.60757E+01 SP= 0.00E+00 SK= 0.00E+00
   1496 T=   221. E= -.10508099E+04 F= -.10570698E+04 E0= -.10570698E+04  EK= 0.62599E+01 SP= 0.00E+00 SK= 0.00E+00
       N       E                     dE             d eps       ncg     rms          rms(c)
DAV:   1    -0.103519374063E+04    0.69270E+01   -0.28988E+03 20644   0.988E+01
DAV:   2    -0.104292509734E+04   -0.77314E+01   -0.77295E+01 25048   0.146E+01
DAV:   3    -0.104299679744E+04   -0.71700E-01   -0.71696E-01 25032   0.148E+00
DAV:   4    -0.104299830033E+04   -0.15029E-02   -0.15028E-02 25032   0.208E-01    0.108E+01
DAV:   5    -0.104207190726E+04    0.92639E+00   -0.16485E+00 25680   0.329E+00    0.599E+00
DAV:   6    -0.104206954050E+04    0.23668E-02   -0.15977E+00 24952   0.267E+00    0.158E+00
DAV:   7    -0.104209817062E+04   -0.28630E-01   -0.27953E-01 24520   0.130E+00    0.589E-01
DAV:   8    -0.104209830374E+04   -0.13312E-03   -0.29230E-02 23728   0.400E-01    0.321E-01
DAV:   9    -0.104209790401E+04    0.39973E-03   -0.15274E-02 24008   0.289E-01    0.197E-01
DAV:  10    -0.104209684509E+04    0.10589E-02   -0.30541E-03 28816   0.179E-01    0.623E-02
DAV:  11    -0.104209669733E+04    0.14776E-03   -0.14817E-03 23616   0.849E-02    0.447E-02
DAV:  12    -0.104209647025E+04    0.22709E-03   -0.17129E-04 16824   0.608E-02    0.161E-02
DAV:  13    -0.104209641230E+04    0.57952E-04   -0.27479E-04 20464   0.465E-02
   1497 T=   230. E= -.10506419E+04 F= -.10571507E+04 E0= -.10571507E+04  EK= 0.65088E+01 SP= 0.00E+00 SK= 0.00E+00
   1498 T=   234. E= -.10506948E+04 F= -.10573118E+04 E0= -.10573118E+04  EK= 0.66170E+01 SP= 0.00E+00 SK= 0.00E+00
   1499 T=   231. E= -.10507459E+04 F= -.10572720E+04 E0= -.10572720E+04  EK= 0.65260E+01 SP= 0.00E+00 SK= 0.00E+00
   1500 T=   226. E= -.10508037E+04 F= -.10572002E+04 E0= -.10572002E+04  EK= 0.63965E+01 SP= 0.00E+00 SK= 0.00E+00
   1501 T=   222. E= -.10509047E+04 F= -.10571941E+04 E0= -.10571941E+04  EK= 0.62894E+01 SP= 0.00E+00 SK= 0.00E+00
   1502 T=   222. E= -.10509529E+04 F= -.10572346E+04 E0= -.10572346E+04  EK= 0.62818E+01 SP= 0.00E+00 SK= 0.00E+00
   1503 T=   224. E= -.10509495E+04 F= -.10573021E+04 E0= -.10573021E+04  EK= 0.63525E+01 SP= 0.00E+00 SK= 0.00E+00
   1504 T=   223. E= -.10509932E+04 F= -.10573092E+04 E0= -.10573092E+04  EK= 0.63159E+01 SP= 0.00E+00 SK= 0.00E+00
   1505 T=   218. E= -.10510339E+04 F= -.10572103E+04 E0= -.10572103E+04  EK= 0.61765E+01 SP= 0.00E+00 SK= 0.00E+00
   1506 T=   212. E= -.10510624E+04 F= -.10570578E+04 E0= -.10570578E+04  EK= 0.59954E+01 SP= 0.00E+00 SK= 0.00E+00
       N       E                     dE             d eps       ncg     rms          rms(c)
DAV:   1    -0.103520128330E+04    0.68952E+01   -0.27985E+03 20644   0.974E+01
DAV:   2    -0.104256741635E+04   -0.73661E+01   -0.73642E+01 24992   0.144E+01
DAV:   3    -0.104263426029E+04   -0.66844E-01   -0.66839E-01 25016   0.143E+00
DAV:   4    -0.104263563503E+04   -0.13747E-02   -0.13747E-02 24968   0.200E-01    0.109E+01
DAV:   5    -0.104171571363E+04    0.91992E+00   -0.19219E+00 25744   0.355E+00    0.593E+00
DAV:   6    -0.104174474705E+04   -0.29033E-01   -0.14301E+00 24864   0.250E+00    0.176E+00
DAV:   7    -0.104178187680E+04   -0.37130E-01   -0.25677E-01 24904   0.125E+00    0.584E-01
DAV:   8    -0.104178143446E+04    0.44233E-03   -0.28166E-02 23784   0.416E-01    0.297E-01
DAV:   9    -0.104178108091E+04    0.35355E-03   -0.14214E-02 23616   0.250E-01    0.176E-01
DAV:  10    -0.104178011046E+04    0.97045E-03   -0.27055E-03 28912   0.167E-01    0.498E-02
DAV:  11    -0.104177990435E+04    0.20611E-03   -0.10890E-03 23312   0.736E-02    0.420E-02
DAV:  12    -0.104177966461E+04    0.23974E-03   -0.13007E-04 16896   0.547E-02    0.183E-02
DAV:  13    -0.104177957437E+04    0.90242E-04   -0.25618E-04 18672   0.500E-02
   1507 T=   206. E= -.10510324E+04 F= -.10568510E+04 E0= -.10568510E+04  EK= 0.58186E+01 SP= 0.00E+00 SK= 0.00E+00
   1508 T=   202. E= -.10510865E+04 F= -.10568095E+04 E0= -.10568095E+04  EK= 0.57230E+01 SP= 0.00E+00 SK= 0.00E+00
   1509 T=   204. E= -.10510838E+04 F= -.10568632E+04 E0= -.10568632E+04  EK= 0.57795E+01 SP= 0.00E+00 SK= 0.00E+00
   1510 T=   210. E= -.10510634E+04 F= -.10570189E+04 E0= -.10570189E+04  EK= 0.59555E+01 SP= 0.00E+00 SK= 0.00E+00
   1511 T=   216. E= -.10510099E+04 F= -.10571266E+04 E0= -.10571266E+04  EK= 0.61166E+01 SP= 0.00E+00 SK= 0.00E+00
   1512 T=   218. E= -.10509616E+04 F= -.10571319E+04 E0= -.10571319E+04  EK= 0.61703E+01 SP= 0.00E+00 SK= 0.00E+00
   1513 T=   214. E= -.10509696E+04 F= -.10570380E+04 E0= -.10570380E+04  EK= 0.60684E+01 SP= 0.00E+00 SK= 0.00E+00
   1514 T=   210. E= -.10509416E+04 F= -.10568791E+04 E0= -.10568791E+04  EK= 0.59375E+01 SP= 0.00E+00 SK= 0.00E+00
   1515 T=   208. E= -.10509277E+04 F= -.10568244E+04 E0= -.10568244E+04  EK= 0.58967E+01 SP= 0.00E+00 SK= 0.00E+00
   1516 T=   216. E= -.10508610E+04 F= -.10569675E+04 E0= -.10569675E+04  EK= 0.61065E+01 SP= 0.00E+00 SK= 0.00E+00
   1517 T=   227. E= -.10508184E+04 F= -.10572310E+04 E0= -.10572310E+04  EK= 0.64126E+01 SP= 0.00E+00 SK= 0.00E+00
   1518 T=   235. E= -.10508187E+04 F= -.10574580E+04 E0= -.10574580E+04  EK= 0.66393E+01 SP= 0.00E+00 SK= 0.00E+00
   1519 T=   239. E= -.10507956E+04 F= -.10575646E+04 E0= -.10575646E+04  EK= 0.67689E+01 SP= 0.00E+00 SK= 0.00E+00
   1520 T=   235. E= -.10508284E+04 F= -.10574858E+04 E0= -.10574858E+04  EK= 0.66574E+01 SP= 0.00E+00 SK= 0.00E+00
   1521 T=   229. E= -.10508046E+04 F= -.10572817E+04 E0= -.10572817E+04  EK= 0.64771E+01 SP= 0.00E+00 SK= 0.00E+00
   1522 T=   224. E= -.10507467E+04 F= -.10570856E+04 E0= -.10570856E+04  EK= 0.63389E+01 SP= 0.00E+00 SK= 0.00E+00
   1523 T=   220. E= -.10508043E+04 F= -.10570435E+04 E0= -.10570435E+04  EK= 0.62392E+01 SP= 0.00E+00 SK= 0.00E+00
   1524 T=   222. E= -.10509068E+04 F= -.10571788E+04 E0= -.10571788E+04  EK= 0.62720E+01 SP= 0.00E+00 SK= 0.00E+00
   1525 T=   226. E= -.10509679E+04 F= -.10573641E+04 E0= -.10573641E+04  EK= 0.63962E+01 SP= 0.00E+00 SK= 0.00E+00
   1526 T=   229. E= -.10509830E+04 F= -.10574682E+04 E0= -.10574682E+04  EK= 0.64852E+01 SP= 0.00E+00 SK= 0.00E+00
   1527 T=   230. E= -.10509234E+04 F= -.10574468E+04 E0= -.10574468E+04  EK= 0.65234E+01 SP= 0.00E+00 SK= 0.00E+00
   1528 T=   228. E= -.10508566E+04 F= -.10573042E+04 E0= -.10573042E+04  EK= 0.64475E+01 SP= 0.00E+00 SK= 0.00E+00
   1529 T=   219. E= -.10509246E+04 F= -.10571161E+04 E0= -.10571161E+04  EK= 0.61915E+01 SP= 0.00E+00 SK= 0.00E+00
   1530 T=   213. E= -.10510274E+04 F= -.10570532E+04 E0= -.10570532E+04  EK= 0.60258E+01 SP= 0.00E+00 SK= 0.00E+00
   1531 T=   216. E= -.10510532E+04 F= -.10571658E+04 E0= -.10571658E+04  EK= 0.61125E+01 SP= 0.00E+00 SK= 0.00E+00
   1532 T=   228. E= -.10509786E+04 F= -.10574253E+04 E0= -.10574253E+04  EK= 0.64467E+01 SP= 0.00E+00 SK= 0.00E+00
   1533 T=   236. E= -.10509751E+04 F= -.10576637E+04 E0= -.10576637E+04  EK= 0.66886E+01 SP= 0.00E+00 SK= 0.00E+00
   1534 T=   235. E= -.10511025E+04 F= -.10577461E+04 E0= -.10577461E+04  EK= 0.66437E+01 SP= 0.00E+00 SK= 0.00E+00
   1535 T=   227. E= -.10512075E+04 F= -.10576456E+04 E0= -.10576456E+04  EK= 0.64381E+01 SP= 0.00E+00 SK= 0.00E+00
   1536 T=   218. E= -.10512378E+04 F= -.10574099E+04 E0= -.10574099E+04  EK= 0.61721E+01 SP= 0.00E+00 SK= 0.00E+00
   1537 T=   210. E= -.10512414E+04 F= -.10571936E+04 E0= -.10571936E+04  EK= 0.59522E+01 SP= 0.00E+00 SK= 0.00E+00
   1538 T=   206. E= -.10512735E+04 F= -.10570911E+04 E0= -.10570911E+04  EK= 0.58176E+01 SP= 0.00E+00 SK= 0.00E+00
   1539 T=   207. E= -.10512638E+04 F= -.10571208E+04 E0= -.10571208E+04  EK= 0.58569E+01 SP= 0.00E+00 SK= 0.00E+00
   1540 T=   211. E= -.10512233E+04 F= -.10572058E+04 E0= -.10572058E+04  EK= 0.59824E+01 SP= 0.00E+00 SK= 0.00E+00
   1541 T=   215. E= -.10512466E+04 F= -.10573370E+04 E0= -.10573370E+04  EK= 0.60903E+01 SP= 0.00E+00 SK= 0.00E+00
   1542 T=   214. E= -.10513378E+04 F= -.10574072E+04 E0= -.10574072E+04  EK= 0.60694E+01 SP= 0.00E+00 SK= 0.00E+00
   1543 T=   213. E= -.10513477E+04 F= -.10573788E+04 E0= -.10573788E+04  EK= 0.60311E+01 SP= 0.00E+00 SK= 0.00E+00
   1544 T=   213. E= -.10512731E+04 F= -.10572900E+04 E0= -.10572900E+04  EK= 0.60169E+01 SP= 0.00E+00 SK= 0.00E+00
   1545 T=   210. E= -.10512177E+04 F= -.10571541E+04 E0= -.10571541E+04  EK= 0.59364E+01 SP= 0.00E+00 SK= 0.00E+00
   1546 T=   211. E= -.10511949E+04 F= -.10571546E+04 E0= -.10571546E+04  EK= 0.59596E+01 SP= 0.00E+00 SK= 0.00E+00
   1547 T=   216. E= -.10511626E+04 F= -.10572666E+04 E0= -.10572666E+04  EK= 0.61040E+01 SP= 0.00E+00 SK= 0.00E+00
   1548 T=   225. E= -.10511220E+04 F= -.10574973E+04 E0= -.10574973E+04  EK= 0.63753E+01 SP= 0.00E+00 SK= 0.00E+00
   1549 T=   233. E= -.10510708E+04 F= -.10576567E+04 E0= -.10576567E+04  EK= 0.65859E+01 SP= 0.00E+00 SK= 0.00E+00
   1550 T=   232. E= -.10511065E+04 F= -.10576694E+04 E0= -.10576694E+04  EK= 0.65628E+01 SP= 0.00E+00 SK= 0.00E+00
   1551 T=   226. E= -.10511855E+04 F= -.10575745E+04 E0= -.10575745E+04  EK= 0.63890E+01 SP= 0.00E+00 SK= 0.00E+00
   1552 T=   222. E= -.10512307E+04 F= -.10575156E+04 E0= -.10575156E+04  EK= 0.62849E+01 SP= 0.00E+00 SK= 0.00E+00
   1553 T=   220. E= -.10513077E+04 F= -.10575368E+04 E0= -.10575368E+04  EK= 0.62290E+01 SP= 0.00E+00 SK= 0.00E+00
   1554 T=   220. E= -.10513916E+04 F= -.10576115E+04 E0= -.10576115E+04  EK= 0.62199E+01 SP= 0.00E+00 SK= 0.00E+00
   1555 T=   223. E= -.10513582E+04 F= -.10576769E+04 E0= -.10576769E+04  EK= 0.63187E+01 SP= 0.00E+00 SK= 0.00E+00
   1556 T=   226. E= -.10512768E+04 F= -.10576635E+04 E0= -.10576635E+04  EK= 0.63867E+01 SP= 0.00E+00 SK= 0.00E+00
   1557 T=   228. E= -.10511530E+04 F= -.10576047E+04 E0= -.10576047E+04  EK= 0.64518E+01 SP= 0.00E+00 SK= 0.00E+00
       N       E                     dE             d eps       ncg     rms          rms(c)
DAV:   1    -0.812822781560E+03    0.22896E+03   -0.28103E+04 20644   0.298E+02
DAV:   2    -0.104647253177E+04   -0.23365E+03   -0.22992E+03 24496   0.725E+01
DAV:   3    -0.105131355556E+04   -0.48410E+01   -0.48382E+01 24272   0.111E+01
DAV:   4    -0.105139027199E+04   -0.76716E-01   -0.76705E-01 25008   0.137E+00    0.311E+01
DAV:   5    -0.104256628867E+04    0.88240E+01   -0.15080E+01 25040   0.871E+00    0.173E+01
DAV:   6    -0.104176378400E+04    0.80250E+00   -0.14999E+01 25176   0.792E+00    0.427E+00
DAV:   7    -0.104212483691E+04   -0.36105E+00   -0.25464E+00 24352   0.343E+00    0.198E+00
DAV:   8    -0.104214262081E+04   -0.17784E-01   -0.21262E-01 24040   0.937E-01    0.100E+00
DAV:   9    -0.104214057891E+04    0.20419E-02   -0.71516E-02 24584   0.697E-01    0.439E-01
DAV:  10    -0.104213646253E+04    0.41164E-02   -0.15454E-02 25408   0.403E-01    0.184E-01
DAV:  11    -0.104213523963E+04    0.12229E-02   -0.12133E-02 24360   0.254E-01    0.139E-01
DAV:  12    -0.104213328708E+04    0.19526E-02   -0.32857E-03 24280   0.194E-01    0.723E-02
DAV:  13    -0.104213263447E+04    0.65261E-03   -0.12725E-03 24352   0.125E-01    0.819E-02
DAV:  14    -0.104213239244E+04    0.24203E-03   -0.12193E-03 24512   0.998E-02    0.284E-02
DAV:  15    -0.104213239872E+04   -0.62801E-05   -0.31418E-04 20336   0.388E-02
   1558 T=   226. E= -.10510775E+04 F= -.10574628E+04 E0= -.10574628E+04  EK= 0.63852E+01 SP= 0.00E+00 SK= 0.00E+00
   1559 T=   222. E= -.10511678E+04 F= -.10574407E+04 E0= -.10574407E+04  EK= 0.62729E+01 SP= 0.00E+00 SK= 0.00E+00
   1560 T=   222. E= -.10512081E+04 F= -.10574858E+04 E0= -.10574858E+04  EK= 0.62777E+01 SP= 0.00E+00 SK= 0.00E+00
   1561 T=   224. E= -.10512876E+04 F= -.10576358E+04 E0= -.10576358E+04  EK= 0.63482E+01 SP= 0.00E+00 SK= 0.00E+00
   1562 T=   228. E= -.10513338E+04 F= -.10577995E+04 E0= -.10577995E+04  EK= 0.64657E+01 SP= 0.00E+00 SK= 0.00E+00
   1563 T=   233. E= -.10513005E+04 F= -.10579050E+04 E0= -.10579050E+04  EK= 0.66045E+01 SP= 0.00E+00 SK= 0.00E+00
   1564 T=   234. E= -.10512571E+04 F= -.10578868E+04 E0= -.10578868E+04  EK= 0.66298E+01 SP= 0.00E+00 SK= 0.00E+00
   1565 T=   229. E= -.10512700E+04 F= -.10577556E+04 E0= -.10577556E+04  EK= 0.64856E+01 SP= 0.00E+00 SK= 0.00E+00
   1566 T=   221. E= -.10513475E+04 F= -.10576113E+04 E0= -.10576113E+04  EK= 0.62638E+01 SP= 0.00E+00 SK= 0.00E+00
   1567 T=   219. E= -.10513738E+04 F= -.10575621E+04 E0= -.10575621E+04  EK= 0.61883E+01 SP= 0.00E+00 SK= 0.00E+00
       N       E                     dE             d eps       ncg     rms          rms(c)
DAV:   1    -0.103521735433E+04    0.69150E+01   -0.31693E+03 20644   0.103E+02
DAV:   2    -0.104331895389E+04   -0.81016E+01   -0.80994E+01 25088   0.151E+01
DAV:   3    -0.104339323624E+04   -0.74282E-01   -0.74277E-01 24992   0.149E+00
DAV:   4    -0.104339481199E+04   -0.15757E-02   -0.15757E-02 25024   0.209E-01    0.111E+01
DAV:   5    -0.104221436062E+04    0.11805E+01   -0.22603E+00 25528   0.363E+00    0.599E+00
DAV:   6    -0.104212690771E+04    0.87453E-01   -0.15785E+00 25160   0.276E+00    0.184E+00
DAV:   7    -0.104215231272E+04   -0.25405E-01   -0.30503E-01 24680   0.134E+00    0.692E-01
DAV:   8    -0.104214890048E+04    0.34122E-02   -0.34457E-02 24352   0.413E-01    0.357E-01
DAV:   9    -0.104214374642E+04    0.51541E-02   -0.10692E-02 24176   0.317E-01    0.151E-01
DAV:  10    -0.104214105975E+04    0.26867E-02   -0.34194E-03 26128   0.246E-01    0.854E-02
DAV:  11    -0.104214016371E+04    0.89604E-03   -0.39355E-03 24336   0.187E-01    0.925E-02
DAV:  12    -0.104213948561E+04    0.67810E-03   -0.16719E-03 24520   0.149E-01    0.560E-02
DAV:  13    -0.104213928976E+04    0.19585E-03   -0.54325E-04 24496   0.873E-02    0.517E-02
DAV:  14    -0.104213925388E+04    0.35883E-04   -0.59422E-04 24824   0.592E-02
   1568 T=   221. E= -.10513629E+04 F= -.10576153E+04 E0= -.10576153E+04  EK= 0.62524E+01 SP= 0.00E+00 SK= 0.00E+00
   1569 T=   223. E= -.10514555E+04 F= -.10577638E+04 E0= -.10577638E+04  EK= 0.63083E+01 SP= 0.00E+00 SK= 0.00E+00
   1570 T=   222. E= -.10515388E+04 F= -.10578238E+04 E0= -.10578238E+04  EK= 0.62850E+01 SP= 0.00E+00 SK= 0.00E+00
   1571 T=   219. E= -.10516036E+04 F= -.10578090E+04 E0= -.10578090E+04  EK= 0.62054E+01 SP= 0.00E+00 SK= 0.00E+00
   1572 T=   216. E= -.10516335E+04 F= -.10577511E+04 E0= -.10577511E+04  EK= 0.61176E+01 SP= 0.00E+00 SK= 0.00E+00
   1573 T=   215. E= -.10515757E+04 F= -.10576488E+04 E0= -.10576488E+04  EK= 0.60731E+01 SP= 0.00E+00 SK= 0.00E+00
   1574 T=   214. E= -.10514770E+04 F= -.10575401E+04 E0= -.10575401E+04  EK= 0.60631E+01 SP= 0.00E+00 SK= 0.00E+00
   1575 T=   213. E= -.10514666E+04 F= -.10575043E+04 E0= -.10575043E+04  EK= 0.60377E+01 SP= 0.00E+00 SK= 0.00E+00
   1576 T=   214. E= -.10514934E+04 F= -.10575540E+04 E0= -.10575540E+04  EK= 0.60606E+01 SP= 0.00E+00 SK= 0.00E+00
   1577 T=   219. E= -.10514905E+04 F= -.10576847E+04 E0= -.10576847E+04  EK= 0.61943E+01 SP= 0.00E+00 SK= 0.00E+00
       N       E                     dE             d eps       ncg     rms          rms(c)
DAV:   1    -0.103610342842E+04    0.60359E+01   -0.28292E+03 20644   0.978E+01
DAV:   2    -0.104314402951E+04   -0.70406E+01   -0.70386E+01 25064   0.142E+01
DAV:   3    -0.104320861560E+04   -0.64586E-01   -0.64582E-01 25000   0.140E+00
DAV:   4    -0.104320996942E+04   -0.13538E-02   -0.13538E-02 24984   0.197E-01    0.109E+01
DAV:   5    -0.104218282210E+04    0.10271E+01   -0.21320E+00 25600   0.355E+00    0.586E+00
DAV:   6    -0.104215796449E+04    0.24858E-01   -0.13866E+00 25008   0.250E+00    0.184E+00
DAV:   7    -0.104219299438E+04   -0.35030E-01   -0.25584E-01 24664   0.123E+00    0.633E-01
DAV:   8    -0.104219379179E+04   -0.79741E-03   -0.27981E-02 23704   0.376E-01    0.344E-01
DAV:   9    -0.104219283356E+04    0.95823E-03   -0.12636E-02 23960   0.276E-01    0.161E-01
DAV:  10    -0.104219200657E+04    0.82700E-03   -0.23617E-03 27888   0.174E-01    0.662E-02
DAV:  11    -0.104219183853E+04    0.16804E-03   -0.17002E-03 23976   0.103E-01    0.555E-02
DAV:  12    -0.104219159666E+04    0.24187E-03   -0.28380E-04 20040   0.768E-02    0.196E-02
DAV:  13    -0.104219152422E+04    0.72441E-04   -0.25739E-04 19312   0.574E-02
   1578 T=   227. E= -.10514516E+04 F= -.10578728E+04 E0= -.10578728E+04  EK= 0.64212E+01 SP= 0.00E+00 SK= 0.00E+00
   1579 T=   234. E= -.10513535E+04 F= -.10579706E+04 E0= -.10579706E+04  EK= 0.66171E+01 SP= 0.00E+00 SK= 0.00E+00
   1580 T=   232. E= -.10513514E+04 F= -.10579087E+04 E0= -.10579087E+04  EK= 0.65573E+01 SP= 0.00E+00 SK= 0.00E+00
   1581 T=   224. E= -.10514260E+04 F= -.10577730E+04 E0= -.10577730E+04  EK= 0.63470E+01 SP= 0.00E+00 SK= 0.00E+00
   1582 T=   217. E= -.10514849E+04 F= -.10576234E+04 E0= -.10576234E+04  EK= 0.61385E+01 SP= 0.00E+00 SK= 0.00E+00
   1583 T=   215. E= -.10514968E+04 F= -.10575955E+04 E0= -.10575955E+04  EK= 0.60987E+01 SP= 0.00E+00 SK= 0.00E+00
   1584 T=   219. E= -.10514543E+04 F= -.10576634E+04 E0= -.10576634E+04  EK= 0.62092E+01 SP= 0.00E+00 SK= 0.00E+00
   1585 T=   221. E= -.10515091E+04 F= -.10577570E+04 E0= -.10577570E+04  EK= 0.62479E+01 SP= 0.00E+00 SK= 0.00E+00
   1586 T=   219. E= -.10515861E+04 F= -.10577945E+04 E0= -.10577945E+04  EK= 0.62084E+01 SP= 0.00E+00 SK= 0.00E+00
   1587 T=   220. E= -.10515790E+04 F= -.10577982E+04 E0= -.10577982E+04  EK= 0.62191E+01 SP= 0.00E+00 SK= 0.00E+00
       N       E                     dE             d eps       ncg     rms          rms(c)
DAV:   1    -0.103556315285E+04    0.66284E+01   -0.27725E+03 20644   0.969E+01
DAV:   2    -0.104290145793E+04   -0.73383E+01   -0.73363E+01 25064   0.143E+01
DAV:   3    -0.104296979957E+04   -0.68342E-01   -0.68337E-01 25008   0.145E+00
DAV:   4    -0.104297122804E+04   -0.14285E-02   -0.14284E-02 25040   0.202E-01    0.111E+01
DAV:   5    -0.104189761244E+04    0.10736E+01   -0.21494E+00 25520   0.348E+00    0.599E+00
DAV:   6    -0.104186398375E+04    0.33629E-01   -0.15205E+00 25008   0.260E+00    0.180E+00
DAV:   7    -0.104189912936E+04   -0.35146E-01   -0.24046E-01 24448   0.113E+00    0.648E-01
DAV:   8    -0.104190067673E+04   -0.15474E-02   -0.27741E-02 23856   0.344E-01    0.307E-01
DAV:   9    -0.104189921667E+04    0.14601E-02   -0.63809E-03 24048   0.235E-01    0.122E-01
DAV:  10    -0.104189855529E+04    0.66138E-03   -0.19321E-03 24352   0.142E-01    0.664E-02
DAV:  11    -0.104189831915E+04    0.23614E-03   -0.13001E-03 24456   0.927E-02    0.493E-02
DAV:  12    -0.104189806272E+04    0.25643E-03   -0.29158E-04 19616   0.788E-02    0.209E-02
DAV:  13    -0.104189799083E+04    0.71886E-04   -0.19958E-04 17568   0.536E-02
   1588 T=   221. E= -.10514915E+04 F= -.10577547E+04 E0= -.10577547E+04  EK= 0.62631E+01 SP= 0.00E+00 SK= 0.00E+00
   1589 T=   223. E= -.10514149E+04 F= -.10577288E+04 E0= -.10577288E+04  EK= 0.63139E+01 SP= 0.00E+00 SK= 0.00E+00
   1590 T=   224. E= -.10513209E+04 F= -.10576588E+04 E0= -.10576588E+04  EK= 0.63379E+01 SP= 0.00E+00 SK= 0.00E+00
   1591 T=   225. E= -.10512435E+04 F= -.10576114E+04 E0= -.10576114E+04  EK= 0.63679E+01 SP= 0.00E+00 SK= 0.00E+00
   1592 T=   228. E= -.10511321E+04 F= -.10575816E+04 E0= -.10575816E+04  EK= 0.64495E+01 SP= 0.00E+00 SK= 0.00E+00
   1593 T=   228. E= -.10511065E+04 F= -.10575491E+04 E0= -.10575491E+04  EK= 0.64426E+01 SP= 0.00E+00 SK= 0.00E+00
   1594 T=   225. E= -.10511559E+04 F= -.10575144E+04 E0= -.10575144E+04  EK= 0.63585E+01 SP= 0.00E+00 SK= 0.00E+00
   1595 T=   224. E= -.10511201E+04 F= -.10574599E+04 E0= -.10574599E+04  EK= 0.63398E+01 SP= 0.00E+00 SK= 0.00E+00
   1596 T=   224. E= -.10510597E+04 F= -.10574108E+04 E0= -.10574108E+04  EK= 0.63511E+01 SP= 0.00E+00 SK= 0.00E+00
   1597 T=   225. E= -.10510267E+04 F= -.10573946E+04 E0= -.10573946E+04  EK= 0.63678E+01 SP= 0.00E+00 SK= 0.00E+00
       N       E                     dE             d eps       ncg     rms          rms(c)
DAV:   1    -0.103524526184E+04    0.66528E+01   -0.27768E+03 20644   0.973E+01
DAV:   2    -0.104211246420E+04   -0.68672E+01   -0.68652E+01 25120   0.139E+01
DAV:   3    -0.104217534727E+04   -0.62883E-01   -0.62878E-01 25024   0.137E+00
DAV:   4    -0.104217667355E+04   -0.13263E-02   -0.13262E-02 25048   0.194E-01    0.108E+01
DAV:   5    -0.104127656725E+04    0.90011E+00   -0.17038E+00 25712   0.322E+00    0.595E+00
DAV:   6    -0.104126109781E+04    0.15469E-01   -0.15066E+00 25056   0.260E+00    0.157E+00
DAV:   7    -0.104129278696E+04   -0.31689E-01   -0.26210E-01 24520   0.124E+00    0.613E-01
DAV:   8    -0.104129303905E+04   -0.25209E-03   -0.31544E-02 24016   0.374E-01    0.332E-01
DAV:   9    -0.104129161966E+04    0.14194E-02   -0.10415E-02 23904   0.249E-01    0.161E-01
DAV:  10    -0.104129043368E+04    0.11860E-02   -0.19789E-03 27008   0.180E-01    0.658E-02
DAV:  11    -0.104129014940E+04    0.28429E-03   -0.21857E-03 24440   0.118E-01    0.642E-02
DAV:  12    -0.104128981160E+04    0.33780E-03   -0.64902E-04 22096   0.819E-02    0.310E-02
DAV:  13    -0.104128969440E+04    0.11720E-03   -0.17645E-04 16792   0.566E-02    0.334E-02
DAV:  14    -0.104128965867E+04    0.35728E-04   -0.23564E-04 19776   0.466E-02
   1598 T=   225. E= -.10509657E+04 F= -.10573280E+04 E0= -.10573280E+04  EK= 0.63623E+01 SP= 0.00E+00 SK= 0.00E+00
   1599 T=   222. E= -.10511148E+04 F= -.10574058E+04 E0= -.10574058E+04  EK= 0.62910E+01 SP= 0.00E+00 SK= 0.00E+00
   1600 T=   221. E= -.10511023E+04 F= -.10573615E+04 E0= -.10573615E+04  EK= 0.62593E+01 SP= 0.00E+00 SK= 0.00E+00
   1601 T=   220. E= -.10510360E+04 F= -.10572617E+04 E0= -.10572617E+04  EK= 0.62257E+01 SP= 0.00E+00 SK= 0.00E+00
   1602 T=   216. E= -.10510511E+04 F= -.10571719E+04 E0= -.10571719E+04  EK= 0.61208E+01 SP= 0.00E+00 SK= 0.00E+00
   1603 T=   213. E= -.10510710E+04 F= -.10571124E+04 E0= -.10571124E+04  EK= 0.60414E+01 SP= 0.00E+00 SK= 0.00E+00
   1604 T=   215. E= -.10510354E+04 F= -.10571167E+04 E0= -.10571167E+04  EK= 0.60813E+01 SP= 0.00E+00 SK= 0.00E+00
   1605 T=   220. E= -.10509194E+04 F= -.10571570E+04 E0= -.10571570E+04  EK= 0.62376E+01 SP= 0.00E+00 SK= 0.00E+00
   1606 T=   226. E= -.10507894E+04 F= -.10571994E+04 E0= -.10571994E+04  EK= 0.64099E+01 SP= 0.00E+00 SK= 0.00E+00
   1607 T=   227. E= -.10507829E+04 F= -.10572047E+04 E0= -.10572047E+04  EK= 0.64217E+01 SP= 0.00E+00 SK= 0.00E+00
   1608 T=   225. E= -.10507747E+04 F= -.10571453E+04 E0= -.10571453E+04  EK= 0.63705E+01 SP= 0.00E+00 SK= 0.00E+00
   1609 T=   226. E= -.10506229E+04 F= -.10570176E+04 E0= -.10570176E+04  EK= 0.63947E+01 SP= 0.00E+00 SK= 0.00E+00
   1610 T=   222. E= -.10506140E+04 F= -.10569087E+04 E0= -.10569087E+04  EK= 0.62947E+01 SP= 0.00E+00 SK= 0.00E+00
   1611 T=   220. E= -.10507016E+04 F= -.10569308E+04 E0= -.10569308E+04  EK= 0.62292E+01 SP= 0.00E+00 SK= 0.00E+00
   1612 T=   227. E= -.10506777E+04 F= -.10571112E+04 E0= -.10571112E+04  EK= 0.64334E+01 SP= 0.00E+00 SK= 0.00E+00
       N       E                     dE             d eps       ncg     rms          rms(c)
DAV:   1    -0.102590823754E+04    0.15381E+02   -0.56967E+03 20644   0.138E+02
DAV:   2    -0.104231262474E+04   -0.16404E+02   -0.16398E+02 24896   0.212E+01
DAV:   3    -0.104246817782E+04   -0.15555E+00   -0.15554E+00 25008   0.218E+00
DAV:   4    -0.104247140799E+04   -0.32302E-02   -0.32299E-02 25080   0.302E-01    0.139E+01
DAV:   5    -0.104111340654E+04    0.13580E+01   -0.19443E+00 25392   0.340E+00    0.797E+00
DAV:   6    -0.104107384715E+04    0.39559E-01   -0.30333E+00 25272   0.376E+00    0.152E+00
DAV:   7    -0.104110986184E+04   -0.36015E-01   -0.52883E-01 23960   0.161E+00    0.737E-01
DAV:   8    -0.104110795740E+04    0.19044E-02   -0.39776E-02 24432   0.428E-01    0.402E-01
DAV:   9    -0.104110659088E+04    0.13665E-02   -0.21244E-02 23584   0.342E-01    0.246E-01
DAV:  10    -0.104110480536E+04    0.17855E-02   -0.52836E-03 28136   0.239E-01    0.797E-02
DAV:  11    -0.104110456888E+04    0.23648E-03   -0.28267E-03 24384   0.126E-01    0.659E-02
DAV:  12    -0.104110426452E+04    0.30436E-03   -0.38049E-04 21728   0.617E-02    0.337E-02
DAV:  13    -0.104110409456E+04    0.16996E-03   -0.39945E-04 21784   0.712E-02    0.326E-02
DAV:  14    -0.104110406009E+04    0.34475E-04   -0.18690E-04 17704   0.441E-02
   1613 T=   238. E= -.10505806E+04 F= -.10573083E+04 E0= -.10573083E+04  EK= 0.67276E+01 SP= 0.00E+00 SK= 0.00E+00
   1614 T=   240. E= -.10507660E+04 F= -.10575730E+04 E0= -.10575730E+04  EK= 0.68070E+01 SP= 0.00E+00 SK= 0.00E+00
   1615 T=   237. E= -.10508908E+04 F= -.10575996E+04 E0= -.10575996E+04  EK= 0.67088E+01 SP= 0.00E+00 SK= 0.00E+00
   1616 T=   233. E= -.10508477E+04 F= -.10574525E+04 E0= -.10574525E+04  EK= 0.66048E+01 SP= 0.00E+00 SK= 0.00E+00
   1617 T=   227. E= -.10508072E+04 F= -.10572389E+04 E0= -.10572389E+04  EK= 0.64317E+01 SP= 0.00E+00 SK= 0.00E+00
   1618 T=   225. E= -.10507755E+04 F= -.10571318E+04 E0= -.10571318E+04  EK= 0.63563E+01 SP= 0.00E+00 SK= 0.00E+00
   1619 T=   222. E= -.10508590E+04 F= -.10571537E+04 E0= -.10571537E+04  EK= 0.62947E+01 SP= 0.00E+00 SK= 0.00E+00
   1620 T=   221. E= -.10510149E+04 F= -.10572818E+04 E0= -.10572818E+04  EK= 0.62669E+01 SP= 0.00E+00 SK= 0.00E+00
   1621 T=   224. E= -.10510698E+04 F= -.10573971E+04 E0= -.10573971E+04  EK= 0.63273E+01 SP= 0.00E+00 SK= 0.00E+00
   1622 T=   225. E= -.10510717E+04 F= -.10574378E+04 E0= -.10574378E+04  EK= 0.63661E+01 SP= 0.00E+00 SK= 0.00E+00
       N       E                     dE             d eps       ncg     rms          rms(c)
DAV:   1    -0.103502310431E+04    0.60810E+01   -0.27430E+03 20644   0.969E+01
DAV:   2    -0.104179939078E+04   -0.67763E+01   -0.67746E+01 25048   0.139E+01
DAV:   3    -0.104186187994E+04   -0.62489E-01   -0.62485E-01 25024   0.138E+00
DAV:   4    -0.104186319113E+04   -0.13112E-02   -0.13111E-02 25024   0.195E-01    0.108E+01
DAV:   5    -0.104100369150E+04    0.85950E+00   -0.17452E+00 25464   0.349E+00    0.596E+00
DAV:   6    -0.104102584927E+04   -0.22158E-01   -0.15015E+00 25208   0.268E+00    0.167E+00
DAV:   7    -0.104105814588E+04   -0.32297E-01   -0.27256E-01 24512   0.130E+00    0.602E-01
DAV:   8    -0.104105775701E+04    0.38887E-03   -0.31547E-02 23984   0.394E-01    0.338E-01
DAV:   9    -0.104105615235E+04    0.16047E-02   -0.13765E-02 24016   0.287E-01    0.181E-01
DAV:  10    -0.104105479771E+04    0.13546E-02   -0.26966E-03 28328   0.199E-01    0.688E-02
DAV:  11    -0.104105445370E+04    0.34401E-03   -0.21515E-03 24224   0.126E-01    0.620E-02
DAV:  12    -0.104105407663E+04    0.37707E-03   -0.43174E-04 21824   0.916E-02    0.236E-02
DAV:  13    -0.104105396313E+04    0.11350E-03   -0.30670E-04 20640   0.666E-02    0.311E-02
DAV:  14    -0.104105393474E+04    0.28391E-04   -0.21003E-04 18088   0.443E-02
   1623 T=   220. E= -.10510181E+04 F= -.10572496E+04 E0= -.10572496E+04  EK= 0.62315E+01 SP= 0.00E+00 SK= 0.00E+00
   1624 T=   213. E= -.10510560E+04 F= -.10570936E+04 E0= -.10570936E+04  EK= 0.60377E+01 SP= 0.00E+00 SK= 0.00E+00
   1625 T=   207. E= -.10510924E+04 F= -.10569628E+04 E0= -.10569628E+04  EK= 0.58704E+01 SP= 0.00E+00 SK= 0.00E+00
   1626 T=   207. E= -.10510781E+04 F= -.10569261E+04 E0= -.10569261E+04  EK= 0.58480E+01 SP= 0.00E+00 SK= 0.00E+00
   1627 T=   209. E= -.10510832E+04 F= -.10570130E+04 E0= -.10570130E+04  EK= 0.59298E+01 SP= 0.00E+00 SK= 0.00E+00
   1628 T=   210. E= -.10512559E+04 F= -.10572080E+04 E0= -.10572080E+04  EK= 0.59521E+01 SP= 0.00E+00 SK= 0.00E+00
   1629 T=   212. E= -.10513770E+04 F= -.10573781E+04 E0= -.10573781E+04  EK= 0.60011E+01 SP= 0.00E+00 SK= 0.00E+00
   1630 T=   215. E= -.10513707E+04 F= -.10574595E+04 E0= -.10574595E+04  EK= 0.60889E+01 SP= 0.00E+00 SK= 0.00E+00
   1631 T=   216. E= -.10513358E+04 F= -.10574414E+04 E0= -.10574414E+04  EK= 0.61056E+01 SP= 0.00E+00 SK= 0.00E+00
   1632 T=   216. E= -.10512139E+04 F= -.10573412E+04 E0= -.10573412E+04  EK= 0.61273E+01 SP= 0.00E+00 SK= 0.00E+00
   1633 T=   214. E= -.10511581E+04 F= -.10572195E+04 E0= -.10572195E+04  EK= 0.60613E+01 SP= 0.00E+00 SK= 0.00E+00
   1634 T=   211. E= -.10511876E+04 F= -.10571632E+04 E0= -.10571632E+04  EK= 0.59756E+01 SP= 0.00E+00 SK= 0.00E+00
   1635 T=   211. E= -.10512132E+04 F= -.10571920E+04 E0= -.10571920E+04  EK= 0.59788E+01 SP= 0.00E+00 SK= 0.00E+00
   1636 T=   212. E= -.10512687E+04 F= -.10572560E+04 E0= -.10572560E+04  EK= 0.59873E+01 SP= 0.00E+00 SK= 0.00E+00
   1637 T=   213. E= -.10512684E+04 F= -.10572863E+04 E0= -.10572863E+04  EK= 0.60179E+01 SP= 0.00E+00 SK= 0.00E+00
   1638 T=   212. E= -.10512740E+04 F= -.10572879E+04 E0= -.10572879E+04  EK= 0.60140E+01 SP= 0.00E+00 SK= 0.00E+00
   1639 T=   209. E= -.10512918E+04 F= -.10572078E+04 E0= -.10572078E+04  EK= 0.59160E+01 SP= 0.00E+00 SK= 0.00E+00
   1640 T=   205. E= -.10512728E+04 F= -.10570873E+04 E0= -.10570873E+04  EK= 0.58145E+01 SP= 0.00E+00 SK= 0.00E+00
   1641 T=   204. E= -.10512650E+04 F= -.10570305E+04 E0= -.10570305E+04  EK= 0.57655E+01 SP= 0.00E+00 SK= 0.00E+00
   1642 T=   204. E= -.10513054E+04 F= -.10570755E+04 E0= -.10570755E+04  EK= 0.57701E+01 SP= 0.00E+00 SK= 0.00E+00
   1643 T=   207. E= -.10513215E+04 F= -.10571829E+04 E0= -.10571829E+04  EK= 0.58614E+01 SP= 0.00E+00 SK= 0.00E+00
   1644 T=   213. E= -.10513101E+04 F= -.10573296E+04 E0= -.10573296E+04  EK= 0.60194E+01 SP= 0.00E+00 SK= 0.00E+00
   1645 T=   215. E= -.10513564E+04 F= -.10574562E+04 E0= -.10574562E+04  EK= 0.60999E+01 SP= 0.00E+00 SK= 0.00E+00
   1646 T=   217. E= -.10513941E+04 F= -.10575503E+04 E0= -.10575503E+04  EK= 0.61562E+01 SP= 0.00E+00 SK= 0.00E+00
   1647 T=   220. E= -.10514100E+04 F= -.10576358E+04 E0= -.10576358E+04  EK= 0.62258E+01 SP= 0.00E+00 SK= 0.00E+00
   1648 T=   223. E= -.10514044E+04 F= -.10577102E+04 E0= -.10577102E+04  EK= 0.63058E+01 SP= 0.00E+00 SK= 0.00E+00
   1649 T=   225. E= -.10513711E+04 F= -.10577365E+04 E0= -.10577365E+04  EK= 0.63654E+01 SP= 0.00E+00 SK= 0.00E+00
   1650 T=   224. E= -.10513742E+04 F= -.10577246E+04 E0= -.10577246E+04  EK= 0.63504E+01 SP= 0.00E+00 SK= 0.00E+00
   1651 T=   223. E= -.10513851E+04 F= -.10577082E+04 E0= -.10577082E+04  EK= 0.63231E+01 SP= 0.00E+00 SK= 0.00E+00
   1652 T=   223. E= -.10513868E+04 F= -.10576911E+04 E0= -.10576911E+04  EK= 0.63043E+01 SP= 0.00E+00 SK= 0.00E+00
   1653 T=   224. E= -.10513228E+04 F= -.10576775E+04 E0= -.10576775E+04  EK= 0.63547E+01 SP= 0.00E+00 SK= 0.00E+00
   1654 T=   226. E= -.10512620E+04 F= -.10576541E+04 E0= -.10576541E+04  EK= 0.63922E+01 SP= 0.00E+00 SK= 0.00E+00
   1655 T=   225. E= -.10512687E+04 F= -.10576346E+04 E0= -.10576346E+04  EK= 0.63659E+01 SP= 0.00E+00 SK= 0.00E+00
   1656 T=   225. E= -.10512492E+04 F= -.10576211E+04 E0= -.10576211E+04  EK= 0.63719E+01 SP= 0.00E+00 SK= 0.00E+00
   1657 T=   226. E= -.10512270E+04 F= -.10576186E+04 E0= -.10576186E+04  EK= 0.63916E+01 SP= 0.00E+00 SK= 0.00E+00
   1658 T=   229. E= -.10511285E+04 F= -.10576133E+04 E0= -.10576133E+04  EK= 0.64848E+01 SP= 0.00E+00 SK= 0.00E+00
   1659 T=   232. E= -.10510082E+04 F= -.10575769E+04 E0= -.10575769E+04  EK= 0.65687E+01 SP= 0.00E+00 SK= 0.00E+00
   1660 T=   231. E= -.10509635E+04 F= -.10575024E+04 E0= -.10575024E+04  EK= 0.65389E+01 SP= 0.00E+00 SK= 0.00E+00
   1661 T=   234. E= -.10508559E+04 F= -.10574875E+04 E0= -.10574875E+04  EK= 0.66316E+01 SP= 0.00E+00 SK= 0.00E+00
   1662 T=   241. E= -.10507395E+04 F= -.10575562E+04 E0= -.10575562E+04  EK= 0.68167E+01 SP= 0.00E+00 SK= 0.00E+00
   1663 T=   244. E= -.10507344E+04 F= -.10576486E+04 E0= -.10576486E+04  EK= 0.69142E+01 SP= 0.00E+00 SK= 0.00E+00
   1664 T=   245. E= -.10507790E+04 F= -.10577170E+04 E0= -.10577170E+04  EK= 0.69380E+01 SP= 0.00E+00 SK= 0.00E+00
   1665 T=   247. E= -.10507316E+04 F= -.10577340E+04 E0= -.10577340E+04  EK= 0.70025E+01 SP= 0.00E+00 SK= 0.00E+00
   1666 T=   248. E= -.10506337E+04 F= -.10576657E+04 E0= -.10576657E+04  EK= 0.70320E+01 SP= 0.00E+00 SK= 0.00E+00
   1667 T=   243. E= -.10506117E+04 F= -.10574931E+04 E0= -.10574931E+04  EK= 0.68813E+01 SP= 0.00E+00 SK= 0.00E+00
   1668 T=   238. E= -.10505802E+04 F= -.10573181E+04 E0= -.10573181E+04  EK= 0.67379E+01 SP= 0.00E+00 SK= 0.00E+00
   1669 T=   236. E= -.10505740E+04 F= -.10572475E+04 E0= -.10572475E+04  EK= 0.66735E+01 SP= 0.00E+00 SK= 0.00E+00
   1670 T=   238. E= -.10505919E+04 F= -.10573352E+04 E0= -.10573352E+04  EK= 0.67433E+01 SP= 0.00E+00 SK= 0.00E+00
   1671 T=   242. E= -.10505662E+04 F= -.10574198E+04 E0= -.10574198E+04  EK= 0.68535E+01 SP= 0.00E+00 SK= 0.00E+00
   1672 T=   243. E= -.10505698E+04 F= -.10574401E+04 E0= -.10574401E+04  EK= 0.68703E+01 SP= 0.00E+00 SK= 0.00E+00
   1673 T=   239. E= -.10505348E+04 F= -.10573042E+04 E0= -.10573042E+04  EK= 0.67694E+01 SP= 0.00E+00 SK= 0.00E+00
   1674 T=   234. E= -.10504405E+04 F= -.10570779E+04 E0= -.10570779E+04  EK= 0.66374E+01 SP= 0.00E+00 SK= 0.00E+00
   1675 T=   227. E= -.10504493E+04 F= -.10568893E+04 E0= -.10568893E+04  EK= 0.64400E+01 SP= 0.00E+00 SK= 0.00E+00
   1676 T=   226. E= -.10504161E+04 F= -.10568154E+04 E0= -.10568154E+04  EK= 0.63993E+01 SP= 0.00E+00 SK= 0.00E+00
   1677 T=   234. E= -.10503327E+04 F= -.10569498E+04 E0= -.10569498E+04  EK= 0.66171E+01 SP= 0.00E+00 SK= 0.00E+00
   1678 T=   241. E= -.10503244E+04 F= -.10571484E+04 E0= -.10571484E+04  EK= 0.68240E+01 SP= 0.00E+00 SK= 0.00E+00
   1679 T=   246. E= -.10503435E+04 F= -.10572950E+04 E0= -.10572950E+04  EK= 0.69515E+01 SP= 0.00E+00 SK= 0.00E+00
   1680 T=   245. E= -.10503804E+04 F= -.10573100E+04 E0= -.10573100E+04  EK= 0.69296E+01 SP= 0.00E+00 SK= 0.00E+00
   1681 T=   241. E= -.10504220E+04 F= -.10572354E+04 E0= -.10572354E+04  EK= 0.68134E+01 SP= 0.00E+00 SK= 0.00E+00
   1682 T=   233. E= -.10505094E+04 F= -.10570981E+04 E0= -.10570981E+04  EK= 0.65886E+01 SP= 0.00E+00 SK= 0.00E+00
   1683 T=   225. E= -.10506489E+04 F= -.10570082E+04 E0= -.10570082E+04  EK= 0.63592E+01 SP= 0.00E+00 SK= 0.00E+00
   1684 T=   220. E= -.10507436E+04 F= -.10569759E+04 E0= -.10569759E+04  EK= 0.62323E+01 SP= 0.00E+00 SK= 0.00E+00
   1685 T=   221. E= -.10507438E+04 F= -.10569896E+04 E0= -.10569896E+04  EK= 0.62459E+01 SP= 0.00E+00 SK= 0.00E+00
   1686 T=   221. E= -.10507575E+04 F= -.10570007E+04 E0= -.10570007E+04  EK= 0.62432E+01 SP= 0.00E+00 SK= 0.00E+00
   1687 T=   220. E= -.10508004E+04 F= -.10570168E+04 E0= -.10570168E+04  EK= 0.62165E+01 SP= 0.00E+00 SK= 0.00E+00
   1688 T=   217. E= -.10508218E+04 F= -.10569751E+04 E0= -.10569751E+04  EK= 0.61533E+01 SP= 0.00E+00 SK= 0.00E+00
   1689 T=   216. E= -.10508133E+04 F= -.10569253E+04 E0= -.10569253E+04  EK= 0.61120E+01 SP= 0.00E+00 SK= 0.00E+00
   1690 T=   215. E= -.10508086E+04 F= -.10568917E+04 E0= -.10568917E+04  EK= 0.60831E+01 SP= 0.00E+00 SK= 0.00E+00
   1691 T=   213. E= -.10508482E+04 F= -.10568806E+04 E0= -.10568806E+04  EK= 0.60323E+01 SP= 0.00E+00 SK= 0.00E+00
   1692 T=   215. E= -.10508075E+04 F= -.10568798E+04 E0= -.10568798E+04  EK= 0.60724E+01 SP= 0.00E+00 SK= 0.00E+00
   1693 T=   215. E= -.10507609E+04 F= -.10568567E+04 E0= -.10568567E+04  EK= 0.60958E+01 SP= 0.00E+00 SK= 0.00E+00
   1694 T=   216. E= -.10507562E+04 F= -.10568650E+04 E0= -.10568650E+04  EK= 0.61087E+01 SP= 0.00E+00 SK= 0.00E+00
   1695 T=   220. E= -.10506834E+04 F= -.10569116E+04 E0= -.10569116E+04  EK= 0.62282E+01 SP= 0.00E+00 SK= 0.00E+00
   1696 T=   222. E= -.10506562E+04 F= -.10569509E+04 E0= -.10569509E+04  EK= 0.62947E+01 SP= 0.00E+00 SK= 0.00E+00
   1697 T=   218. E= -.10507393E+04 F= -.10569162E+04 E0= -.10569162E+04  EK= 0.61769E+01 SP= 0.00E+00 SK= 0.00E+00
   1698 T=   214. E= -.10508161E+04 F= -.10568733E+04 E0= -.10568733E+04  EK= 0.60572E+01 SP= 0.00E+00 SK= 0.00E+00
   1699 T=   211. E= -.10508310E+04 F= -.10568040E+04 E0= -.10568040E+04  EK= 0.59730E+01 SP= 0.00E+00 SK= 0.00E+00
   1700 T=   208. E= -.10508232E+04 F= -.10567169E+04 E0= -.10567169E+04  EK= 0.58937E+01 SP= 0.00E+00 SK= 0.00E+00
   1701 T=   204. E= -.10508610E+04 F= -.10566370E+04 E0= -.10566370E+04  EK= 0.57759E+01 SP= 0.00E+00 SK= 0.00E+00
   1702 T=   202. E= -.10508717E+04 F= -.10565972E+04 E0= -.10565972E+04  EK= 0.57254E+01 SP= 0.00E+00 SK= 0.00E+00
   1703 T=   208. E= -.10507563E+04 F= -.10566478E+04 E0= -.10566478E+04  EK= 0.58915E+01 SP= 0.00E+00 SK= 0.00E+00
   1704 T=   216. E= -.10506518E+04 F= -.10567614E+04 E0= -.10567614E+04  EK= 0.61096E+01 SP= 0.00E+00 SK= 0.00E+00
   1705 T=   220. E= -.10506606E+04 F= -.10568766E+04 E0= -.10568766E+04  EK= 0.62159E+01 SP= 0.00E+00 SK= 0.00E+00
       N       E                     dE             d eps       ncg     rms          rms(c)
DAV:   1    -0.666393428683E+03    0.37466E+03   -0.37595E+04 20644   0.337E+02
DAV:   2    -0.104648289358E+04   -0.38009E+03   -0.37435E+03 24062   0.933E+01
DAV:   3    -0.105507193276E+04   -0.85890E+01   -0.85817E+01 24664   0.154E+01
DAV:   4    -0.105519997743E+04   -0.12804E+00   -0.12801E+00 24824   0.184E+00    0.389E+01
DAV:   5    -0.104070000339E+04    0.14500E+02   -0.54059E+01 24648   0.122E+01    0.193E+01
DAV:   6    -0.104118792338E+04   -0.48792E+00   -0.59258E+00 24360   0.495E+00    0.916E+00
DAV:   7    -0.104187431213E+04   -0.68639E+00   -0.19890E+00 24216   0.319E+00    0.136E+00
DAV:   8    -0.104188623828E+04   -0.11926E-01   -0.22200E-01 24928   0.985E-01    0.826E-01
DAV:   9    -0.104188278077E+04    0.34575E-02   -0.59904E-02 23648   0.521E-01    0.336E-01
DAV:  10    -0.104187901226E+04    0.37685E-02   -0.71040E-03 26400   0.264E-01    0.169E-01
DAV:  11    -0.104187572887E+04    0.32834E-02   -0.68567E-03 23456   0.241E-01    0.101E-01
DAV:  12    -0.104187440839E+04    0.13205E-02   -0.17752E-03 25632   0.127E-01    0.758E-02
DAV:  13    -0.104187352943E+04    0.87896E-03   -0.12486E-03 22568   0.116E-01    0.463E-02
DAV:  14    -0.104187338186E+04    0.14757E-03   -0.56703E-04 24704   0.701E-02    0.482E-02
DAV:  15    -0.104187333479E+04    0.47070E-04   -0.37052E-04 23360   0.446E-02
   1706 T=   221. E= -.10506424E+04 F= -.10568885E+04 E0= -.10568885E+04  EK= 0.62461E+01 SP= 0.00E+00 SK= 0.00E+00
   1707 T=   222. E= -.10506191E+04 F= -.10568896E+04 E0= -.10568896E+04  EK= 0.62704E+01 SP= 0.00E+00 SK= 0.00E+00
   1708 T=   218. E= -.10505425E+04 F= -.10567249E+04 E0= -.10567249E+04  EK= 0.61824E+01 SP= 0.00E+00 SK= 0.00E+00
   1709 T=   215. E= -.10504598E+04 F= -.10565558E+04 E0= -.10565558E+04  EK= 0.60961E+01 SP= 0.00E+00 SK= 0.00E+00
   1710 T=   221. E= -.10502524E+04 F= -.10565149E+04 E0= -.10565149E+04  EK= 0.62624E+01 SP= 0.00E+00 SK= 0.00E+00
   1711 T=   229. E= -.10501387E+04 F= -.10566196E+04 E0= -.10566196E+04  EK= 0.64809E+01 SP= 0.00E+00 SK= 0.00E+00
   1712 T=   236. E= -.10501415E+04 F= -.10568132E+04 E0= -.10568132E+04  EK= 0.66717E+01 SP= 0.00E+00 SK= 0.00E+00
   1713 T=   238. E= -.10502653E+04 F= -.10569908E+04 E0= -.10569908E+04  EK= 0.67255E+01 SP= 0.00E+00 SK= 0.00E+00
   1714 T=   236. E= -.10504129E+04 F= -.10570929E+04 E0= -.10570929E+04  EK= 0.66800E+01 SP= 0.00E+00 SK= 0.00E+00
   1715 T=   238. E= -.10503259E+04 F= -.10570576E+04 E0= -.10570576E+04  EK= 0.67317E+01 SP= 0.00E+00 SK= 0.00E+00
   1716 T=   237. E= -.10501813E+04 F= -.10568893E+04 E0= -.10568893E+04  EK= 0.67080E+01 SP= 0.00E+00 SK= 0.00E+00
   1717 T=   229. E= -.10501861E+04 F= -.10566769E+04 E0= -.10566769E+04  EK= 0.64908E+01 SP= 0.00E+00 SK= 0.00E+00
       N       E                     dE             d eps       ncg     rms          rms(c)
DAV:   1    -0.103235741658E+04    0.95160E+01   -0.38676E+03 20644   0.114E+02
DAV:   2    -0.104257848097E+04   -0.10221E+02   -0.10218E+02 24832   0.169E+01
DAV:   3    -0.104267625316E+04   -0.97772E-01   -0.97765E-01 25024   0.171E+00
DAV:   4    -0.104267831652E+04   -0.20634E-02   -0.20633E-02 25088   0.242E-01    0.120E+01
DAV:   5    -0.104157106379E+04    0.11073E+01   -0.23626E+00 24680   0.346E+00    0.657E+00
DAV:   6    -0.104158389378E+04   -0.12830E-01   -0.15882E+00 25168   0.270E+00    0.195E+00
DAV:   7    -0.104162892730E+04   -0.45034E-01   -0.29701E-01 24560   0.125E+00    0.687E-01
DAV:   8    -0.104162797686E+04    0.95044E-03   -0.33698E-02 23920   0.389E-01    0.322E-01
DAV:   9    -0.104162576047E+04    0.22164E-02   -0.78807E-03 23992   0.229E-01    0.120E-01
DAV:  10    -0.104162465617E+04    0.11043E-02   -0.20492E-03 24680   0.151E-01    0.688E-02
DAV:  11    -0.104162420716E+04    0.44901E-03   -0.15153E-03 24056   0.105E-01    0.550E-02
DAV:  12    -0.104162388030E+04    0.32686E-03   -0.38381E-04 20968   0.744E-02    0.238E-02
DAV:  13    -0.104162376774E+04    0.11256E-03   -0.19985E-04 17536   0.525E-02    0.270E-02
DAV:  14    -0.104162374669E+04    0.21045E-04   -0.20080E-04 18936   0.394E-02
   1718 T=   224. E= -.10501729E+04 F= -.10565111E+04 E0= -.10565111E+04  EK= 0.63382E+01 SP= 0.00E+00 SK= 0.00E+00
   1719 T=   225. E= -.10501544E+04 F= -.10565276E+04 E0= -.10565276E+04  EK= 0.63732E+01 SP= 0.00E+00 SK= 0.00E+00
   1720 T=   230. E= -.10501675E+04 F= -.10566827E+04 E0= -.10566827E+04  EK= 0.65152E+01 SP= 0.00E+00 SK= 0.00E+00
   1721 T=   235. E= -.10502227E+04 F= -.10568700E+04 E0= -.10568700E+04  EK= 0.66473E+01 SP= 0.00E+00 SK= 0.00E+00
   1722 T=   237. E= -.10502718E+04 F= -.10569806E+04 E0= -.10569806E+04  EK= 0.67088E+01 SP= 0.00E+00 SK= 0.00E+00
   1723 T=   236. E= -.10503189E+04 F= -.10569934E+04 E0= -.10569934E+04  EK= 0.66745E+01 SP= 0.00E+00 SK= 0.00E+00
   1724 T=   227. E= -.10504068E+04 F= -.10568256E+04 E0= -.10568256E+04  EK= 0.64188E+01 SP= 0.00E+00 SK= 0.00E+00
   1725 T=   218. E= -.10504569E+04 F= -.10566410E+04 E0= -.10566410E+04  EK= 0.61841E+01 SP= 0.00E+00 SK= 0.00E+00
   1726 T=   217. E= -.10504009E+04 F= -.10565463E+04 E0= -.10565463E+04  EK= 0.61454E+01 SP= 0.00E+00 SK= 0.00E+00
   1727 T=   220. E= -.10503139E+04 F= -.10565439E+04 E0= -.10565439E+04  EK= 0.62299E+01 SP= 0.00E+00 SK= 0.00E+00
   1728 T=   226. E= -.10502439E+04 F= -.10566519E+04 E0= -.10566519E+04  EK= 0.64080E+01 SP= 0.00E+00 SK= 0.00E+00
   1729 T=   234. E= -.10501221E+04 F= -.10567533E+04 E0= -.10567533E+04  EK= 0.66312E+01 SP= 0.00E+00 SK= 0.00E+00
   1730 T=   239. E= -.10499892E+04 F= -.10567600E+04 E0= -.10567600E+04  EK= 0.67708E+01 SP= 0.00E+00 SK= 0.00E+00
   1731 T=   241. E= -.10498192E+04 F= -.10566543E+04 E0= -.10566543E+04  EK= 0.68352E+01 SP= 0.00E+00 SK= 0.00E+00
   1732 T=   238. E= -.10497639E+04 F= -.10565045E+04 E0= -.10565045E+04  EK= 0.67406E+01 SP= 0.00E+00 SK= 0.00E+00
   1733 T=   238. E= -.10497103E+04 F= -.10564399E+04 E0= -.10564399E+04  EK= 0.67296E+01 SP= 0.00E+00 SK= 0.00E+00
   1734 T=   242. E= -.10496409E+04 F= -.10564858E+04 E0= -.10564858E+04  EK= 0.68449E+01 SP= 0.00E+00 SK= 0.00E+00
       N       E                     dE             d eps       ncg     rms          rms(c)
DAV:   1    -0.101795508579E+04    0.23669E+02   -0.70492E+03 20644   0.151E+02
DAV:   2    -0.104316384488E+04   -0.25209E+02   -0.25197E+02 24688   0.252E+01
DAV:   3    -0.104341111444E+04   -0.24727E+00   -0.24723E+00 25000   0.271E+00
DAV:   4    -0.104341596442E+04   -0.48500E-02   -0.48495E-02 25120   0.370E-01    0.157E+01
DAV:   5    -0.104168033172E+04    0.17356E+01   -0.39562E+00 24520   0.413E+00    0.869E+00
DAV:   6    -0.104169539062E+04   -0.15059E-01   -0.23594E+00 25144   0.323E+00    0.253E+00
DAV:   7    -0.104177726131E+04   -0.81871E-01   -0.44707E-01 24440   0.147E+00    0.850E-01
DAV:   8    -0.104177537894E+04    0.18824E-02   -0.45723E-02 23304   0.452E-01    0.394E-01
DAV:   9    -0.104177267360E+04    0.27053E-02   -0.11994E-02 23312   0.298E-01    0.137E-01
DAV:  10    -0.104177137423E+04    0.12994E-02   -0.44039E-03 23632   0.227E-01    0.959E-02
DAV:  11    -0.104177014157E+04    0.12327E-02   -0.32501E-03 24760   0.179E-01    0.799E-02
DAV:  12    -0.104176895776E+04    0.11838E-02   -0.94903E-04 24144   0.127E-01    0.305E-02
DAV:  13    -0.104176865065E+04    0.30711E-03   -0.67317E-04 23464   0.814E-02    0.366E-02
DAV:  14    -0.104176862932E+04    0.21327E-04   -0.38216E-04 24464   0.462E-02
   1735 T=   246. E= -.10495679E+04 F= -.10565439E+04 E0= -.10565439E+04  EK= 0.69760E+01 SP= 0.00E+00 SK= 0.00E+00
   1736 T=   249. E= -.10496461E+04 F= -.10566823E+04 E0= -.10566823E+04  EK= 0.70362E+01 SP= 0.00E+00 SK= 0.00E+00
   1737 T=   251. E= -.10496832E+04 F= -.10567759E+04 E0= -.10567759E+04  EK= 0.70927E+01 SP= 0.00E+00 SK= 0.00E+00
   1738 T=   253. E= -.10496434E+04 F= -.10568065E+04 E0= -.10568065E+04  EK= 0.71631E+01 SP= 0.00E+00 SK= 0.00E+00
   1739 T=   253. E= -.10496335E+04 F= -.10567827E+04 E0= -.10567827E+04  EK= 0.71493E+01 SP= 0.00E+00 SK= 0.00E+00
   1740 T=   252. E= -.10495701E+04 F= -.10567170E+04 E0= -.10567170E+04  EK= 0.71468E+01 SP= 0.00E+00 SK= 0.00E+00
   1741 T=   252. E= -.10495181E+04 F= -.10566527E+04 E0= -.10566527E+04  EK= 0.71346E+01 SP= 0.00E+00 SK= 0.00E+00
   1742 T=   249. E= -.10495284E+04 F= -.10565795E+04 E0= -.10565795E+04  EK= 0.70511E+01 SP= 0.00E+00 SK= 0.00E+00
   1743 T=   247. E= -.10495457E+04 F= -.10565511E+04 E0= -.10565511E+04  EK= 0.70054E+01 SP= 0.00E+00 SK= 0.00E+00
   1744 T=   248. E= -.10495042E+04 F= -.10565333E+04 E0= -.10565333E+04  EK= 0.70291E+01 SP= 0.00E+00 SK= 0.00E+00
   1745 T=   247. E= -.10495131E+04 F= -.10565097E+04 E0= -.10565097E+04  EK= 0.69966E+01 SP= 0.00E+00 SK= 0.00E+00
       N       E                     dE             d eps       ncg     rms          rms(c)
DAV:   1    -0.103184600298E+04    0.99226E+01   -0.39274E+03 20644   0.114E+02
DAV:   2    -0.104266778646E+04   -0.10822E+02   -0.10819E+02 24840   0.172E+01
DAV:   3    -0.104276714508E+04   -0.99359E-01   -0.99350E-01 24976   0.172E+00
DAV:   4    -0.104276925117E+04   -0.21061E-02   -0.21060E-02 25040   0.243E-01    0.121E+01
DAV:   5    -0.104165121782E+04    0.11180E+01   -0.24135E+00 24960   0.376E+00    0.660E+00
DAV:   6    -0.104167601906E+04   -0.24801E-01   -0.17107E+00 25088   0.278E+00    0.197E+00
DAV:   7    -0.104171857909E+04   -0.42560E-01   -0.30883E-01 24368   0.134E+00    0.669E-01
DAV:   8    -0.104171813993E+04    0.43916E-03   -0.34484E-02 23776   0.412E-01    0.351E-01
DAV:   9    -0.104171612694E+04    0.20130E-02   -0.14039E-02 23840   0.286E-01    0.169E-01
DAV:  10    -0.104171484858E+04    0.12784E-02   -0.26566E-03 27512   0.177E-01    0.775E-02
DAV:  11    -0.104171444323E+04    0.40535E-03   -0.20313E-03 23800   0.114E-01    0.614E-02
DAV:  12    -0.104171405177E+04    0.39146E-03   -0.35854E-04 20728   0.855E-02    0.227E-02
DAV:  13    -0.104171392481E+04    0.12696E-03   -0.36844E-04 21808   0.654E-02    0.311E-02
DAV:  14    -0.104171388852E+04    0.36289E-04   -0.16907E-04 17464   0.416E-02
   1746 T=   242. E= -.10496028E+04 F= -.10564449E+04 E0= -.10564449E+04  EK= 0.68421E+01 SP= 0.00E+00 SK= 0.00E+00
   1747 T=   240. E= -.10496659E+04 F= -.10564604E+04 E0= -.10564604E+04  EK= 0.67945E+01 SP= 0.00E+00 SK= 0.00E+00
   1748 T=   238. E= -.10497100E+04 F= -.10564601E+04 E0= -.10564601E+04  EK= 0.67501E+01 SP= 0.00E+00 SK= 0.00E+00
   1749 T=   236. E= -.10498003E+04 F= -.10564844E+04 E0= -.10564844E+04  EK= 0.66841E+01 SP= 0.00E+00 SK= 0.00E+00
   1750 T=   236. E= -.10498055E+04 F= -.10564941E+04 E0= -.10564941E+04  EK= 0.66886E+01 SP= 0.00E+00 SK= 0.00E+00
   1751 T=   233. E= -.10498402E+04 F= -.10564330E+04 E0= -.10564330E+04  EK= 0.65928E+01 SP= 0.00E+00 SK= 0.00E+00
   1752 T=   229. E= -.10498659E+04 F= -.10563406E+04 E0= -.10563406E+04  EK= 0.64746E+01 SP= 0.00E+00 SK= 0.00E+00
   1753 T=   228. E= -.10498438E+04 F= -.10562986E+04 E0= -.10562986E+04  EK= 0.64548E+01 SP= 0.00E+00 SK= 0.00E+00
   1754 T=   232. E= -.10497821E+04 F= -.10563465E+04 E0= -.10563465E+04  EK= 0.65643E+01 SP= 0.00E+00 SK= 0.00E+00
   1755 T=   237. E= -.10497636E+04 F= -.10564812E+04 E0= -.10564812E+04  EK= 0.67176E+01 SP= 0.00E+00 SK= 0.00E+00
       N       E                     dE             d eps       ncg     rms          rms(c)
DAV:   1    -0.103487434773E+04    0.68396E+01   -0.30484E+03 20644   0.101E+02
DAV:   2    -0.104269419573E+04   -0.78198E+01   -0.78179E+01 24864   0.149E+01
DAV:   3    -0.104276838646E+04   -0.74191E-01   -0.74186E-01 24976   0.149E+00
DAV:   4    -0.104276998911E+04   -0.16026E-02   -0.16026E-02 25016   0.213E-01    0.108E+01
DAV:   5    -0.104183675878E+04    0.93323E+00   -0.19004E+00 25248   0.336E+00    0.594E+00
DAV:   6    -0.104181456055E+04    0.22198E-01   -0.13578E+00 25104   0.256E+00    0.175E+00
DAV:   7    -0.104184088633E+04   -0.26326E-01   -0.28054E-01 24896   0.132E+00    0.631E-01
DAV:   8    -0.104183804312E+04    0.28432E-02   -0.35351E-02 24216   0.417E-01    0.322E-01
DAV:   9    -0.104183448378E+04    0.35593E-02   -0.98649E-03 24224   0.270E-01    0.144E-01
DAV:  10    -0.104183234223E+04    0.21416E-02   -0.25285E-03 27040   0.217E-01    0.717E-02
DAV:  11    -0.104183158213E+04    0.76010E-03   -0.28924E-03 24240   0.157E-01    0.797E-02
DAV:  12    -0.104183098843E+04    0.59370E-03   -0.10416E-03 24216   0.117E-01    0.407E-02
DAV:  13    -0.104183080562E+04    0.18281E-03   -0.39170E-04 23040   0.760E-02    0.461E-02
DAV:  14    -0.104183076724E+04    0.38378E-04   -0.42129E-04 24296   0.509E-02
   1756 T=   242. E= -.10497049E+04 F= -.10565518E+04 E0= -.10565518E+04  EK= 0.68469E+01 SP= 0.00E+00 SK= 0.00E+00
   1757 T=   244. E= -.10497452E+04 F= -.10566491E+04 E0= -.10566491E+04  EK= 0.69039E+01 SP= 0.00E+00 SK= 0.00E+00
   1758 T=   237. E= -.10498220E+04 F= -.10565386E+04 E0= -.10565386E+04  EK= 0.67165E+01 SP= 0.00E+00 SK= 0.00E+00
   1759 T=   234. E= -.10497662E+04 F= -.10563798E+04 E0= -.10563798E+04  EK= 0.66136E+01 SP= 0.00E+00 SK= 0.00E+00
   1760 T=   230. E= -.10496557E+04 F= -.10561645E+04 E0= -.10561645E+04  EK= 0.65089E+01 SP= 0.00E+00 SK= 0.00E+00
   1761 T=   226. E= -.10496151E+04 F= -.10560144E+04 E0= -.10560144E+04  EK= 0.63993E+01 SP= 0.00E+00 SK= 0.00E+00
   1762 T=   225. E= -.10495966E+04 F= -.10559742E+04 E0= -.10559742E+04  EK= 0.63776E+01 SP= 0.00E+00 SK= 0.00E+00
   1763 T=   226. E= -.10496169E+04 F= -.10560240E+04 E0= -.10560240E+04  EK= 0.64071E+01 SP= 0.00E+00 SK= 0.00E+00
   1764 T=   229. E= -.10496872E+04 F= -.10561616E+04 E0= -.10561616E+04  EK= 0.64745E+01 SP= 0.00E+00 SK= 0.00E+00
   1765 T=   228. E= -.10497952E+04 F= -.10562595E+04 E0= -.10562595E+04  EK= 0.64643E+01 SP= 0.00E+00 SK= 0.00E+00
       N       E                     dE             d eps       ncg     rms          rms(c)
DAV:   1    -0.103375725119E+04    0.80736E+01   -0.32679E+03 20644   0.104E+02
DAV:   2    -0.104238573805E+04   -0.86285E+01   -0.86262E+01 24944   0.154E+01
DAV:   3    -0.104246603655E+04   -0.80298E-01   -0.80292E-01 25032   0.152E+00
DAV:   4    -0.104246776262E+04   -0.17261E-02   -0.17259E-02 25056   0.218E-01    0.109E+01
DAV:   5    -0.104145227299E+04    0.10155E+01   -0.18423E+00 25760   0.348E+00    0.600E+00
DAV:   6    -0.104142165094E+04    0.30622E-01   -0.16038E+00 24944   0.264E+00    0.166E+00
DAV:   7    -0.104144984856E+04   -0.28198E-01   -0.28092E-01 24272   0.130E+00    0.590E-01
DAV:   8    -0.104144794324E+04    0.19053E-02   -0.28879E-02 24232   0.408E-01    0.319E-01
DAV:   9    -0.104144634421E+04    0.15990E-02   -0.16557E-02 23568   0.290E-01    0.201E-01
DAV:  10    -0.104144489489E+04    0.14493E-02   -0.36537E-03 28976   0.201E-01    0.664E-02
DAV:  11    -0.104144460174E+04    0.29316E-03   -0.17751E-03 23632   0.100E-01    0.553E-02
DAV:  12    -0.104144423033E+04    0.37141E-03   -0.16031E-04 17424   0.777E-02    0.268E-02
DAV:  13    -0.104144406158E+04    0.16875E-03   -0.47665E-04 22048   0.850E-02    0.230E-02
DAV:  14    -0.104144405827E+04    0.33113E-05   -0.26202E-04 20064   0.399E-02
   1766 T=   229. E= -.10497041E+04 F= -.10562000E+04 E0= -.10562000E+04  EK= 0.64959E+01 SP= 0.00E+00 SK= 0.00E+00
   1767 T=   231. E= -.10496665E+04 F= -.10561967E+04 E0= -.10561967E+04  EK= 0.65303E+01 SP= 0.00E+00 SK= 0.00E+00
   1768 T=   230. E= -.10495832E+04 F= -.10561023E+04 E0= -.10561023E+04  EK= 0.65191E+01 SP= 0.00E+00 SK= 0.00E+00
   1769 T=   228. E= -.10495727E+04 F= -.10560334E+04 E0= -.10560334E+04  EK= 0.64607E+01 SP= 0.00E+00 SK= 0.00E+00
   1770 T=   229. E= -.10495287E+04 F= -.10560151E+04 E0= -.10560151E+04  EK= 0.64864E+01 SP= 0.00E+00 SK= 0.00E+00
   1771 T=   231. E= -.10495042E+04 F= -.10560479E+04 E0= -.10560479E+04  EK= 0.65437E+01 SP= 0.00E+00 SK= 0.00E+00
   1772 T=   234. E= -.10495085E+04 F= -.10561461E+04 E0= -.10561461E+04  EK= 0.66376E+01 SP= 0.00E+00 SK= 0.00E+00
   1773 T=   239. E= -.10494901E+04 F= -.10562569E+04 E0= -.10562569E+04  EK= 0.67668E+01 SP= 0.00E+00 SK= 0.00E+00
   1774 T=   240. E= -.10494653E+04 F= -.10562727E+04 E0= -.10562727E+04  EK= 0.68074E+01 SP= 0.00E+00 SK= 0.00E+00
   1775 T=   239. E= -.10494200E+04 F= -.10561968E+04 E0= -.10561968E+04  EK= 0.67768E+01 SP= 0.00E+00 SK= 0.00E+00
       N       E                     dE             d eps       ncg     rms          rms(c)
DAV:   1    -0.103490525430E+04    0.65388E+01   -0.27479E+03 20644   0.961E+01
DAV:   2    -0.104194699328E+04   -0.70417E+01   -0.70399E+01 25008   0.141E+01
DAV:   3    -0.104201094125E+04   -0.63948E-01   -0.63943E-01 24984   0.139E+00
DAV:   4    -0.104201226553E+04   -0.13243E-02   -0.13242E-02 25000   0.196E-01    0.108E+01
DAV:   5    -0.104110246877E+04    0.90980E+00   -0.18428E+00 25008   0.339E+00    0.597E+00
DAV:   6    -0.104111094487E+04   -0.84761E-02   -0.14791E+00 24984   0.263E+00    0.167E+00
DAV:   7    -0.104114289931E+04   -0.31954E-01   -0.28340E-01 24616   0.132E+00    0.611E-01
DAV:   8    -0.104114034469E+04    0.25546E-02   -0.31538E-02 24312   0.410E-01    0.336E-01
DAV:   9    -0.104113717020E+04    0.31745E-02   -0.14726E-02 23936   0.304E-01    0.180E-01
DAV:  10    -0.104113508511E+04    0.20851E-02   -0.32760E-03 28440   0.223E-01    0.722E-02
DAV:  11    -0.104113439940E+04    0.68571E-03   -0.26807E-03 23960   0.144E-01    0.750E-02
DAV:  12    -0.104113368864E+04    0.71075E-03   -0.59006E-04 22464   0.117E-01    0.270E-02
DAV:  13    -0.104113350280E+04    0.18584E-03   -0.61849E-04 23704   0.876E-02    0.429E-02
DAV:  14    -0.104113346688E+04    0.35921E-04   -0.37153E-04 23808   0.497E-02
   1776 T=   233. E= -.10493599E+04 F= -.10559466E+04 E0= -.10559466E+04  EK= 0.65867E+01 SP= 0.00E+00 SK= 0.00E+00
   1777 T=   222. E= -.10495369E+04 F= -.10558301E+04 E0= -.10558301E+04  EK= 0.62932E+01 SP= 0.00E+00 SK= 0.00E+00
   1778 T=   216. E= -.10496500E+04 F= -.10557579E+04 E0= -.10557579E+04  EK= 0.61080E+01 SP= 0.00E+00 SK= 0.00E+00
   1779 T=   215. E= -.10497051E+04 F= -.10558009E+04 E0= -.10558009E+04  EK= 0.60958E+01 SP= 0.00E+00 SK= 0.00E+00
   1780 T=   219. E= -.10497376E+04 F= -.10559438E+04 E0= -.10559438E+04  EK= 0.62062E+01 SP= 0.00E+00 SK= 0.00E+00
   1781 T=   227. E= -.10497186E+04 F= -.10561537E+04 E0= -.10561537E+04  EK= 0.64351E+01 SP= 0.00E+00 SK= 0.00E+00
   1782 T=   232. E= -.10497387E+04 F= -.10563086E+04 E0= -.10563086E+04  EK= 0.65699E+01 SP= 0.00E+00 SK= 0.00E+00
   1783 T=   231. E= -.10497670E+04 F= -.10563054E+04 E0= -.10563054E+04  EK= 0.65384E+01 SP= 0.00E+00 SK= 0.00E+00
   1784 T=   224. E= -.10498654E+04 F= -.10562021E+04 E0= -.10562021E+04  EK= 0.63368E+01 SP= 0.00E+00 SK= 0.00E+00
   1785 T=   218. E= -.10499405E+04 F= -.10561079E+04 E0= -.10561079E+04  EK= 0.61674E+01 SP= 0.00E+00 SK= 0.00E+00
       N       E                     dE             d eps       ncg     rms          rms(c)
DAV:   1    -0.103530679353E+04    0.58267E+01   -0.26800E+03 20644   0.955E+01
DAV:   2    -0.104222043267E+04   -0.69136E+01   -0.69118E+01 25056   0.140E+01
DAV:   3    -0.104228266332E+04   -0.62231E-01   -0.62226E-01 24984   0.139E+00
DAV:   4    -0.104228393736E+04   -0.12740E-02   -0.12740E-02 25000   0.195E-01    0.110E+01
DAV:   5    -0.104123948094E+04    0.10445E+01   -0.21631E+00 26000   0.374E+00    0.593E+00
DAV:   6    -0.104124168331E+04   -0.22024E-02   -0.14616E+00 24968   0.258E+00    0.184E+00
DAV:   7    -0.104128022357E+04   -0.38540E-01   -0.25426E-01 24640   0.118E+00    0.577E-01
DAV:   8    -0.104127937525E+04    0.84832E-03   -0.21907E-02 24088   0.368E-01    0.293E-01
DAV:   9    -0.104127825595E+04    0.11193E-02   -0.12015E-02 23704   0.277E-01    0.158E-01
DAV:  10    -0.104127730751E+04    0.94844E-03   -0.28659E-03 27368   0.169E-01    0.560E-02
DAV:  11    -0.104127701762E+04    0.28989E-03   -0.11906E-03 23408   0.819E-02    0.473E-02
DAV:  12    -0.104127667092E+04    0.34670E-03   -0.16573E-04 17944   0.834E-02    0.201E-02
DAV:  13    -0.104127655453E+04    0.11639E-03   -0.43727E-04 22240   0.760E-02    0.245E-02
DAV:  14    -0.104127654787E+04    0.66622E-05   -0.19031E-04 17760   0.339E-02
   1786 T=   222. E= -.10498106E+04 F= -.10560835E+04 E0= -.10560835E+04  EK= 0.62729E+01 SP= 0.00E+00 SK= 0.00E+00
   1787 T=   226. E= -.10499214E+04 F= -.10563193E+04 E0= -.10563193E+04  EK= 0.63979E+01 SP= 0.00E+00 SK= 0.00E+00
   1788 T=   233. E= -.10499630E+04 F= -.10565498E+04 E0= -.10565498E+04  EK= 0.65868E+01 SP= 0.00E+00 SK= 0.00E+00
   1789 T=   242. E= -.10499068E+04 F= -.10567471E+04 E0= -.10567471E+04  EK= 0.68404E+01 SP= 0.00E+00 SK= 0.00E+00
   1790 T=   243. E= -.10499347E+04 F= -.10568244E+04 E0= -.10568244E+04  EK= 0.68897E+01 SP= 0.00E+00 SK= 0.00E+00
   1791 T=   241. E= -.10499899E+04 F= -.10568011E+04 E0= -.10568011E+04  EK= 0.68112E+01 SP= 0.00E+00 SK= 0.00E+00
   1792 T=   236. E= -.10500046E+04 F= -.10566747E+04 E0= -.10566747E+04  EK= 0.66701E+01 SP= 0.00E+00 SK= 0.00E+00
   1793 T=   230. E= -.10500358E+04 F= -.10565451E+04 E0= -.10565451E+04  EK= 0.65092E+01 SP= 0.00E+00 SK= 0.00E+00
   1794 T=   226. E= -.10501508E+04 F= -.10565471E+04 E0= -.10565471E+04  EK= 0.63963E+01 SP= 0.00E+00 SK= 0.00E+00
   1795 T=   231. E= -.10501844E+04 F= -.10567347E+04 E0= -.10567347E+04  EK= 0.65503E+01 SP= 0.00E+00 SK= 0.00E+00
       N       E                     dE             d eps       ncg     rms          rms(c)
DAV:   1    -0.103632814463E+04    0.49484E+01   -0.26691E+03 20644   0.957E+01
DAV:   2    -0.104284807779E+04   -0.65199E+01   -0.65183E+01 25016   0.136E+01
DAV:   3    -0.104291001068E+04   -0.61933E-01   -0.61929E-01 24936   0.137E+00
DAV:   4    -0.104291137549E+04   -0.13648E-02   -0.13647E-02 25000   0.197E-01    0.110E+01
DAV:   5    -0.104203460447E+04    0.87677E+00   -0.18390E+00 24632   0.330E+00    0.602E+00
DAV:   6    -0.104205674209E+04   -0.22138E-01   -0.13537E+00 25048   0.251E+00    0.172E+00
DAV:   7    -0.104209361186E+04   -0.36870E-01   -0.25362E-01 24424   0.116E+00    0.632E-01
DAV:   8    -0.104209241630E+04    0.11956E-02   -0.25619E-02 23600   0.361E-01    0.320E-01
DAV:   9    -0.104209066857E+04    0.17477E-02   -0.10288E-02 23880   0.248E-01    0.143E-01
DAV:  10    -0.104208948072E+04    0.11879E-02   -0.22786E-03 26936   0.169E-01    0.565E-02
DAV:  11    -0.104208919344E+04    0.28728E-03   -0.13865E-03 24312   0.887E-02    0.563E-02
DAV:  12    -0.104208885184E+04    0.34160E-03   -0.38594E-04 20912   0.728E-02    0.256E-02
DAV:  13    -0.104208873196E+04    0.11988E-03   -0.20282E-04 17480   0.574E-02    0.304E-02
DAV:  14    -0.104208870447E+04    0.27495E-04   -0.20812E-04 19008   0.408E-02
   1796 T=   242. E= -.10500193E+04 F= -.10568810E+04 E0= -.10568810E+04  EK= 0.68616E+01 SP= 0.00E+00 SK= 0.00E+00
   1797 T=   252. E= -.10500307E+04 F= -.10571576E+04 E0= -.10571576E+04  EK= 0.71269E+01 SP= 0.00E+00 SK= 0.00E+00
   1798 T=   254. E= -.10499368E+04 F= -.10571343E+04 E0= -.10571343E+04  EK= 0.71974E+01 SP= 0.00E+00 SK= 0.00E+00
   1799 T=   248. E= -.10499286E+04 F= -.10569448E+04 E0= -.10569448E+04  EK= 0.70163E+01 SP= 0.00E+00 SK= 0.00E+00
   1800 T=   239. E= -.10499260E+04 F= -.10566956E+04 E0= -.10566956E+04  EK= 0.67695E+01 SP= 0.00E+00 SK= 0.00E+00
   1801 T=   232. E= -.10499738E+04 F= -.10565460E+04 E0= -.10565460E+04  EK= 0.65722E+01 SP= 0.00E+00 SK= 0.00E+00
   1802 T=   231. E= -.10500463E+04 F= -.10565739E+04 E0= -.10565739E+04  EK= 0.65276E+01 SP= 0.00E+00 SK= 0.00E+00
   1803 T=   237. E= -.10500364E+04 F= -.10567321E+04 E0= -.10567321E+04  EK= 0.66958E+01 SP= 0.00E+00 SK= 0.00E+00
   1804 T=   241. E= -.10500723E+04 F= -.10568922E+04 E0= -.10568922E+04  EK= 0.68199E+01 SP= 0.00E+00 SK= 0.00E+00
   1805 T=   241. E= -.10501451E+04 F= -.10569668E+04 E0= -.10569668E+04  EK= 0.68216E+01 SP= 0.00E+00 SK= 0.00E+00
       N       E                     dE             d eps       ncg     rms          rms(c)
DAV:   1    -0.103574845774E+04    0.63403E+01   -0.29031E+03 20644   0.992E+01
DAV:   2    -0.104272196020E+04   -0.69735E+01   -0.69715E+01 25040   0.141E+01
DAV:   3    -0.104278849092E+04   -0.66531E-01   -0.66525E-01 24976   0.141E+00
DAV:   4    -0.104278994508E+04   -0.14542E-02   -0.14541E-02 24960   0.200E-01    0.108E+01
DAV:   5    -0.104195024037E+04    0.83970E+00   -0.15986E+00 25848   0.322E+00    0.598E+00
DAV:   6    -0.104197582667E+04   -0.25586E-01   -0.15746E+00 25016   0.266E+00    0.154E+00
DAV:   7    -0.104200588765E+04   -0.30061E-01   -0.28148E-01 24432   0.131E+00    0.601E-01
DAV:   8    -0.104200463603E+04    0.12516E-02   -0.30833E-02 23776   0.397E-01    0.325E-01
DAV:   9    -0.104200311269E+04    0.15233E-02   -0.15097E-02 23864   0.291E-01    0.195E-01
DAV:  10    -0.104200154535E+04    0.15673E-02   -0.36649E-03 29528   0.218E-01    0.610E-02
DAV:  11    -0.104200122661E+04    0.31874E-03   -0.19445E-03 23904   0.108E-01    0.613E-02
DAV:  12    -0.104200074477E+04    0.48184E-03   -0.33243E-04 20216   0.903E-02    0.212E-02
DAV:  13    -0.104200062659E+04    0.11818E-03   -0.47222E-04 22656   0.717E-02    0.337E-02
DAV:  14    -0.104200060221E+04    0.24378E-04   -0.23176E-04 18880   0.418E-02
   1806 T=   238. E= -.10501673E+04 F= -.10569118E+04 E0= -.10569118E+04  EK= 0.67444E+01 SP= 0.00E+00 SK= 0.00E+00
   1807 T=   232. E= -.10501684E+04 F= -.10567237E+04 E0= -.10567237E+04  EK= 0.65552E+01 SP= 0.00E+00 SK= 0.00E+00
   1808 T=   227. E= -.10501195E+04 F= -.10565392E+04 E0= -.10565392E+04  EK= 0.64197E+01 SP= 0.00E+00 SK= 0.00E+00
   1809 T=   227. E= -.10499902E+04 F= -.10564081E+04 E0= -.10564081E+04  EK= 0.64179E+01 SP= 0.00E+00 SK= 0.00E+00
   1810 T=   225. E= -.10499847E+04 F= -.10563647E+04 E0= -.10563647E+04  EK= 0.63800E+01 SP= 0.00E+00 SK= 0.00E+00
   1811 T=   226. E= -.10500056E+04 F= -.10564114E+04 E0= -.10564114E+04  EK= 0.64058E+01 SP= 0.00E+00 SK= 0.00E+00
   1812 T=   227. E= -.10499768E+04 F= -.10564018E+04 E0= -.10564018E+04  EK= 0.64250E+01 SP= 0.00E+00 SK= 0.00E+00
   1813 T=   222. E= -.10500485E+04 F= -.10563366E+04 E0= -.10563366E+04  EK= 0.62882E+01 SP= 0.00E+00 SK= 0.00E+00
   1814 T=   214. E= -.10501576E+04 F= -.10562151E+04 E0= -.10562151E+04  EK= 0.60575E+01 SP= 0.00E+00 SK= 0.00E+00
   1815 T=   206. E= -.10502161E+04 F= -.10560470E+04 E0= -.10560470E+04  EK= 0.58309E+01 SP= 0.00E+00 SK= 0.00E+00
       N       E                     dE             d eps       ncg     rms          rms(c)
DAV:   1    -0.103554697258E+04    0.64537E+01   -0.25714E+03 20644   0.936E+01
DAV:   2    -0.104180709171E+04   -0.62601E+01   -0.62584E+01 25008   0.134E+01
DAV:   3    -0.104186641911E+04   -0.59327E-01   -0.59323E-01 25000   0.134E+00
DAV:   4    -0.104186769065E+04   -0.12715E-02   -0.12715E-02 24976   0.191E-01    0.108E+01
DAV:   5    -0.104092852391E+04    0.93917E+00   -0.19985E+00 25208   0.327E+00    0.589E+00
DAV:   6    -0.104092511874E+04    0.34052E-02   -0.13144E+00 25000   0.238E+00    0.175E+00
DAV:   7    -0.104096264300E+04   -0.37524E-01   -0.25756E-01 24760   0.122E+00    0.631E-01
DAV:   8    -0.104096228258E+04    0.36042E-03   -0.28900E-02 23888   0.373E-01    0.346E-01
DAV:   9    -0.104096035889E+04    0.19237E-02   -0.12063E-02 23864   0.265E-01    0.156E-01
DAV:  10    -0.104095897795E+04    0.13809E-02   -0.23164E-03 27496   0.188E-01    0.719E-02
DAV:  11    -0.104095855213E+04    0.42581E-03   -0.23569E-03 24184   0.125E-01    0.708E-02
DAV:  12    -0.104095808649E+04    0.46564E-03   -0.49731E-04 22624   0.857E-02    0.247E-02
DAV:  13    -0.104095787864E+04    0.20785E-03   -0.28195E-04 19656   0.772E-02    0.320E-02
DAV:  14    -0.104095784598E+04    0.32651E-04   -0.31019E-04 21912   0.530E-02
   1816 T=   203. E= -.10502033E+04 F= -.10559487E+04 E0= -.10559487E+04  EK= 0.57454E+01 SP= 0.00E+00 SK= 0.00E+00
   1817 T=   204. E= -.10500830E+04 F= -.10558709E+04 E0= -.10558709E+04  EK= 0.57878E+01 SP= 0.00E+00 SK= 0.00E+00
   1818 T=   206. E= -.10500752E+04 F= -.10559136E+04 E0= -.10559136E+04  EK= 0.58385E+01 SP= 0.00E+00 SK= 0.00E+00
   1819 T=   211. E= -.10500488E+04 F= -.10560097E+04 E0= -.10560097E+04  EK= 0.59609E+01 SP= 0.00E+00 SK= 0.00E+00
   1820 T=   217. E= -.10499918E+04 F= -.10561223E+04 E0= -.10561223E+04  EK= 0.61306E+01 SP= 0.00E+00 SK= 0.00E+00
   1821 T=   216. E= -.10500893E+04 F= -.10562059E+04 E0= -.10562059E+04  EK= 0.61167E+01 SP= 0.00E+00 SK= 0.00E+00
   1822 T=   217. E= -.10501175E+04 F= -.10562662E+04 E0= -.10562662E+04  EK= 0.61486E+01 SP= 0.00E+00 SK= 0.00E+00
   1823 T=   220. E= -.10500519E+04 F= -.10562933E+04 E0= -.10562933E+04  EK= 0.62414E+01 SP= 0.00E+00 SK= 0.00E+00
   1824 T=   222. E= -.10500320E+04 F= -.10563031E+04 E0= -.10563031E+04  EK= 0.62710E+01 SP= 0.00E+00 SK= 0.00E+00
   1825 T=   221. E= -.10500762E+04 F= -.10563430E+04 E0= -.10563430E+04  EK= 0.62668E+01 SP= 0.00E+00 SK= 0.00E+00
   1826 T=   219. E= -.10502111E+04 F= -.10564177E+04 E0= -.10564177E+04  EK= 0.62066E+01 SP= 0.00E+00 SK= 0.00E+00
   1827 T=   223. E= -.10502453E+04 F= -.10565708E+04 E0= -.10565708E+04  EK= 0.63254E+01 SP= 0.00E+00 SK= 0.00E+00
   1828 T=   230. E= -.10501879E+04 F= -.10567031E+04 E0= -.10567031E+04  EK= 0.65153E+01 SP= 0.00E+00 SK= 0.00E+00
   1829 T=   233. E= -.10501227E+04 F= -.10567302E+04 E0= -.10567302E+04  EK= 0.66075E+01 SP= 0.00E+00 SK= 0.00E+00
   1830 T=   235. E= -.10500464E+04 F= -.10567026E+04 E0= -.10567026E+04  EK= 0.66562E+01 SP= 0.00E+00 SK= 0.00E+00
   1831 T=   234. E= -.10500752E+04 F= -.10567061E+04 E0= -.10567061E+04  EK= 0.66309E+01 SP= 0.00E+00 SK= 0.00E+00
   1832 T=   234. E= -.10501098E+04 F= -.10567409E+04 E0= -.10567409E+04  EK= 0.66311E+01 SP= 0.00E+00 SK= 0.00E+00
   1833 T=   240. E= -.10500679E+04 F= -.10568677E+04 E0= -.10568677E+04  EK= 0.67997E+01 SP= 0.00E+00 SK= 0.00E+00
   1834 T=   245. E= -.10500944E+04 F= -.10570208E+04 E0= -.10570208E+04  EK= 0.69264E+01 SP= 0.00E+00 SK= 0.00E+00
   1835 T=   249. E= -.10500777E+04 F= -.10571165E+04 E0= -.10571165E+04  EK= 0.70388E+01 SP= 0.00E+00 SK= 0.00E+00
   1836 T=   251. E= -.10500046E+04 F= -.10571005E+04 E0= -.10571005E+04  EK= 0.70959E+01 SP= 0.00E+00 SK= 0.00E+00
   1837 T=   248. E= -.10500262E+04 F= -.10570381E+04 E0= -.10570381E+04  EK= 0.70118E+01 SP= 0.00E+00 SK= 0.00E+00
   1838 T=   242. E= -.10501038E+04 F= -.10569405E+04 E0= -.10569405E+04  EK= 0.68367E+01 SP= 0.00E+00 SK= 0.00E+00
   1839 T=   240. E= -.10501263E+04 F= -.10569157E+04 E0= -.10569157E+04  EK= 0.67894E+01 SP= 0.00E+00 SK= 0.00E+00
   1840 T=   242. E= -.10501281E+04 F= -.10569684E+04 E0= -.10569684E+04  EK= 0.68403E+01 SP= 0.00E+00 SK= 0.00E+00
   1841 T=   243. E= -.10501931E+04 F= -.10570655E+04 E0= -.10570655E+04  EK= 0.68725E+01 SP= 0.00E+00 SK= 0.00E+00
   1842 T=   244. E= -.10502768E+04 F= -.10571880E+04 E0= -.10571880E+04  EK= 0.69112E+01 SP= 0.00E+00 SK= 0.00E+00
   1843 T=   246. E= -.10502501E+04 F= -.10572212E+04 E0= -.10572212E+04  EK= 0.69712E+01 SP= 0.00E+00 SK= 0.00E+00
   1844 T=   244. E= -.10502215E+04 F= -.10571146E+04 E0= -.10571146E+04  EK= 0.68931E+01 SP= 0.00E+00 SK= 0.00E+00
   1845 T=   239. E= -.10501980E+04 F= -.10569519E+04 E0= -.10569519E+04  EK= 0.67539E+01 SP= 0.00E+00 SK= 0.00E+00
   1846 T=   238. E= -.10501008E+04 F= -.10568497E+04 E0= -.10568497E+04  EK= 0.67489E+01 SP= 0.00E+00 SK= 0.00E+00
   1847 T=   237. E= -.10501578E+04 F= -.10568685E+04 E0= -.10568685E+04  EK= 0.67107E+01 SP= 0.00E+00 SK= 0.00E+00
   1848 T=   235. E= -.10502960E+04 F= -.10569586E+04 E0= -.10569586E+04  EK= 0.66626E+01 SP= 0.00E+00 SK= 0.00E+00
   1849 T=   235. E= -.10503535E+04 F= -.10570165E+04 E0= -.10570165E+04  EK= 0.66630E+01 SP= 0.00E+00 SK= 0.00E+00
   1850 T=   232. E= -.10504208E+04 F= -.10569954E+04 E0= -.10569954E+04  EK= 0.65746E+01 SP= 0.00E+00 SK= 0.00E+00
   1851 T=   230. E= -.10504122E+04 F= -.10569139E+04 E0= -.10569139E+04  EK= 0.65017E+01 SP= 0.00E+00 SK= 0.00E+00
   1852 T=   230. E= -.10503253E+04 F= -.10568440E+04 E0= -.10568440E+04  EK= 0.65187E+01 SP= 0.00E+00 SK= 0.00E+00
   1853 T=   229. E= -.10503264E+04 F= -.10568136E+04 E0= -.10568136E+04  EK= 0.64872E+01 SP= 0.00E+00 SK= 0.00E+00
       N       E                     dE             d eps       ncg     rms          rms(c)
DAV:   1    -0.883845325731E+03    0.15711E+03   -0.23902E+04 20644   0.277E+02
DAV:   2    -0.104779706595E+04   -0.16395E+03   -0.16323E+03 24544   0.632E+01
DAV:   3    -0.105020062414E+04   -0.24036E+01   -0.24028E+01 24784   0.835E+00
DAV:   4    -0.105024059699E+04   -0.39973E-01   -0.39967E-01 24816   0.104E+00    0.287E+01
DAV:   5    -0.104175541515E+04    0.84852E+01   -0.14181E+01 25160   0.848E+00    0.158E+01
DAV:   6    -0.104093451154E+04    0.82090E+00   -0.12185E+01 25160   0.728E+00    0.421E+00
DAV:   7    -0.104124462487E+04   -0.31011E+00   -0.21478E+00 24512   0.316E+00    0.192E+00
DAV:   8    -0.104125584691E+04   -0.11222E-01   -0.20828E-01 23936   0.912E-01    0.100E+00
DAV:   9    -0.104124856848E+04    0.72784E-02   -0.58223E-02 23904   0.666E-01    0.431E-01
DAV:  10    -0.104124306059E+04    0.55079E-02   -0.14484E-02 23888   0.415E-01    0.214E-01
DAV:  11    -0.104124093551E+04    0.21251E-02   -0.16560E-02 24744   0.331E-01    0.167E-01
DAV:  12    -0.104123857578E+04    0.23597E-02   -0.42141E-03 24016   0.207E-01    0.661E-02
DAV:  13    -0.104123725571E+04    0.13201E-02   -0.13988E-03 23680   0.170E-01    0.710E-02
DAV:  14    -0.104123697142E+04    0.28428E-03   -0.15340E-03 24712   0.130E-01    0.293E-02
DAV:  15    -0.104123701611E+04   -0.44690E-04   -0.75220E-04 24336   0.519E-02
   1854 T=   225. E= -.10503600E+04 F= -.10567179E+04 E0= -.10567179E+04  EK= 0.63578E+01 SP= 0.00E+00 SK= 0.00E+00
   1855 T=   220. E= -.10504651E+04 F= -.10566986E+04 E0= -.10566986E+04  EK= 0.62335E+01 SP= 0.00E+00 SK= 0.00E+00
   1856 T=   218. E= -.10504648E+04 F= -.10566351E+04 E0= -.10566351E+04  EK= 0.61703E+01 SP= 0.00E+00 SK= 0.00E+00
   1857 T=   220. E= -.10503920E+04 F= -.10566153E+04 E0= -.10566153E+04  EK= 0.62233E+01 SP= 0.00E+00 SK= 0.00E+00
   1858 T=   224. E= -.10502831E+04 F= -.10566319E+04 E0= -.10566319E+04  EK= 0.63488E+01 SP= 0.00E+00 SK= 0.00E+00
   1859 T=   228. E= -.10501977E+04 F= -.10566499E+04 E0= -.10566499E+04  EK= 0.64522E+01 SP= 0.00E+00 SK= 0.00E+00
   1860 T=   232. E= -.10501423E+04 F= -.10567065E+04 E0= -.10567065E+04  EK= 0.65642E+01 SP= 0.00E+00 SK= 0.00E+00
   1861 T=   235. E= -.10501441E+04 F= -.10567824E+04 E0= -.10567824E+04  EK= 0.66384E+01 SP= 0.00E+00 SK= 0.00E+00
   1862 T=   232. E= -.10502666E+04 F= -.10568291E+04 E0= -.10568291E+04  EK= 0.65624E+01 SP= 0.00E+00 SK= 0.00E+00
   1863 T=   230. E= -.10503396E+04 F= -.10568456E+04 E0= -.10568456E+04  EK= 0.65061E+01 SP= 0.00E+00 SK= 0.00E+00
       N       E                     dE             d eps       ncg     rms          rms(c)
DAV:   1    -0.103506660026E+04    0.61704E+01   -0.28384E+03 20644   0.982E+01
DAV:   2    -0.104223759950E+04   -0.71710E+01   -0.71693E+01 25072   0.143E+01
DAV:   3    -0.104230333569E+04   -0.65736E-01   -0.65732E-01 25008   0.140E+00
DAV:   4    -0.104230473058E+04   -0.13949E-02   -0.13948E-02 25056   0.198E-01    0.112E+01
DAV:   5    -0.104122029165E+04    0.10844E+01   -0.24890E+00 25440   0.369E+00    0.594E+00
DAV:   6    -0.104121987804E+04    0.41361E-03   -0.13679E+00 25056   0.248E+00    0.199E+00
DAV:   7    -0.104126271968E+04   -0.42842E-01   -0.25439E-01 24824   0.118E+00    0.657E-01
DAV:   8    -0.104126355093E+04   -0.83124E-03   -0.25669E-02 23760   0.359E-01    0.330E-01
DAV:   9    -0.104126237512E+04    0.11758E-02   -0.10227E-02 23816   0.246E-01    0.135E-01
DAV:  10    -0.104126158547E+04    0.78965E-03   -0.21357E-03 27848   0.157E-01    0.571E-02
DAV:  11    -0.104126137882E+04    0.20665E-03   -0.11897E-03 23856   0.817E-02    0.513E-02
DAV:  12    -0.104126111756E+04    0.26126E-03   -0.21763E-04 18368   0.634E-02    0.185E-02
DAV:  13    -0.104126102716E+04    0.90399E-04   -0.23546E-04 18488   0.536E-02
   1864 T=   231. E= -.10503067E+04 F= -.10568529E+04 E0= -.10568529E+04  EK= 0.65462E+01 SP= 0.00E+00 SK= 0.00E+00
   1865 T=   232. E= -.10502714E+04 F= -.10568502E+04 E0= -.10568502E+04  EK= 0.65788E+01 SP= 0.00E+00 SK= 0.00E+00
   1866 T=   234. E= -.10502504E+04 F= -.10568613E+04 E0= -.10568613E+04  EK= 0.66110E+01 SP= 0.00E+00 SK= 0.00E+00
   1867 T=   238. E= -.10501775E+04 F= -.10569151E+04 E0= -.10569151E+04  EK= 0.67376E+01 SP= 0.00E+00 SK= 0.00E+00
   1868 T=   242. E= -.10501392E+04 F= -.10569918E+04 E0= -.10569918E+04  EK= 0.68526E+01 SP= 0.00E+00 SK= 0.00E+00
   1869 T=   244. E= -.10501555E+04 F= -.10570720E+04 E0= -.10570720E+04  EK= 0.69165E+01 SP= 0.00E+00 SK= 0.00E+00
   1870 T=   245. E= -.10501387E+04 F= -.10570875E+04 E0= -.10570875E+04  EK= 0.69488E+01 SP= 0.00E+00 SK= 0.00E+00
   1871 T=   241. E= -.10502163E+04 F= -.10570435E+04 E0= -.10570435E+04  EK= 0.68272E+01 SP= 0.00E+00 SK= 0.00E+00
   1872 T=   237. E= -.10502738E+04 F= -.10569812E+04 E0= -.10569812E+04  EK= 0.67074E+01 SP= 0.00E+00 SK= 0.00E+00
   1873 T=   236. E= -.10502207E+04 F= -.10568964E+04 E0= -.10568964E+04  EK= 0.66757E+01 SP= 0.00E+00 SK= 0.00E+00
       N       E                     dE             d eps       ncg     rms          rms(c)
DAV:   1    -0.103408134701E+04    0.71798E+01   -0.31855E+03 20644   0.104E+02
DAV:   2    -0.104226904886E+04   -0.81877E+01   -0.81855E+01 24960   0.153E+01
DAV:   3    -0.104234477908E+04   -0.75730E-01   -0.75725E-01 24984   0.151E+00
DAV:   4    -0.104234637115E+04   -0.15921E-02   -0.15920E-02 25016   0.213E-01    0.115E+01
DAV:   5    -0.104121467068E+04    0.11317E+01   -0.21675E+00 25416   0.369E+00    0.621E+00
DAV:   6    -0.104118594817E+04    0.28723E-01   -0.16967E+00 25072   0.281E+00    0.182E+00
DAV:   7    -0.104121907493E+04   -0.33127E-01   -0.30266E-01 24824   0.136E+00    0.680E-01
DAV:   8    -0.104121899908E+04    0.75851E-04   -0.37941E-02 24256   0.414E-01    0.367E-01
DAV:   9    -0.104121575626E+04    0.32428E-02   -0.12138E-02 24208   0.300E-01    0.174E-01
DAV:  10    -0.104121350857E+04    0.22477E-02   -0.27635E-03 26600   0.230E-01    0.793E-02
DAV:  11    -0.104121285727E+04    0.65129E-03   -0.35969E-03 24512   0.164E-01    0.862E-02
DAV:  12    -0.104121220599E+04    0.65129E-03   -0.14270E-03 23376   0.127E-01    0.511E-02
DAV:  13    -0.104121197800E+04    0.22799E-03   -0.39257E-04 22760   0.846E-02    0.466E-02
DAV:  14    -0.104121194235E+04    0.35646E-04   -0.56684E-04 24616   0.607E-02
   1874 T=   234. E= -.10502381E+04 F= -.10568618E+04 E0= -.10568618E+04  EK= 0.66237E+01 SP= 0.00E+00 SK= 0.00E+00
   1875 T=   232. E= -.10502597E+04 F= -.10568292E+04 E0= -.10568292E+04  EK= 0.65695E+01 SP= 0.00E+00 SK= 0.00E+00
   1876 T=   234. E= -.10502293E+04 F= -.10568439E+04 E0= -.10568439E+04  EK= 0.66146E+01 SP= 0.00E+00 SK= 0.00E+00
   1877 T=   236. E= -.10502198E+04 F= -.10569057E+04 E0= -.10569057E+04  EK= 0.66859E+01 SP= 0.00E+00 SK= 0.00E+00
   1878 T=   241. E= -.10501769E+04 F= -.10569969E+04 E0= -.10569969E+04  EK= 0.68200E+01 SP= 0.00E+00 SK= 0.00E+00
   1879 T=   241. E= -.10501849E+04 F= -.10570193E+04 E0= -.10570193E+04  EK= 0.68343E+01 SP= 0.00E+00 SK= 0.00E+00
   1880 T=   238. E= -.10502433E+04 F= -.10569832E+04 E0= -.10569832E+04  EK= 0.67399E+01 SP= 0.00E+00 SK= 0.00E+00
   1881 T=   237. E= -.10502482E+04 F= -.10569454E+04 E0= -.10569454E+04  EK= 0.66972E+01 SP= 0.00E+00 SK= 0.00E+00
   1882 T=   235. E= -.10502921E+04 F= -.10569308E+04 E0= -.10569308E+04  EK= 0.66387E+01 SP= 0.00E+00 SK= 0.00E+00
   1883 T=   233. E= -.10503360E+04 F= -.10569208E+04 E0= -.10569208E+04  EK= 0.65848E+01 SP= 0.00E+00 SK= 0.00E+00
   1884 T=   232. E= -.10503493E+04 F= -.10569096E+04 E0= -.10569096E+04  EK= 0.65603E+01 SP= 0.00E+00 SK= 0.00E+00
   1885 T=   232. E= -.10503397E+04 F= -.10569116E+04 E0= -.10569116E+04  EK= 0.65718E+01 SP= 0.00E+00 SK= 0.00E+00
   1886 T=   232. E= -.10503524E+04 F= -.10569183E+04 E0= -.10569183E+04  EK= 0.65659E+01 SP= 0.00E+00 SK= 0.00E+00
   1887 T=   234. E= -.10503777E+04 F= -.10569915E+04 E0= -.10569915E+04  EK= 0.66137E+01 SP= 0.00E+00 SK= 0.00E+00
   1888 T=   238. E= -.10503423E+04 F= -.10570884E+04 E0= -.10570884E+04  EK= 0.67461E+01 SP= 0.00E+00 SK= 0.00E+00
   1889 T=   241. E= -.10503406E+04 F= -.10571602E+04 E0= -.10571602E+04  EK= 0.68196E+01 SP= 0.00E+00 SK= 0.00E+00
   1890 T=   240. E= -.10503967E+04 F= -.10571871E+04 E0= -.10571871E+04  EK= 0.67905E+01 SP= 0.00E+00 SK= 0.00E+00
   1891 T=   234. E= -.10505359E+04 F= -.10571505E+04 E0= -.10571505E+04  EK= 0.66146E+01 SP= 0.00E+00 SK= 0.00E+00
   1892 T=   228. E= -.10506903E+04 F= -.10571524E+04 E0= -.10571524E+04  EK= 0.64621E+01 SP= 0.00E+00 SK= 0.00E+00
   1893 T=   227. E= -.10507590E+04 F= -.10571936E+04 E0= -.10571936E+04  EK= 0.64346E+01 SP= 0.00E+00 SK= 0.00E+00
   1894 T=   230. E= -.10508198E+04 F= -.10573316E+04 E0= -.10573316E+04  EK= 0.65118E+01 SP= 0.00E+00 SK= 0.00E+00
   1895 T=   235. E= -.10508691E+04 F= -.10575114E+04 E0= -.10575114E+04  EK= 0.66423E+01 SP= 0.00E+00 SK= 0.00E+00
   1896 T=   242. E= -.10507574E+04 F= -.10576077E+04 E0= -.10576077E+04  EK= 0.68503E+01 SP= 0.00E+00 SK= 0.00E+00
   1897 T=   243. E= -.10506471E+04 F= -.10575347E+04 E0= -.10575347E+04  EK= 0.68876E+01 SP= 0.00E+00 SK= 0.00E+00
   1898 T=   238. E= -.10505806E+04 F= -.10573210E+04 E0= -.10573210E+04  EK= 0.67404E+01 SP= 0.00E+00 SK= 0.00E+00
       N       E                     dE             d eps       ncg     rms          rms(c)
DAV:   1    -0.978463187938E+03    0.62749E+02   -0.13920E+04 20644   0.213E+02
DAV:   2    -0.104460313652E+04   -0.66140E+02   -0.66093E+02 24736   0.413E+01
DAV:   3    -0.104530227539E+04   -0.69914E+00   -0.69902E+00 24936   0.459E+00
DAV:   4    -0.104531473052E+04   -0.12455E-01   -0.12454E-01 24864   0.605E-01    0.216E+01
DAV:   5    -0.104162469378E+04    0.36900E+01   -0.55452E+00 24976   0.564E+00    0.123E+01
DAV:   6    -0.104136137514E+04    0.26332E+00   -0.68820E+00 25136   0.557E+00    0.260E+00
DAV:   7    -0.104147554446E+04   -0.11417E+00   -0.11542E+00 24408   0.242E+00    0.121E+00
DAV:   8    -0.104147829261E+04   -0.27482E-02   -0.11709E-01 24512   0.685E-01    0.668E-01
DAV:   9    -0.104147501341E+04    0.32792E-02   -0.45949E-02 24392   0.570E-01    0.367E-01
DAV:  10    -0.104147107190E+04    0.39415E-02   -0.11061E-02 26720   0.362E-01    0.129E-01
DAV:  11    -0.104147045020E+04    0.62171E-03   -0.78917E-03 24664   0.208E-01    0.110E-01
DAV:  12    -0.104146940203E+04    0.10482E-02   -0.13835E-03 23504   0.135E-01    0.401E-02
DAV:  13    -0.104146895431E+04    0.44772E-03   -0.73248E-04 22856   0.124E-01    0.558E-02
DAV:  14    -0.104146884133E+04    0.11298E-03   -0.78014E-04 24728   0.894E-02    0.264E-02
DAV:  15    -0.104146885466E+04   -0.13332E-04   -0.23771E-04 18400   0.291E-02
   1899 T=   232. E= -.10505223E+04 F= -.10570772E+04 E0= -.10570772E+04  EK= 0.65549E+01 SP= 0.00E+00 SK= 0.00E+00
   1900 T=   229. E= -.10505873E+04 F= -.10570631E+04 E0= -.10570631E+04  EK= 0.64758E+01 SP= 0.00E+00 SK= 0.00E+00
   1901 T=   232. E= -.10505962E+04 F= -.10571560E+04 E0= -.10571560E+04  EK= 0.65599E+01 SP= 0.00E+00 SK= 0.00E+00
   1902 T=   237. E= -.10506164E+04 F= -.10573264E+04 E0= -.10573264E+04  EK= 0.67099E+01 SP= 0.00E+00 SK= 0.00E+00
   1903 T=   240. E= -.10506654E+04 F= -.10574578E+04 E0= -.10574578E+04  EK= 0.67924E+01 SP= 0.00E+00 SK= 0.00E+00
   1904 T=   238. E= -.10507685E+04 F= -.10574942E+04 E0= -.10574942E+04  EK= 0.67258E+01 SP= 0.00E+00 SK= 0.00E+00
   1905 T=   234. E= -.10508379E+04 F= -.10574688E+04 E0= -.10574688E+04  EK= 0.66309E+01 SP= 0.00E+00 SK= 0.00E+00
   1906 T=   232. E= -.10508057E+04 F= -.10573732E+04 E0= -.10573732E+04  EK= 0.65675E+01 SP= 0.00E+00 SK= 0.00E+00
   1907 T=   230. E= -.10507755E+04 F= -.10572987E+04 E0= -.10572987E+04  EK= 0.65232E+01 SP= 0.00E+00 SK= 0.00E+00
   1908 T=   230. E= -.10507902E+04 F= -.10572907E+04 E0= -.10572907E+04  EK= 0.65004E+01 SP= 0.00E+00 SK= 0.00E+00
   1909 T=   230. E= -.10508456E+04 F= -.10573706E+04 E0= -.10573706E+04  EK= 0.65250E+01 SP= 0.00E+00 SK= 0.00E+00
   1910 T=   234. E= -.10508807E+04 F= -.10575027E+04 E0= -.10575027E+04  EK= 0.66220E+01 SP= 0.00E+00 SK= 0.00E+00
   1911 T=   237. E= -.10509270E+04 F= -.10576404E+04 E0= -.10576404E+04  EK= 0.67134E+01 SP= 0.00E+00 SK= 0.00E+00
   1912 T=   239. E= -.10510007E+04 F= -.10577538E+04 E0= -.10577538E+04  EK= 0.67531E+01 SP= 0.00E+00 SK= 0.00E+00
   1913 T=   238. E= -.10511134E+04 F= -.10578387E+04 E0= -.10578387E+04  EK= 0.67252E+01 SP= 0.00E+00 SK= 0.00E+00
   1914 T=   238. E= -.10511675E+04 F= -.10579027E+04 E0= -.10579027E+04  EK= 0.67352E+01 SP= 0.00E+00 SK= 0.00E+00
   1915 T=   239. E= -.10511406E+04 F= -.10578942E+04 E0= -.10578942E+04  EK= 0.67535E+01 SP= 0.00E+00 SK= 0.00E+00
   1916 T=   237. E= -.10511347E+04 F= -.10578366E+04 E0= -.10578366E+04  EK= 0.67020E+01 SP= 0.00E+00 SK= 0.00E+00
   1917 T=   235. E= -.10511335E+04 F= -.10577983E+04 E0= -.10577983E+04  EK= 0.66649E+01 SP= 0.00E+00 SK= 0.00E+00
   1918 T=   236. E= -.10510808E+04 F= -.10577529E+04 E0= -.10577529E+04  EK= 0.66722E+01 SP= 0.00E+00 SK= 0.00E+00
   1919 T=   236. E= -.10510604E+04 F= -.10577285E+04 E0= -.10577285E+04  EK= 0.66681E+01 SP= 0.00E+00 SK= 0.00E+00
   1920 T=   235. E= -.10511006E+04 F= -.10577515E+04 E0= -.10577515E+04  EK= 0.66510E+01 SP= 0.00E+00 SK= 0.00E+00
   1921 T=   234. E= -.10511410E+04 F= -.10577517E+04 E0= -.10577517E+04  EK= 0.66107E+01 SP= 0.00E+00 SK= 0.00E+00
   1922 T=   232. E= -.10511639E+04 F= -.10577404E+04 E0= -.10577404E+04  EK= 0.65766E+01 SP= 0.00E+00 SK= 0.00E+00
   1923 T=   232. E= -.10511124E+04 F= -.10576833E+04 E0= -.10576833E+04  EK= 0.65708E+01 SP= 0.00E+00 SK= 0.00E+00
   1924 T=   231. E= -.10510369E+04 F= -.10575759E+04 E0= -.10575759E+04  EK= 0.65391E+01 SP= 0.00E+00 SK= 0.00E+00
   1925 T=   226. E= -.10510001E+04 F= -.10574096E+04 E0= -.10574096E+04  EK= 0.64094E+01 SP= 0.00E+00 SK= 0.00E+00
   1926 T=   224. E= -.10509397E+04 F= -.10572741E+04 E0= -.10572741E+04  EK= 0.63344E+01 SP= 0.00E+00 SK= 0.00E+00
   1927 T=   226. E= -.10508630E+04 F= -.10572594E+04 E0= -.10572594E+04  EK= 0.63963E+01 SP= 0.00E+00 SK= 0.00E+00
   1928 T=   229. E= -.10508380E+04 F= -.10573335E+04 E0= -.10573335E+04  EK= 0.64955E+01 SP= 0.00E+00 SK= 0.00E+00
   1929 T=   231. E= -.10508110E+04 F= -.10573419E+04 E0= -.10573419E+04  EK= 0.65309E+01 SP= 0.00E+00 SK= 0.00E+00
   1930 T=   227. E= -.10508062E+04 F= -.10572440E+04 E0= -.10572440E+04  EK= 0.64378E+01 SP= 0.00E+00 SK= 0.00E+00
   1931 T=   219. E= -.10508662E+04 F= -.10570686E+04 E0= -.10570686E+04  EK= 0.62025E+01 SP= 0.00E+00 SK= 0.00E+00
   1932 T=   214. E= -.10508794E+04 F= -.10569415E+04 E0= -.10569415E+04  EK= 0.60622E+01 SP= 0.00E+00 SK= 0.00E+00
   1933 T=   214. E= -.10508425E+04 F= -.10569126E+04 E0= -.10569126E+04  EK= 0.60701E+01 SP= 0.00E+00 SK= 0.00E+00
   1934 T=   219. E= -.10507799E+04 F= -.10569776E+04 E0= -.10569776E+04  EK= 0.61976E+01 SP= 0.00E+00 SK= 0.00E+00
   1935 T=   222. E= -.10507625E+04 F= -.10570602E+04 E0= -.10570602E+04  EK= 0.62977E+01 SP= 0.00E+00 SK= 0.00E+00
   1936 T=   224. E= -.10507075E+04 F= -.10570617E+04 E0= -.10570617E+04  EK= 0.63542E+01 SP= 0.00E+00 SK= 0.00E+00
   1937 T=   226. E= -.10506662E+04 F= -.10570557E+04 E0= -.10570557E+04  EK= 0.63895E+01 SP= 0.00E+00 SK= 0.00E+00
   1938 T=   231. E= -.10505563E+04 F= -.10571002E+04 E0= -.10571002E+04  EK= 0.65439E+01 SP= 0.00E+00 SK= 0.00E+00
   1939 T=   236. E= -.10504335E+04 F= -.10571211E+04 E0= -.10571211E+04  EK= 0.66876E+01 SP= 0.00E+00 SK= 0.00E+00
   1940 T=   234. E= -.10504617E+04 F= -.10570985E+04 E0= -.10570985E+04  EK= 0.66368E+01 SP= 0.00E+00 SK= 0.00E+00
   1941 T=   234. E= -.10504827E+04 F= -.10570964E+04 E0= -.10570964E+04  EK= 0.66138E+01 SP= 0.00E+00 SK= 0.00E+00
   1942 T=   235. E= -.10504819E+04 F= -.10571342E+04 E0= -.10571342E+04  EK= 0.66523E+01 SP= 0.00E+00 SK= 0.00E+00
   1943 T=   236. E= -.10505092E+04 F= -.10571972E+04 E0= -.10571972E+04  EK= 0.66880E+01 SP= 0.00E+00 SK= 0.00E+00
   1944 T=   237. E= -.10505339E+04 F= -.10572399E+04 E0= -.10572399E+04  EK= 0.67059E+01 SP= 0.00E+00 SK= 0.00E+00
   1945 T=   234. E= -.10505683E+04 F= -.10571871E+04 E0= -.10571871E+04  EK= 0.66188E+01 SP= 0.00E+00 SK= 0.00E+00
   1946 T=   229. E= -.10505861E+04 F= -.10570686E+04 E0= -.10570686E+04  EK= 0.64825E+01 SP= 0.00E+00 SK= 0.00E+00
   1947 T=   227. E= -.10505383E+04 F= -.10569719E+04 E0= -.10569719E+04  EK= 0.64336E+01 SP= 0.00E+00 SK= 0.00E+00
   1948 T=   230. E= -.10504349E+04 F= -.10569587E+04 E0= -.10569587E+04  EK= 0.65239E+01 SP= 0.00E+00 SK= 0.00E+00
   1949 T=   232. E= -.10504169E+04 F= -.10569775E+04 E0= -.10569775E+04  EK= 0.65606E+01 SP= 0.00E+00 SK= 0.00E+00
   1950 T=   232. E= -.10504069E+04 F= -.10569822E+04 E0= -.10569822E+04  EK= 0.65753E+01 SP= 0.00E+00 SK= 0.00E+00
   1951 T=   229. E= -.10504573E+04 F= -.10569353E+04 E0= -.10569353E+04  EK= 0.64779E+01 SP= 0.00E+00 SK= 0.00E+00
   1952 T=   223. E= -.10505144E+04 F= -.10568397E+04 E0= -.10568397E+04  EK= 0.63252E+01 SP= 0.00E+00 SK= 0.00E+00
   1953 T=   224. E= -.10503960E+04 F= -.10567359E+04 E0= -.10567359E+04  EK= 0.63399E+01 SP= 0.00E+00 SK= 0.00E+00
   1954 T=   225. E= -.10503091E+04 F= -.10566759E+04 E0= -.10566759E+04  EK= 0.63668E+01 SP= 0.00E+00 SK= 0.00E+00
   1955 T=   225. E= -.10502321E+04 F= -.10565875E+04 E0= -.10565875E+04  EK= 0.63554E+01 SP= 0.00E+00 SK= 0.00E+00
   1956 T=   223. E= -.10501825E+04 F= -.10565019E+04 E0= -.10565019E+04  EK= 0.63194E+01 SP= 0.00E+00 SK= 0.00E+00
   1957 T=   222. E= -.10501669E+04 F= -.10564539E+04 E0= -.10564539E+04  EK= 0.62870E+01 SP= 0.00E+00 SK= 0.00E+00
       N       E                     dE             d eps       ncg     rms          rms(c)
DAV:   1    -0.808490249888E+03    0.23298E+03   -0.30144E+04 20644   0.305E+02
DAV:   2    -0.104344837697E+04   -0.23496E+03   -0.23421E+03 24568   0.761E+01
DAV:   3    -0.104699167725E+04   -0.35433E+01   -0.35420E+01 25000   0.104E+01
DAV:   4    -0.104705008199E+04   -0.58405E-01   -0.58394E-01 24736   0.129E+00    0.311E+01
DAV:   5    -0.104066290546E+04    0.63872E+01   -0.16380E+01 24784   0.801E+00    0.174E+01
DAV:   6    -0.104068534224E+04   -0.22437E-01   -0.86436E+00 24936   0.618E+00    0.523E+00
DAV:   7    -0.104109402771E+04   -0.40869E+00   -0.17472E+00 24744   0.288E+00    0.169E+00
DAV:   8    -0.104109362270E+04    0.40501E-03   -0.15389E-01 24200   0.846E-01    0.780E-01
DAV:   9    -0.104109119431E+04    0.24284E-02   -0.44856E-02 24184   0.485E-01    0.259E-01
DAV:  10    -0.104108937961E+04    0.18147E-02   -0.79848E-03 24784   0.271E-01    0.136E-01
DAV:  11    -0.104108848025E+04    0.89936E-03   -0.52558E-03 24192   0.183E-01    0.104E-01
DAV:  12    -0.104108757889E+04    0.90136E-03   -0.14216E-03 25160   0.137E-01    0.517E-02
DAV:  13    -0.104108710416E+04    0.47473E-03   -0.73700E-04 23136   0.112E-01    0.540E-02
DAV:  14    -0.104108703195E+04    0.72206E-04   -0.79006E-04 24528   0.744E-02
   1958 T=   226. E= -.10501059E+04 F= -.10565030E+04 E0= -.10565030E+04  EK= 0.63971E+01 SP= 0.00E+00 SK= 0.00E+00
   1959 T=   227. E= -.10501553E+04 F= -.10565864E+04 E0= -.10565864E+04  EK= 0.64311E+01 SP= 0.00E+00 SK= 0.00E+00
   1960 T=   226. E= -.10502665E+04 F= -.10566532E+04 E0= -.10566532E+04  EK= 0.63867E+01 SP= 0.00E+00 SK= 0.00E+00
   1961 T=   227. E= -.10502645E+04 F= -.10566767E+04 E0= -.10566767E+04  EK= 0.64123E+01 SP= 0.00E+00 SK= 0.00E+00
   1962 T=   227. E= -.10502602E+04 F= -.10566768E+04 E0= -.10566768E+04  EK= 0.64166E+01 SP= 0.00E+00 SK= 0.00E+00
   1963 T=   225. E= -.10503460E+04 F= -.10567246E+04 E0= -.10567246E+04  EK= 0.63787E+01 SP= 0.00E+00 SK= 0.00E+00
   1964 T=   230. E= -.10503900E+04 F= -.10568905E+04 E0= -.10568905E+04  EK= 0.65005E+01 SP= 0.00E+00 SK= 0.00E+00
   1965 T=   238. E= -.10503556E+04 F= -.10571042E+04 E0= -.10571042E+04  EK= 0.67486E+01 SP= 0.00E+00 SK= 0.00E+00
   1966 T=   240. E= -.10504416E+04 F= -.10572219E+04 E0= -.10572219E+04  EK= 0.67803E+01 SP= 0.00E+00 SK= 0.00E+00
   1967 T=   236. E= -.10505333E+04 F= -.10572139E+04 E0= -.10572139E+04  EK= 0.66806E+01 SP= 0.00E+00 SK= 0.00E+00
       N       E                     dE             d eps       ncg     rms          rms(c)
DAV:   1    -0.103473257391E+04    0.63545E+01   -0.30291E+03 20644   0.101E+02
DAV:   2    -0.104272003586E+04   -0.79875E+01   -0.79852E+01 25072   0.150E+01
DAV:   3    -0.104279595897E+04   -0.75923E-01   -0.75916E-01 25064   0.151E+00
DAV:   4    -0.104279761304E+04   -0.16541E-02   -0.16540E-02 25008   0.215E-01    0.110E+01
DAV:   5    -0.104174272296E+04    0.10549E+01   -0.18801E+00 25880   0.363E+00    0.602E+00
DAV:   6    -0.104169593024E+04    0.46793E-01   -0.16248E+00 25128   0.280E+00    0.171E+00
DAV:   7    -0.104172279376E+04   -0.26864E-01   -0.31158E-01 25048   0.144E+00    0.629E-01
DAV:   8    -0.104172079106E+04    0.20027E-02   -0.38468E-02 23928   0.477E-01    0.340E-01
DAV:   9    -0.104171879853E+04    0.19925E-02   -0.17333E-02 24240   0.299E-01    0.200E-01
DAV:  10    -0.104171711743E+04    0.16811E-02   -0.32673E-03 29744   0.219E-01    0.740E-02
DAV:  11    -0.104171660718E+04    0.51025E-03   -0.23197E-03 23984   0.139E-01    0.667E-02
DAV:  12    -0.104171611027E+04    0.49691E-03   -0.44107E-04 22568   0.106E-01    0.283E-02
DAV:  13    -0.104171592308E+04    0.18718E-03   -0.46271E-04 22456   0.876E-02    0.314E-02
DAV:  14    -0.104171591196E+04    0.11125E-04   -0.33077E-04 22480   0.467E-02
   1968 T=   235. E= -.10505482E+04 F= -.10571895E+04 E0= -.10571895E+04  EK= 0.66413E+01 SP= 0.00E+00 SK= 0.00E+00
   1969 T=   235. E= -.10505842E+04 F= -.10572344E+04 E0= -.10572344E+04  EK= 0.66501E+01 SP= 0.00E+00 SK= 0.00E+00
   1970 T=   235. E= -.10506633E+04 F= -.10573087E+04 E0= -.10573087E+04  EK= 0.66454E+01 SP= 0.00E+00 SK= 0.00E+00
   1971 T=   236. E= -.10507213E+04 F= -.10574138E+04 E0= -.10574138E+04  EK= 0.66924E+01 SP= 0.00E+00 SK= 0.00E+00
   1972 T=   240. E= -.10507471E+04 F= -.10575530E+04 E0= -.10575530E+04  EK= 0.68059E+01 SP= 0.00E+00 SK= 0.00E+00
   1973 T=   245. E= -.10507441E+04 F= -.10576731E+04 E0= -.10576731E+04  EK= 0.69289E+01 SP= 0.00E+00 SK= 0.00E+00
   1974 T=   251. E= -.10506531E+04 F= -.10577448E+04 E0= -.10577448E+04  EK= 0.70917E+01 SP= 0.00E+00 SK= 0.00E+00
   1975 T=   250. E= -.10506573E+04 F= -.10577214E+04 E0= -.10577214E+04  EK= 0.70641E+01 SP= 0.00E+00 SK= 0.00E+00
   1976 T=   243. E= -.10507221E+04 F= -.10576043E+04 E0= -.10576043E+04  EK= 0.68821E+01 SP= 0.00E+00 SK= 0.00E+00
   1977 T=   236. E= -.10507769E+04 F= -.10574698E+04 E0= -.10574698E+04  EK= 0.66929E+01 SP= 0.00E+00 SK= 0.00E+00
   1978 T=   235. E= -.10507597E+04 F= -.10574009E+04 E0= -.10574009E+04  EK= 0.66412E+01 SP= 0.00E+00 SK= 0.00E+00
   1979 T=   235. E= -.10507584E+04 F= -.10574043E+04 E0= -.10574043E+04  EK= 0.66459E+01 SP= 0.00E+00 SK= 0.00E+00
   1980 T=   234. E= -.10507990E+04 F= -.10574336E+04 E0= -.10574336E+04  EK= 0.66346E+01 SP= 0.00E+00 SK= 0.00E+00
   1981 T=   235. E= -.10507473E+04 F= -.10574132E+04 E0= -.10574132E+04  EK= 0.66659E+01 SP= 0.00E+00 SK= 0.00E+00
   1982 T=   236. E= -.10506406E+04 F= -.10573198E+04 E0= -.10573198E+04  EK= 0.66792E+01 SP= 0.00E+00 SK= 0.00E+00
   1983 T=   236. E= -.10505477E+04 F= -.10572170E+04 E0= -.10572170E+04  EK= 0.66693E+01 SP= 0.00E+00 SK= 0.00E+00
   1984 T=   231. E= -.10505950E+04 F= -.10571390E+04 E0= -.10571390E+04  EK= 0.65440E+01 SP= 0.00E+00 SK= 0.00E+00
   1985 T=   227. E= -.10506478E+04 F= -.10570877E+04 E0= -.10570877E+04  EK= 0.64399E+01 SP= 0.00E+00 SK= 0.00E+00
   1986 T=   224. E= -.10506959E+04 F= -.10570480E+04 E0= -.10570480E+04  EK= 0.63520E+01 SP= 0.00E+00 SK= 0.00E+00
   1987 T=   221. E= -.10507753E+04 F= -.10570415E+04 E0= -.10570415E+04  EK= 0.62662E+01 SP= 0.00E+00 SK= 0.00E+00
   1988 T=   219. E= -.10508368E+04 F= -.10570307E+04 E0= -.10570307E+04  EK= 0.61939E+01 SP= 0.00E+00 SK= 0.00E+00
   1989 T=   216. E= -.10508821E+04 F= -.10569935E+04 E0= -.10569935E+04  EK= 0.61114E+01 SP= 0.00E+00 SK= 0.00E+00
   1990 T=   211. E= -.10509435E+04 F= -.10569304E+04 E0= -.10569304E+04  EK= 0.59869E+01 SP= 0.00E+00 SK= 0.00E+00
   1991 T=   210. E= -.10509107E+04 F= -.10568687E+04 E0= -.10568687E+04  EK= 0.59579E+01 SP= 0.00E+00 SK= 0.00E+00
   1992 T=   212. E= -.10508871E+04 F= -.10568786E+04 E0= -.10568786E+04  EK= 0.59915E+01 SP= 0.00E+00 SK= 0.00E+00
   1993 T=   214. E= -.10508627E+04 F= -.10569261E+04 E0= -.10569261E+04  EK= 0.60635E+01 SP= 0.00E+00 SK= 0.00E+00
   1994 T=   217. E= -.10507929E+04 F= -.10569316E+04 E0= -.10569316E+04  EK= 0.61388E+01 SP= 0.00E+00 SK= 0.00E+00
   1995 T=   214. E= -.10507620E+04 F= -.10568176E+04 E0= -.10568176E+04  EK= 0.60557E+01 SP= 0.00E+00 SK= 0.00E+00
   1996 T=   209. E= -.10507601E+04 F= -.10566766E+04 E0= -.10566766E+04  EK= 0.59165E+01 SP= 0.00E+00 SK= 0.00E+00
   1997 T=   205. E= -.10507803E+04 F= -.10565848E+04 E0= -.10565848E+04  EK= 0.58045E+01 SP= 0.00E+00 SK= 0.00E+00
   1998 T=   206. E= -.10508079E+04 F= -.10566347E+04 E0= -.10566347E+04  EK= 0.58268E+01 SP= 0.00E+00 SK= 0.00E+00
   1999 T=   212. E= -.10507547E+04 F= -.10567612E+04 E0= -.10567612E+04  EK= 0.60066E+01 SP= 0.00E+00 SK= 0.00E+00
   2000 T=   221. E= -.10506446E+04 F= -.10568966E+04 E0= -.10568966E+04  EK= 0.62520E+01 SP= 0.00E+00 SK= 0.00E+00
   2001 T=   222. E= -.10506447E+04 F= -.10569407E+04 E0= -.10569407E+04  EK= 0.62960E+01 SP= 0.00E+00 SK= 0.00E+00
   2002 T=   222. E= -.10506124E+04 F= -.10569068E+04 E0= -.10569068E+04  EK= 0.62944E+01 SP= 0.00E+00 SK= 0.00E+00
   2003 T=   219. E= -.10506031E+04 F= -.10568060E+04 E0= -.10568060E+04  EK= 0.62030E+01 SP= 0.00E+00 SK= 0.00E+00
   2004 T=   215. E= -.10506446E+04 F= -.10567297E+04 E0= -.10567297E+04  EK= 0.60851E+01 SP= 0.00E+00 SK= 0.00E+00
   2005 T=   217. E= -.10506197E+04 F= -.10567756E+04 E0= -.10567756E+04  EK= 0.61558E+01 SP= 0.00E+00 SK= 0.00E+00
   2006 T=   223. E= -.10506181E+04 F= -.10569394E+04 E0= -.10569394E+04  EK= 0.63213E+01 SP= 0.00E+00 SK= 0.00E+00
   2007 T=   226. E= -.10506567E+04 F= -.10570603E+04 E0= -.10570603E+04  EK= 0.64037E+01 SP= 0.00E+00 SK= 0.00E+00
   2008 T=   226. E= -.10507035E+04 F= -.10570942E+04 E0= -.10570942E+04  EK= 0.63907E+01 SP= 0.00E+00 SK= 0.00E+00
   2009 T=   221. E= -.10507467E+04 F= -.10569948E+04 E0= -.10569948E+04  EK= 0.62482E+01 SP= 0.00E+00 SK= 0.00E+00
   2010 T=   210. E= -.10507930E+04 F= -.10567434E+04 E0= -.10567434E+04  EK= 0.59504E+01 SP= 0.00E+00 SK= 0.00E+00
   2011 T=   201. E= -.10508249E+04 F= -.10565009E+04 E0= -.10565009E+04  EK= 0.56760E+01 SP= 0.00E+00 SK= 0.00E+00
   2012 T=   203. E= -.10507096E+04 F= -.10564465E+04 E0= -.10564465E+04  EK= 0.57369E+01 SP= 0.00E+00 SK= 0.00E+00
   2013 T=   213. E= -.10505796E+04 F= -.10566138E+04 E0= -.10566138E+04  EK= 0.60342E+01 SP= 0.00E+00 SK= 0.00E+00
   2014 T=   222. E= -.10505396E+04 F= -.10568326E+04 E0= -.10568326E+04  EK= 0.62929E+01 SP= 0.00E+00 SK= 0.00E+00
   2015 T=   229. E= -.10505091E+04 F= -.10569866E+04 E0= -.10569866E+04  EK= 0.64775E+01 SP= 0.00E+00 SK= 0.00E+00
   2016 T=   232. E= -.10504787E+04 F= -.10570362E+04 E0= -.10570362E+04  EK= 0.65575E+01 SP= 0.00E+00 SK= 0.00E+00
   2017 T=   230. E= -.10504535E+04 F= -.10569746E+04 E0= -.10569746E+04  EK= 0.65211E+01 SP= 0.00E+00 SK= 0.00E+00
   2018 T=   228. E= -.10504701E+04 F= -.10569245E+04 E0= -.10569245E+04  EK= 0.64544E+01 SP= 0.00E+00 SK= 0.00E+00
   2019 T=   228. E= -.10505168E+04 F= -.10569763E+04 E0= -.10569763E+04  EK= 0.64595E+01 SP= 0.00E+00 SK= 0.00E+00
   2020 T=   234. E= -.10505741E+04 F= -.10571986E+04 E0= -.10571986E+04  EK= 0.66244E+01 SP= 0.00E+00 SK= 0.00E+00
   2021 T=   238. E= -.10506530E+04 F= -.10573984E+04 E0= -.10573984E+04  EK= 0.67454E+01 SP= 0.00E+00 SK= 0.00E+00
   2022 T=   239. E= -.10506739E+04 F= -.10574357E+04 E0= -.10574357E+04  EK= 0.67618E+01 SP= 0.00E+00 SK= 0.00E+00
   2023 T=   233. E= -.10506961E+04 F= -.10573017E+04 E0= -.10573017E+04  EK= 0.66056E+01 SP= 0.00E+00 SK= 0.00E+00
   2024 T=   226. E= -.10507189E+04 F= -.10571031E+04 E0= -.10571031E+04  EK= 0.63841E+01 SP= 0.00E+00 SK= 0.00E+00
   2025 T=   224. E= -.10506145E+04 F= -.10569689E+04 E0= -.10569689E+04  EK= 0.63544E+01 SP= 0.00E+00 SK= 0.00E+00
   2026 T=   228. E= -.10505289E+04 F= -.10569757E+04 E0= -.10569757E+04  EK= 0.64468E+01 SP= 0.00E+00 SK= 0.00E+00
   2027 T=   232. E= -.10504958E+04 F= -.10570581E+04 E0= -.10570581E+04  EK= 0.65623E+01 SP= 0.00E+00 SK= 0.00E+00
   2028 T=   236. E= -.10504667E+04 F= -.10571421E+04 E0= -.10571421E+04  EK= 0.66754E+01 SP= 0.00E+00 SK= 0.00E+00
   2029 T=   240. E= -.10503824E+04 F= -.10571625E+04 E0= -.10571625E+04  EK= 0.67801E+01 SP= 0.00E+00 SK= 0.00E+00
   2030 T=   242. E= -.10503342E+04 F= -.10571804E+04 E0= -.10571804E+04  EK= 0.68462E+01 SP= 0.00E+00 SK= 0.00E+00
   2031 T=   240. E= -.10503525E+04 F= -.10571464E+04 E0= -.10571464E+04  EK= 0.67939E+01 SP= 0.00E+00 SK= 0.00E+00
   2032 T=   237. E= -.10503611E+04 F= -.10570804E+04 E0= -.10570804E+04  EK= 0.67193E+01 SP= 0.00E+00 SK= 0.00E+00
       N       E                     dE             d eps       ncg     rms          rms(c)
DAV:   1    -0.805972279297E+03    0.23574E+03   -0.28905E+04 20644   0.300E+02
DAV:   2    -0.104457270501E+04   -0.23860E+03   -0.23595E+03 24330   0.747E+01
DAV:   3    -0.104891005931E+04   -0.43374E+01   -0.43352E+01 24672   0.111E+01
DAV:   4    -0.104897890307E+04   -0.68844E-01   -0.68835E-01 24696   0.137E+00    0.300E+01
DAV:   5    -0.104171018760E+04    0.72687E+01   -0.11398E+01 24696   0.777E+00    0.171E+01
DAV:   6    -0.104123348781E+04    0.47670E+00   -0.14161E+01 25216   0.779E+00    0.382E+00
DAV:   7    -0.104151226174E+04   -0.27877E+00   -0.24752E+00 24472   0.352E+00    0.179E+00
DAV:   8    -0.104152057463E+04   -0.83129E-02   -0.20921E-01 24296   0.963E-01    0.934E-01
DAV:   9    -0.104152059545E+04   -0.20823E-04   -0.99658E-02 24592   0.736E-01    0.534E-01
DAV:  10    -0.104151380768E+04    0.67878E-02   -0.22058E-02 28904   0.488E-01    0.168E-01
DAV:  11    -0.104151294578E+04    0.86190E-03   -0.11634E-02 24488   0.243E-01    0.130E-01
DAV:  12    -0.104151114652E+04    0.17993E-02   -0.13834E-03 23808   0.158E-01    0.535E-02
DAV:  13    -0.104151050249E+04    0.64402E-03   -0.18524E-03 24648   0.138E-01    0.691E-02
DAV:  14    -0.104151032905E+04    0.17344E-03   -0.79614E-04 24832   0.858E-02    0.400E-02
DAV:  15    -0.104151032646E+04    0.25964E-05   -0.27737E-04 20312   0.348E-02
   2033 T=   234. E= -.10504204E+04 F= -.10570363E+04 E0= -.10570363E+04  EK= 0.66159E+01 SP= 0.00E+00 SK= 0.00E+00
   2034 T=   233. E= -.10505206E+04 F= -.10571155E+04 E0= -.10571155E+04  EK= 0.65948E+01 SP= 0.00E+00 SK= 0.00E+00
   2035 T=   236. E= -.10506120E+04 F= -.10572922E+04 E0= -.10572922E+04  EK= 0.66802E+01 SP= 0.00E+00 SK= 0.00E+00
   2036 T=   241. E= -.10506176E+04 F= -.10574375E+04 E0= -.10574375E+04  EK= 0.68198E+01 SP= 0.00E+00 SK= 0.00E+00
   2037 T=   241. E= -.10506101E+04 F= -.10574236E+04 E0= -.10574236E+04  EK= 0.68135E+01 SP= 0.00E+00 SK= 0.00E+00
   2038 T=   235. E= -.10505908E+04 F= -.10572541E+04 E0= -.10572541E+04  EK= 0.66633E+01 SP= 0.00E+00 SK= 0.00E+00
   2039 T=   228. E= -.10505740E+04 F= -.10570379E+04 E0= -.10570379E+04  EK= 0.64639E+01 SP= 0.00E+00 SK= 0.00E+00
   2040 T=   223. E= -.10506385E+04 F= -.10569471E+04 E0= -.10569471E+04  EK= 0.63086E+01 SP= 0.00E+00 SK= 0.00E+00
   2041 T=   223. E= -.10506990E+04 F= -.10570085E+04 E0= -.10570085E+04  EK= 0.63094E+01 SP= 0.00E+00 SK= 0.00E+00
   2042 T=   226. E= -.10506851E+04 F= -.10570802E+04 E0= -.10570802E+04  EK= 0.63951E+01 SP= 0.00E+00 SK= 0.00E+00
       N       E                     dE             d eps       ncg     rms          rms(c)
DAV:   1    -0.103500328239E+04    0.65070E+01   -0.28491E+03 20644   0.986E+01
DAV:   2    -0.104246007677E+04   -0.74568E+01   -0.74545E+01 25064   0.145E+01
DAV:   3    -0.104252801393E+04   -0.67937E-01   -0.67932E-01 25000   0.143E+00
DAV:   4    -0.104252942519E+04   -0.14113E-02   -0.14112E-02 24968   0.202E-01    0.109E+01
DAV:   5    -0.104149370567E+04    0.10357E+01   -0.19971E+00 26192   0.377E+00    0.592E+00
DAV:   6    -0.104146492904E+04    0.28777E-01   -0.15660E+00 24952   0.269E+00    0.179E+00
DAV:   7    -0.104149169493E+04   -0.26766E-01   -0.28811E-01 24568   0.134E+00    0.610E-01
DAV:   8    -0.104148878025E+04    0.29147E-02   -0.30507E-02 23912   0.446E-01    0.322E-01
DAV:   9    -0.104148591187E+04    0.28684E-02   -0.20270E-02 23648   0.327E-01    0.223E-01
DAV:  10    -0.104148363650E+04    0.22754E-02   -0.50529E-03 28984   0.229E-01    0.609E-02
DAV:  11    -0.104148294721E+04    0.68929E-03   -0.18683E-03 23208   0.100E-01    0.615E-02
DAV:  12    -0.104148232099E+04    0.62622E-03   -0.37388E-04 19864   0.849E-02    0.253E-02
DAV:  13    -0.104148213746E+04    0.18352E-03   -0.51668E-04 22296   0.752E-02    0.273E-02
DAV:  14    -0.104148212864E+04    0.88222E-05   -0.19226E-04 18192   0.332E-02
   2043 T=   226. E= -.10506169E+04 F= -.10570052E+04 E0= -.10570052E+04  EK= 0.63883E+01 SP= 0.00E+00 SK= 0.00E+00
   2044 T=   224. E= -.10506941E+04 F= -.10570238E+04 E0= -.10570238E+04  EK= 0.63297E+01 SP= 0.00E+00 SK= 0.00E+00
   2045 T=   216. E= -.10507287E+04 F= -.10568513E+04 E0= -.10568513E+04  EK= 0.61226E+01 SP= 0.00E+00 SK= 0.00E+00
   2046 T=   204. E= -.10508601E+04 F= -.10566439E+04 E0= -.10566439E+04  EK= 0.57839E+01 SP= 0.00E+00 SK= 0.00E+00
   2047 T=   198. E= -.10508962E+04 F= -.10565112E+04 E0= -.10565112E+04  EK= 0.56150E+01 SP= 0.00E+00 SK= 0.00E+00
   2048 T=   200. E= -.10508668E+04 F= -.10565387E+04 E0= -.10565387E+04  EK= 0.56719E+01 SP= 0.00E+00 SK= 0.00E+00
   2049 T=   208. E= -.10508687E+04 F= -.10567462E+04 E0= -.10567462E+04  EK= 0.58774E+01 SP= 0.00E+00 SK= 0.00E+00
   2050 T=   217. E= -.10508437E+04 F= -.10569852E+04 E0= -.10569852E+04  EK= 0.61415E+01 SP= 0.00E+00 SK= 0.00E+00
   2051 T=   221. E= -.10508729E+04 F= -.10571240E+04 E0= -.10571240E+04  EK= 0.62511E+01 SP= 0.00E+00 SK= 0.00E+00
   2052 T=   220. E= -.10508459E+04 F= -.10570805E+04 E0= -.10570805E+04  EK= 0.62346E+01 SP= 0.00E+00 SK= 0.00E+00
   2053 T=   218. E= -.10508099E+04 F= -.10569723E+04 E0= -.10569723E+04  EK= 0.61623E+01 SP= 0.00E+00 SK= 0.00E+00
   2054 T=   213. E= -.10509010E+04 F= -.10569231E+04 E0= -.10569231E+04  EK= 0.60221E+01 SP= 0.00E+00 SK= 0.00E+00
   2055 T=   214. E= -.10509443E+04 F= -.10569887E+04 E0= -.10569887E+04  EK= 0.60444E+01 SP= 0.00E+00 SK= 0.00E+00
   2056 T=   220. E= -.10509542E+04 F= -.10571764E+04 E0= -.10571764E+04  EK= 0.62222E+01 SP= 0.00E+00 SK= 0.00E+00
   2057 T=   226. E= -.10509741E+04 F= -.10573838E+04 E0= -.10573838E+04  EK= 0.64096E+01 SP= 0.00E+00 SK= 0.00E+00
   2058 T=   232. E= -.10509223E+04 F= -.10574767E+04 E0= -.10574767E+04  EK= 0.65544E+01 SP= 0.00E+00 SK= 0.00E+00
   2059 T=   229. E= -.10509326E+04 F= -.10574201E+04 E0= -.10574201E+04  EK= 0.64875E+01 SP= 0.00E+00 SK= 0.00E+00
   2060 T=   221. E= -.10509455E+04 F= -.10572153E+04 E0= -.10572153E+04  EK= 0.62697E+01 SP= 0.00E+00 SK= 0.00E+00
   2061 T=   217. E= -.10508508E+04 F= -.10570030E+04 E0= -.10570030E+04  EK= 0.61522E+01 SP= 0.00E+00 SK= 0.00E+00
   2062 T=   214. E= -.10508437E+04 F= -.10569142E+04 E0= -.10569142E+04  EK= 0.60706E+01 SP= 0.00E+00 SK= 0.00E+00
   2063 T=   215. E= -.10509081E+04 F= -.10570056E+04 E0= -.10570056E+04  EK= 0.60975E+01 SP= 0.00E+00 SK= 0.00E+00
   2064 T=   227. E= -.10507806E+04 F= -.10572046E+04 E0= -.10572046E+04  EK= 0.64240E+01 SP= 0.00E+00 SK= 0.00E+00
   2065 T=   234. E= -.10507424E+04 F= -.10573794E+04 E0= -.10573794E+04  EK= 0.66370E+01 SP= 0.00E+00 SK= 0.00E+00
   2066 T=   233. E= -.10508036E+04 F= -.10574077E+04 E0= -.10574077E+04  EK= 0.66040E+01 SP= 0.00E+00 SK= 0.00E+00
   2067 T=   234. E= -.10506876E+04 F= -.10573230E+04 E0= -.10573230E+04  EK= 0.66354E+01 SP= 0.00E+00 SK= 0.00E+00
   2068 T=   236. E= -.10505491E+04 F= -.10572195E+04 E0= -.10572195E+04  EK= 0.66703E+01 SP= 0.00E+00 SK= 0.00E+00
   2069 T=   234. E= -.10505297E+04 F= -.10571546E+04 E0= -.10571546E+04  EK= 0.66250E+01 SP= 0.00E+00 SK= 0.00E+00
   2070 T=   234. E= -.10505787E+04 F= -.10571998E+04 E0= -.10571998E+04  EK= 0.66211E+01 SP= 0.00E+00 SK= 0.00E+00
   2071 T=   237. E= -.10505347E+04 F= -.10572520E+04 E0= -.10572520E+04  EK= 0.67173E+01 SP= 0.00E+00 SK= 0.00E+00
   2072 T=   240. E= -.10505007E+04 F= -.10573082E+04 E0= -.10573082E+04  EK= 0.68075E+01 SP= 0.00E+00 SK= 0.00E+00
   2073 T=   237. E= -.10505873E+04 F= -.10573008E+04 E0= -.10573008E+04  EK= 0.67134E+01 SP= 0.00E+00 SK= 0.00E+00
   2074 T=   229. E= -.10507460E+04 F= -.10572161E+04 E0= -.10572161E+04  EK= 0.64701E+01 SP= 0.00E+00 SK= 0.00E+00
   2075 T=   223. E= -.10508021E+04 F= -.10571100E+04 E0= -.10571100E+04  EK= 0.63079E+01 SP= 0.00E+00 SK= 0.00E+00
   2076 T=   222. E= -.10507448E+04 F= -.10570249E+04 E0= -.10570249E+04  EK= 0.62801E+01 SP= 0.00E+00 SK= 0.00E+00
   2077 T=   221. E= -.10507380E+04 F= -.10569994E+04 E0= -.10569994E+04  EK= 0.62615E+01 SP= 0.00E+00 SK= 0.00E+00
   2078 T=   221. E= -.10507924E+04 F= -.10570484E+04 E0= -.10570484E+04  EK= 0.62560E+01 SP= 0.00E+00 SK= 0.00E+00
   2079 T=   224. E= -.10507720E+04 F= -.10571133E+04 E0= -.10571133E+04  EK= 0.63413E+01 SP= 0.00E+00 SK= 0.00E+00
   2080 T=   228. E= -.10506893E+04 F= -.10571318E+04 E0= -.10571318E+04  EK= 0.64425E+01 SP= 0.00E+00 SK= 0.00E+00
   2081 T=   227. E= -.10506366E+04 F= -.10570541E+04 E0= -.10570541E+04  EK= 0.64175E+01 SP= 0.00E+00 SK= 0.00E+00
   2082 T=   223. E= -.10506410E+04 F= -.10569572E+04 E0= -.10569572E+04  EK= 0.63162E+01 SP= 0.00E+00 SK= 0.00E+00
   2083 T=   223. E= -.10506307E+04 F= -.10569302E+04 E0= -.10569302E+04  EK= 0.62995E+01 SP= 0.00E+00 SK= 0.00E+00
   2084 T=   230. E= -.10505038E+04 F= -.10570195E+04 E0= -.10570195E+04  EK= 0.65157E+01 SP= 0.00E+00 SK= 0.00E+00
   2085 T=   239. E= -.10503693E+04 F= -.10571395E+04 E0= -.10571395E+04  EK= 0.67702E+01 SP= 0.00E+00 SK= 0.00E+00
   2086 T=   245. E= -.10502948E+04 F= -.10572237E+04 E0= -.10572237E+04  EK= 0.69290E+01 SP= 0.00E+00 SK= 0.00E+00
   2087 T=   246. E= -.10502488E+04 F= -.10572112E+04 E0= -.10572112E+04  EK= 0.69623E+01 SP= 0.00E+00 SK= 0.00E+00
   2088 T=   247. E= -.10501377E+04 F= -.10571418E+04 E0= -.10571418E+04  EK= 0.70042E+01 SP= 0.00E+00 SK= 0.00E+00
   2089 T=   253. E= -.10498920E+04 F= -.10570433E+04 E0= -.10570433E+04  EK= 0.71513E+01 SP= 0.00E+00 SK= 0.00E+00
   2090 T=   253. E= -.10497552E+04 F= -.10569301E+04 E0= -.10569301E+04  EK= 0.71749E+01 SP= 0.00E+00 SK= 0.00E+00
   2091 T=   251. E= -.10497681E+04 F= -.10568752E+04 E0= -.10568752E+04  EK= 0.71071E+01 SP= 0.00E+00 SK= 0.00E+00
   2092 T=   254. E= -.10497241E+04 F= -.10569013E+04 E0= -.10569013E+04  EK= 0.71772E+01 SP= 0.00E+00 SK= 0.00E+00
   2093 T=   259. E= -.10496271E+04 F= -.10569509E+04 E0= -.10569509E+04  EK= 0.73238E+01 SP= 0.00E+00 SK= 0.00E+00
   2094 T=   261. E= -.10495697E+04 F= -.10569567E+04 E0= -.10569567E+04  EK= 0.73870E+01 SP= 0.00E+00 SK= 0.00E+00
   2095 T=   258. E= -.10495739E+04 F= -.10568673E+04 E0= -.10568673E+04  EK= 0.72935E+01 SP= 0.00E+00 SK= 0.00E+00
   2096 T=   251. E= -.10496298E+04 F= -.10567339E+04 E0= -.10567339E+04  EK= 0.71041E+01 SP= 0.00E+00 SK= 0.00E+00
   2097 T=   246. E= -.10496480E+04 F= -.10566149E+04 E0= -.10566149E+04  EK= 0.69669E+01 SP= 0.00E+00 SK= 0.00E+00
   2098 T=   245. E= -.10496797E+04 F= -.10566021E+04 E0= -.10566021E+04  EK= 0.69224E+01 SP= 0.00E+00 SK= 0.00E+00
   2099 T=   245. E= -.10496944E+04 F= -.10566242E+04 E0= -.10566242E+04  EK= 0.69298E+01 SP= 0.00E+00 SK= 0.00E+00
   2100 T=   250. E= -.10496048E+04 F= -.10566754E+04 E0= -.10566754E+04  EK= 0.70706E+01 SP= 0.00E+00 SK= 0.00E+00
   2101 T=   249. E= -.10496605E+04 F= -.10567074E+04 E0= -.10567074E+04  EK= 0.70469E+01 SP= 0.00E+00 SK= 0.00E+00
   2102 T=   245. E= -.10497615E+04 F= -.10567004E+04 E0= -.10567004E+04  EK= 0.69389E+01 SP= 0.00E+00 SK= 0.00E+00
   2103 T=   249. E= -.10496914E+04 F= -.10567316E+04 E0= -.10567316E+04  EK= 0.70402E+01 SP= 0.00E+00 SK= 0.00E+00
   2104 T=   255. E= -.10495385E+04 F= -.10567602E+04 E0= -.10567602E+04  EK= 0.72217E+01 SP= 0.00E+00 SK= 0.00E+00
   2105 T=   254. E= -.10495738E+04 F= -.10567593E+04 E0= -.10567593E+04  EK= 0.71855E+01 SP= 0.00E+00 SK= 0.00E+00
   2106 T=   246. E= -.10497177E+04 F= -.10566880E+04 E0= -.10566880E+04  EK= 0.69703E+01 SP= 0.00E+00 SK= 0.00E+00
   2107 T=   240. E= -.10498194E+04 F= -.10566084E+04 E0= -.10566084E+04  EK= 0.67890E+01 SP= 0.00E+00 SK= 0.00E+00
   2108 T=   238. E= -.10498546E+04 F= -.10566003E+04 E0= -.10566003E+04  EK= 0.67457E+01 SP= 0.00E+00 SK= 0.00E+00
   2109 T=   244. E= -.10497622E+04 F= -.10566699E+04 E0= -.10566699E+04  EK= 0.69077E+01 SP= 0.00E+00 SK= 0.00E+00
   2110 T=   248. E= -.10497222E+04 F= -.10567393E+04 E0= -.10567393E+04  EK= 0.70171E+01 SP= 0.00E+00 SK= 0.00E+00
   2111 T=   250. E= -.10496435E+04 F= -.10567315E+04 E0= -.10567315E+04  EK= 0.70880E+01 SP= 0.00E+00 SK= 0.00E+00
   2112 T=   252. E= -.10495322E+04 F= -.10566540E+04 E0= -.10566540E+04  EK= 0.71218E+01 SP= 0.00E+00 SK= 0.00E+00
   2113 T=   250. E= -.10495321E+04 F= -.10566084E+04 E0= -.10566084E+04  EK= 0.70763E+01 SP= 0.00E+00 SK= 0.00E+00
   2114 T=   248. E= -.10496091E+04 F= -.10566251E+04 E0= -.10566251E+04  EK= 0.70159E+01 SP= 0.00E+00 SK= 0.00E+00
   2115 T=   250. E= -.10496298E+04 F= -.10567029E+04 E0= -.10567029E+04  EK= 0.70730E+01 SP= 0.00E+00 SK= 0.00E+00
   2116 T=   256. E= -.10495720E+04 F= -.10568092E+04 E0= -.10568092E+04  EK= 0.72372E+01 SP= 0.00E+00 SK= 0.00E+00
   2117 T=   259. E= -.10496327E+04 F= -.10569515E+04 E0= -.10569515E+04  EK= 0.73189E+01 SP= 0.00E+00 SK= 0.00E+00
   2118 T=   257. E= -.10497970E+04 F= -.10570692E+04 E0= -.10570692E+04  EK= 0.72722E+01 SP= 0.00E+00 SK= 0.00E+00
   2119 T=   258. E= -.10498267E+04 F= -.10571243E+04 E0= -.10571243E+04  EK= 0.72976E+01 SP= 0.00E+00 SK= 0.00E+00
   2120 T=   254. E= -.10498885E+04 F= -.10570886E+04 E0= -.10570886E+04  EK= 0.72001E+01 SP= 0.00E+00 SK= 0.00E+00
   2121 T=   243. E= -.10500718E+04 F= -.10569645E+04 E0= -.10569645E+04  EK= 0.68927E+01 SP= 0.00E+00 SK= 0.00E+00
   2122 T=   238. E= -.10501634E+04 F= -.10569082E+04 E0= -.10569082E+04  EK= 0.67447E+01 SP= 0.00E+00 SK= 0.00E+00
   2123 T=   240. E= -.10501524E+04 F= -.10569564E+04 E0= -.10569564E+04  EK= 0.68039E+01 SP= 0.00E+00 SK= 0.00E+00
   2124 T=   246. E= -.10501200E+04 F= -.10570778E+04 E0= -.10570778E+04  EK= 0.69578E+01 SP= 0.00E+00 SK= 0.00E+00
   2125 T=   252. E= -.10500341E+04 F= -.10571709E+04 E0= -.10571709E+04  EK= 0.71368E+01 SP= 0.00E+00 SK= 0.00E+00
   2126 T=   254. E= -.10499852E+04 F= -.10571624E+04 E0= -.10571624E+04  EK= 0.71772E+01 SP= 0.00E+00 SK= 0.00E+00
   2127 T=   248. E= -.10500380E+04 F= -.10570541E+04 E0= -.10570541E+04  EK= 0.70161E+01 SP= 0.00E+00 SK= 0.00E+00
   2128 T=   243. E= -.10500889E+04 F= -.10569634E+04 E0= -.10569634E+04  EK= 0.68745E+01 SP= 0.00E+00 SK= 0.00E+00
   2129 T=   242. E= -.10501112E+04 F= -.10569597E+04 E0= -.10569597E+04  EK= 0.68485E+01 SP= 0.00E+00 SK= 0.00E+00
   2130 T=   247. E= -.10500438E+04 F= -.10570487E+04 E0= -.10570487E+04  EK= 0.70049E+01 SP= 0.00E+00 SK= 0.00E+00
       N       E                     dE             d eps       ncg     rms          rms(c)
DAV:   1    -0.628720831559E+03    0.41276E+03   -0.41407E+04 20644   0.354E+02
DAV:   2    -0.104258425174E+04   -0.41386E+03   -0.40825E+03 24300   0.988E+01
DAV:   3    -0.105155728483E+04   -0.89730E+01   -0.89661E+01 24600   0.163E+01
DAV:   4    -0.105169393206E+04   -0.13665E+00   -0.13661E+00 24904   0.192E+00    0.342E+01
DAV:   5    -0.104141111206E+04    0.10283E+02   -0.20519E+01 24992   0.965E+00    0.193E+01
DAV:   6    -0.104106475506E+04    0.34636E+00   -0.15206E+01 25248   0.808E+00    0.555E+00
DAV:   7    -0.104162965303E+04   -0.56490E+00   -0.25880E+00 24384   0.341E+00    0.211E+00
DAV:   8    -0.104164914571E+04   -0.19493E-01   -0.21821E-01 24296   0.100E+00    0.928E-01
DAV:   9    -0.104164375705E+04    0.53887E-02   -0.54333E-02 24128   0.625E-01    0.336E-01
DAV:  10    -0.104164037544E+04    0.33816E-02   -0.13089E-02 24472   0.350E-01    0.170E-01
DAV:  11    -0.104163779040E+04    0.25850E-02   -0.71103E-03 24400   0.233E-01    0.119E-01
DAV:  12    -0.104163458452E+04    0.32059E-02   -0.21469E-03 24096   0.238E-01    0.585E-02
DAV:  13    -0.104163389609E+04    0.68843E-03   -0.23269E-03 24632   0.154E-01    0.731E-02
DAV:  14    -0.104163378705E+04    0.10904E-03   -0.15405E-03 25168   0.993E-02    0.385E-02
DAV:  15    -0.104163376142E+04    0.25628E-04   -0.19538E-04 18176   0.366E-02
   2131 T=   252. E= -.10500572E+04 F= -.10572029E+04 E0= -.10572029E+04  EK= 0.71457E+01 SP= 0.00E+00 SK= 0.00E+00
   2132 T=   252. E= -.10500786E+04 F= -.10572109E+04 E0= -.10572109E+04  EK= 0.71323E+01 SP= 0.00E+00 SK= 0.00E+00
   2133 T=   250. E= -.10500938E+04 F= -.10571606E+04 E0= -.10571606E+04  EK= 0.70668E+01 SP= 0.00E+00 SK= 0.00E+00
   2134 T=   246. E= -.10500657E+04 F= -.10570436E+04 E0= -.10570436E+04  EK= 0.69778E+01 SP= 0.00E+00 SK= 0.00E+00
   2135 T=   240. E= -.10501019E+04 F= -.10569079E+04 E0= -.10569079E+04  EK= 0.68061E+01 SP= 0.00E+00 SK= 0.00E+00
   2136 T=   238. E= -.10501168E+04 F= -.10568472E+04 E0= -.10568472E+04  EK= 0.67304E+01 SP= 0.00E+00 SK= 0.00E+00
   2137 T=   243. E= -.10499983E+04 F= -.10568806E+04 E0= -.10568806E+04  EK= 0.68824E+01 SP= 0.00E+00 SK= 0.00E+00
   2138 T=   248. E= -.10499410E+04 F= -.10569730E+04 E0= -.10569730E+04  EK= 0.70320E+01 SP= 0.00E+00 SK= 0.00E+00
   2139 T=   253. E= -.10498336E+04 F= -.10570030E+04 E0= -.10570030E+04  EK= 0.71694E+01 SP= 0.00E+00 SK= 0.00E+00
   2140 T=   258. E= -.10496776E+04 F= -.10569791E+04 E0= -.10569791E+04  EK= 0.73015E+01 SP= 0.00E+00 SK= 0.00E+00
   2141 T=   254. E= -.10496924E+04 F= -.10568754E+04 E0= -.10568754E+04  EK= 0.71830E+01 SP= 0.00E+00 SK= 0.00E+00
   2142 T=   247. E= -.10497664E+04 F= -.10567579E+04 E0= -.10567579E+04  EK= 0.69915E+01 SP= 0.00E+00 SK= 0.00E+00
   2143 T=   244. E= -.10497957E+04 F= -.10567119E+04 E0= -.10567119E+04  EK= 0.69161E+01 SP= 0.00E+00 SK= 0.00E+00
   2144 T=   246. E= -.10498388E+04 F= -.10568016E+04 E0= -.10568016E+04  EK= 0.69627E+01 SP= 0.00E+00 SK= 0.00E+00
   2145 T=   248. E= -.10498688E+04 F= -.10568851E+04 E0= -.10568851E+04  EK= 0.70163E+01 SP= 0.00E+00 SK= 0.00E+00
   2146 T=   242. E= -.10499852E+04 F= -.10568382E+04 E0= -.10568382E+04  EK= 0.68530E+01 SP= 0.00E+00 SK= 0.00E+00
       N       E                     dE             d eps       ncg     rms          rms(c)
DAV:   1    -0.102206279702E+04    0.19571E+02   -0.65775E+03 20644   0.148E+02
DAV:   2    -0.104263867721E+04   -0.20576E+02   -0.20567E+02 24760   0.236E+01
DAV:   3    -0.104283041250E+04   -0.19174E+00   -0.19171E+00 24984   0.245E+00
DAV:   4    -0.104283427114E+04   -0.38586E-02   -0.38583E-02 25112   0.337E-01    0.154E+01
DAV:   5    -0.104114063324E+04    0.16936E+01   -0.33179E+00 24712   0.407E+00    0.866E+00
DAV:   6    -0.104114755474E+04   -0.69215E-02   -0.27460E+00 25144   0.351E+00    0.226E+00
DAV:   7    -0.104121622235E+04   -0.68668E-01   -0.45767E-01 24312   0.144E+00    0.856E-01
DAV:   8    -0.104121458668E+04    0.16357E-02   -0.45948E-02 23832   0.443E-01    0.376E-01
DAV:   9    -0.104121203005E+04    0.25566E-02   -0.90791E-03 24168   0.262E-01    0.136E-01
DAV:  10    -0.104121096478E+04    0.10653E-02   -0.31712E-03 24448   0.177E-01    0.807E-02
DAV:  11    -0.104121049167E+04    0.47311E-03   -0.16994E-03 24336   0.116E-01    0.584E-02
DAV:  12    -0.104121005553E+04    0.43614E-03   -0.46094E-04 21976   0.936E-02    0.274E-02
DAV:  13    -0.104120992064E+04    0.13489E-03   -0.29683E-04 20512   0.610E-02    0.286E-02
DAV:  14    -0.104120989946E+04    0.21173E-04   -0.32032E-04 21824   0.477E-02
   2147 T=   237. E= -.10499676E+04 F= -.10566797E+04 E0= -.10566797E+04  EK= 0.67121E+01 SP= 0.00E+00 SK= 0.00E+00
   2148 T=   233. E= -.10499175E+04 F= -.10565181E+04 E0= -.10565181E+04  EK= 0.66006E+01 SP= 0.00E+00 SK= 0.00E+00
   2149 T=   228. E= -.10499698E+04 F= -.10564295E+04 E0= -.10564295E+04  EK= 0.64596E+01 SP= 0.00E+00 SK= 0.00E+00
   2150 T=   225. E= -.10500883E+04 F= -.10564460E+04 E0= -.10564460E+04  EK= 0.63577E+01 SP= 0.00E+00 SK= 0.00E+00
   2151 T=   225. E= -.10502049E+04 F= -.10565814E+04 E0= -.10565814E+04  EK= 0.63765E+01 SP= 0.00E+00 SK= 0.00E+00
   2152 T=   229. E= -.10502914E+04 F= -.10567635E+04 E0= -.10567635E+04  EK= 0.64722E+01 SP= 0.00E+00 SK= 0.00E+00
   2153 T=   227. E= -.10503852E+04 F= -.10568136E+04 E0= -.10568136E+04  EK= 0.64284E+01 SP= 0.00E+00 SK= 0.00E+00
   2154 T=   225. E= -.10503738E+04 F= -.10567291E+04 E0= -.10567291E+04  EK= 0.63553E+01 SP= 0.00E+00 SK= 0.00E+00
   2155 T=   221. E= -.10503271E+04 F= -.10565703E+04 E0= -.10565703E+04  EK= 0.62433E+01 SP= 0.00E+00 SK= 0.00E+00
   2156 T=   219. E= -.10502611E+04 F= -.10564559E+04 E0= -.10564559E+04  EK= 0.61948E+01 SP= 0.00E+00 SK= 0.00E+00
       N       E                     dE             d eps       ncg     rms          rms(c)
DAV:   1    -0.103541593036E+04    0.57940E+01   -0.25768E+03 20644   0.939E+01
DAV:   2    -0.104190893219E+04   -0.64930E+01   -0.64914E+01 24992   0.136E+01
DAV:   3    -0.104196871770E+04   -0.59786E-01   -0.59781E-01 25000   0.134E+00
DAV:   4    -0.104196997214E+04   -0.12544E-02   -0.12544E-02 25000   0.190E-01    0.108E+01
DAV:   5    -0.104097288381E+04    0.99709E+00   -0.21854E+00 25248   0.364E+00    0.579E+00
DAV:   6    -0.104096829379E+04    0.45900E-02   -0.13344E+00 25136   0.251E+00    0.190E+00
DAV:   7    -0.104099693710E+04   -0.28643E-01   -0.25065E-01 25128   0.122E+00    0.602E-01
DAV:   8    -0.104099520555E+04    0.17316E-02   -0.28911E-02 24080   0.401E-01    0.304E-01
DAV:   9    -0.104099178177E+04    0.34238E-02   -0.11706E-02 23944   0.279E-01    0.149E-01
DAV:  10    -0.104098993485E+04    0.18469E-02   -0.28889E-03 27216   0.186E-01    0.672E-02
DAV:  11    -0.104098901663E+04    0.91822E-03   -0.16897E-03 23624   0.116E-01    0.611E-02
DAV:  12    -0.104098832054E+04    0.69609E-03   -0.38595E-04 20112   0.100E-01    0.255E-02
DAV:  13    -0.104098811744E+04    0.20310E-03   -0.58892E-04 22464   0.836E-02    0.312E-02
DAV:  14    -0.104098810230E+04    0.15138E-04   -0.27028E-04 20280   0.405E-02
   2157 T=   221. E= -.10501680E+04 F= -.10564301E+04 E0= -.10564301E+04  EK= 0.62621E+01 SP= 0.00E+00 SK= 0.00E+00
   2158 T=   226. E= -.10502123E+04 F= -.10566116E+04 E0= -.10566116E+04  EK= 0.63993E+01 SP= 0.00E+00 SK= 0.00E+00
   2159 T=   230. E= -.10502426E+04 F= -.10567465E+04 E0= -.10567465E+04  EK= 0.65039E+01 SP= 0.00E+00 SK= 0.00E+00
   2160 T=   230. E= -.10502815E+04 F= -.10567851E+04 E0= -.10567851E+04  EK= 0.65036E+01 SP= 0.00E+00 SK= 0.00E+00
   2161 T=   228. E= -.10502492E+04 F= -.10567148E+04 E0= -.10567148E+04  EK= 0.64656E+01 SP= 0.00E+00 SK= 0.00E+00
   2162 T=   227. E= -.10502218E+04 F= -.10566594E+04 E0= -.10566594E+04  EK= 0.64376E+01 SP= 0.00E+00 SK= 0.00E+00
   2163 T=   229. E= -.10501765E+04 F= -.10566576E+04 E0= -.10566576E+04  EK= 0.64811E+01 SP= 0.00E+00 SK= 0.00E+00
   2164 T=   232. E= -.10501490E+04 F= -.10567121E+04 E0= -.10567121E+04  EK= 0.65631E+01 SP= 0.00E+00 SK= 0.00E+00
   2165 T=   234. E= -.10501332E+04 F= -.10567697E+04 E0= -.10567697E+04  EK= 0.66365E+01 SP= 0.00E+00 SK= 0.00E+00
   2166 T=   239. E= -.10501076E+04 F= -.10568636E+04 E0= -.10568636E+04  EK= 0.67560E+01 SP= 0.00E+00 SK= 0.00E+00
   2167 T=   244. E= -.10500587E+04 F= -.10569551E+04 E0= -.10569551E+04  EK= 0.68963E+01 SP= 0.00E+00 SK= 0.00E+00
   2168 T=   246. E= -.10500527E+04 F= -.10570032E+04 E0= -.10570032E+04  EK= 0.69506E+01 SP= 0.00E+00 SK= 0.00E+00
   2169 T=   247. E= -.10500395E+04 F= -.10570448E+04 E0= -.10570448E+04  EK= 0.70053E+01 SP= 0.00E+00 SK= 0.00E+00
   2170 T=   249. E= -.10499962E+04 F= -.10570509E+04 E0= -.10570509E+04  EK= 0.70547E+01 SP= 0.00E+00 SK= 0.00E+00
   2171 T=   248. E= -.10499962E+04 F= -.10570295E+04 E0= -.10570295E+04  EK= 0.70333E+01 SP= 0.00E+00 SK= 0.00E+00
   2172 T=   249. E= -.10499756E+04 F= -.10570152E+04 E0= -.10570152E+04  EK= 0.70396E+01 SP= 0.00E+00 SK= 0.00E+00
   2173 T=   249. E= -.10499380E+04 F= -.10569734E+04 E0= -.10569734E+04  EK= 0.70355E+01 SP= 0.00E+00 SK= 0.00E+00
   2174 T=   247. E= -.10499275E+04 F= -.10569190E+04 E0= -.10569190E+04  EK= 0.69915E+01 SP= 0.00E+00 SK= 0.00E+00
   2175 T=   242. E= -.10499800E+04 F= -.10568376E+04 E0= -.10568376E+04  EK= 0.68576E+01 SP= 0.00E+00 SK= 0.00E+00
   2176 T=   235. E= -.10500651E+04 F= -.10567288E+04 E0= -.10567288E+04  EK= 0.66637E+01 SP= 0.00E+00 SK= 0.00E+00
   2177 T=   231. E= -.10501134E+04 F= -.10566647E+04 E0= -.10566647E+04  EK= 0.65513E+01 SP= 0.00E+00 SK= 0.00E+00
   2178 T=   231. E= -.10501013E+04 F= -.10566383E+04 E0= -.10566383E+04  EK= 0.65370E+01 SP= 0.00E+00 SK= 0.00E+00
   2179 T=   232. E= -.10500814E+04 F= -.10566623E+04 E0= -.10566623E+04  EK= 0.65809E+01 SP= 0.00E+00 SK= 0.00E+00
   2180 T=   231. E= -.10500904E+04 F= -.10566347E+04 E0= -.10566347E+04  EK= 0.65443E+01 SP= 0.00E+00 SK= 0.00E+00
   2181 T=   227. E= -.10500716E+04 F= -.10565065E+04 E0= -.10565065E+04  EK= 0.64349E+01 SP= 0.00E+00 SK= 0.00E+00
   2182 T=   222. E= -.10500606E+04 F= -.10563409E+04 E0= -.10563409E+04  EK= 0.62803E+01 SP= 0.00E+00 SK= 0.00E+00
   2183 T=   219. E= -.10500332E+04 F= -.10562372E+04 E0= -.10562372E+04  EK= 0.62040E+01 SP= 0.00E+00 SK= 0.00E+00
   2184 T=   221. E= -.10500002E+04 F= -.10562518E+04 E0= -.10562518E+04  EK= 0.62516E+01 SP= 0.00E+00 SK= 0.00E+00
   2185 T=   226. E= -.10500154E+04 F= -.10564063E+04 E0= -.10564063E+04  EK= 0.63909E+01 SP= 0.00E+00 SK= 0.00E+00
   2186 T=   232. E= -.10500337E+04 F= -.10565911E+04 E0= -.10565911E+04  EK= 0.65574E+01 SP= 0.00E+00 SK= 0.00E+00
   2187 T=   237. E= -.10499955E+04 F= -.10567030E+04 E0= -.10567030E+04  EK= 0.67075E+01 SP= 0.00E+00 SK= 0.00E+00
   2188 T=   238. E= -.10499573E+04 F= -.10566841E+04 E0= -.10566841E+04  EK= 0.67267E+01 SP= 0.00E+00 SK= 0.00E+00
   2189 T=   234. E= -.10499779E+04 F= -.10566040E+04 E0= -.10566040E+04  EK= 0.66261E+01 SP= 0.00E+00 SK= 0.00E+00
   2190 T=   230. E= -.10500577E+04 F= -.10565759E+04 E0= -.10565759E+04  EK= 0.65183E+01 SP= 0.00E+00 SK= 0.00E+00
   2191 T=   230. E= -.10501054E+04 F= -.10566286E+04 E0= -.10566286E+04  EK= 0.65232E+01 SP= 0.00E+00 SK= 0.00E+00
   2192 T=   237. E= -.10500527E+04 F= -.10567524E+04 E0= -.10567524E+04  EK= 0.66997E+01 SP= 0.00E+00 SK= 0.00E+00
   2193 T=   243. E= -.10500051E+04 F= -.10568703E+04 E0= -.10568703E+04  EK= 0.68652E+01 SP= 0.00E+00 SK= 0.00E+00
   2194 T=   242. E= -.10500927E+04 F= -.10569358E+04 E0= -.10569358E+04  EK= 0.68431E+01 SP= 0.00E+00 SK= 0.00E+00
   2195 T=   239. E= -.10501467E+04 F= -.10569132E+04 E0= -.10569132E+04  EK= 0.67665E+01 SP= 0.00E+00 SK= 0.00E+00
   2196 T=   239. E= -.10500978E+04 F= -.10568575E+04 E0= -.10568575E+04  EK= 0.67597E+01 SP= 0.00E+00 SK= 0.00E+00
   2197 T=   236. E= -.10501060E+04 F= -.10567979E+04 E0= -.10567979E+04  EK= 0.66919E+01 SP= 0.00E+00 SK= 0.00E+00
   2198 T=   235. E= -.10500955E+04 F= -.10567438E+04 E0= -.10567438E+04  EK= 0.66483E+01 SP= 0.00E+00 SK= 0.00E+00
   2199 T=   237. E= -.10500753E+04 F= -.10567952E+04 E0= -.10567952E+04  EK= 0.67199E+01 SP= 0.00E+00 SK= 0.00E+00
   2200 T=   240. E= -.10501267E+04 F= -.10569094E+04 E0= -.10569094E+04  EK= 0.67827E+01 SP= 0.00E+00 SK= 0.00E+00
   2201 T=   244. E= -.10501091E+04 F= -.10570078E+04 E0= -.10570078E+04  EK= 0.68987E+01 SP= 0.00E+00 SK= 0.00E+00
   2202 T=   246. E= -.10500956E+04 F= -.10570711E+04 E0= -.10570711E+04  EK= 0.69756E+01 SP= 0.00E+00 SK= 0.00E+00
   2203 T=   245. E= -.10501358E+04 F= -.10570738E+04 E0= -.10570738E+04  EK= 0.69380E+01 SP= 0.00E+00 SK= 0.00E+00
   2204 T=   244. E= -.10501748E+04 F= -.10570833E+04 E0= -.10570833E+04  EK= 0.69085E+01 SP= 0.00E+00 SK= 0.00E+00
   2205 T=   244. E= -.10501759E+04 F= -.10570897E+04 E0= -.10570897E+04  EK= 0.69137E+01 SP= 0.00E+00 SK= 0.00E+00
   2206 T=   244. E= -.10501670E+04 F= -.10570714E+04 E0= -.10570714E+04  EK= 0.69044E+01 SP= 0.00E+00 SK= 0.00E+00
   2207 T=   242. E= -.10501433E+04 F= -.10569998E+04 E0= -.10569998E+04  EK= 0.68565E+01 SP= 0.00E+00 SK= 0.00E+00
   2208 T=   242. E= -.10500963E+04 F= -.10569409E+04 E0= -.10569409E+04  EK= 0.68446E+01 SP= 0.00E+00 SK= 0.00E+00
   2209 T=   239. E= -.10502124E+04 F= -.10569726E+04 E0= -.10569726E+04  EK= 0.67602E+01 SP= 0.00E+00 SK= 0.00E+00
   2210 T=   236. E= -.10503672E+04 F= -.10570426E+04 E0= -.10570426E+04  EK= 0.66754E+01 SP= 0.00E+00 SK= 0.00E+00
   2211 T=   234. E= -.10504393E+04 F= -.10570527E+04 E0= -.10570527E+04  EK= 0.66134E+01 SP= 0.00E+00 SK= 0.00E+00
   2212 T=   231. E= -.10504543E+04 F= -.10569923E+04 E0= -.10569923E+04  EK= 0.65381E+01 SP= 0.00E+00 SK= 0.00E+00
   2213 T=   229. E= -.10503747E+04 F= -.10568697E+04 E0= -.10568697E+04  EK= 0.64950E+01 SP= 0.00E+00 SK= 0.00E+00
   2214 T=   228. E= -.10503138E+04 F= -.10567693E+04 E0= -.10567693E+04  EK= 0.64556E+01 SP= 0.00E+00 SK= 0.00E+00
   2215 T=   229. E= -.10502689E+04 F= -.10567539E+04 E0= -.10567539E+04  EK= 0.64850E+01 SP= 0.00E+00 SK= 0.00E+00
   2216 T=   235. E= -.10502000E+04 F= -.10568472E+04 E0= -.10568472E+04  EK= 0.66471E+01 SP= 0.00E+00 SK= 0.00E+00
   2217 T=   239. E= -.10502233E+04 F= -.10569802E+04 E0= -.10569802E+04  EK= 0.67568E+01 SP= 0.00E+00 SK= 0.00E+00
   2218 T=   242. E= -.10502681E+04 F= -.10571173E+04 E0= -.10571173E+04  EK= 0.68492E+01 SP= 0.00E+00 SK= 0.00E+00
   2219 T=   244. E= -.10502822E+04 F= -.10571947E+04 E0= -.10571947E+04  EK= 0.69125E+01 SP= 0.00E+00 SK= 0.00E+00
   2220 T=   244. E= -.10502973E+04 F= -.10572140E+04 E0= -.10572140E+04  EK= 0.69167E+01 SP= 0.00E+00 SK= 0.00E+00
   2221 T=   239. E= -.10504067E+04 F= -.10571817E+04 E0= -.10571817E+04  EK= 0.67750E+01 SP= 0.00E+00 SK= 0.00E+00
   2222 T=   235. E= -.10504867E+04 F= -.10571424E+04 E0= -.10571424E+04  EK= 0.66557E+01 SP= 0.00E+00 SK= 0.00E+00
   2223 T=   237. E= -.10504601E+04 F= -.10571693E+04 E0= -.10571693E+04  EK= 0.67092E+01 SP= 0.00E+00 SK= 0.00E+00
   2224 T=   240. E= -.10504410E+04 F= -.10572398E+04 E0= -.10572398E+04  EK= 0.67988E+01 SP= 0.00E+00 SK= 0.00E+00
   2225 T=   243. E= -.10504528E+04 F= -.10573346E+04 E0= -.10573346E+04  EK= 0.68818E+01 SP= 0.00E+00 SK= 0.00E+00
   2226 T=   245. E= -.10504786E+04 F= -.10574222E+04 E0= -.10574222E+04  EK= 0.69436E+01 SP= 0.00E+00 SK= 0.00E+00
   2227 T=   245. E= -.10504751E+04 F= -.10574179E+04 E0= -.10574179E+04  EK= 0.69428E+01 SP= 0.00E+00 SK= 0.00E+00
   2228 T=   244. E= -.10504326E+04 F= -.10573363E+04 E0= -.10573363E+04  EK= 0.69037E+01 SP= 0.00E+00 SK= 0.00E+00
   2229 T=   245. E= -.10503328E+04 F= -.10572670E+04 E0= -.10572670E+04  EK= 0.69342E+01 SP= 0.00E+00 SK= 0.00E+00
   2230 T=   245. E= -.10502610E+04 F= -.10571968E+04 E0= -.10571968E+04  EK= 0.69358E+01 SP= 0.00E+00 SK= 0.00E+00
   2231 T=   240. E= -.10503155E+04 F= -.10571206E+04 E0= -.10571206E+04  EK= 0.68051E+01 SP= 0.00E+00 SK= 0.00E+00
   2232 T=   236. E= -.10503705E+04 F= -.10570378E+04 E0= -.10570378E+04  EK= 0.66673E+01 SP= 0.00E+00 SK= 0.00E+00
   2233 T=   238. E= -.10503075E+04 F= -.10570442E+04 E0= -.10570442E+04  EK= 0.67367E+01 SP= 0.00E+00 SK= 0.00E+00
   2234 T=   242. E= -.10502638E+04 F= -.10571265E+04 E0= -.10571265E+04  EK= 0.68627E+01 SP= 0.00E+00 SK= 0.00E+00
   2235 T=   247. E= -.10501772E+04 F= -.10571707E+04 E0= -.10571707E+04  EK= 0.69936E+01 SP= 0.00E+00 SK= 0.00E+00
   2236 T=   251. E= -.10500266E+04 F= -.10571295E+04 E0= -.10571295E+04  EK= 0.71029E+01 SP= 0.00E+00 SK= 0.00E+00
   2237 T=   249. E= -.10499489E+04 F= -.10569861E+04 E0= -.10569861E+04  EK= 0.70372E+01 SP= 0.00E+00 SK= 0.00E+00
   2238 T=   246. E= -.10499350E+04 F= -.10569034E+04 E0= -.10569034E+04  EK= 0.69684E+01 SP= 0.00E+00 SK= 0.00E+00
   2239 T=   246. E= -.10499607E+04 F= -.10569309E+04 E0= -.10569309E+04  EK= 0.69702E+01 SP= 0.00E+00 SK= 0.00E+00
   2240 T=   250. E= -.10499728E+04 F= -.10570495E+04 E0= -.10570495E+04  EK= 0.70767E+01 SP= 0.00E+00 SK= 0.00E+00
   2241 T=   252. E= -.10499671E+04 F= -.10570933E+04 E0= -.10570933E+04  EK= 0.71262E+01 SP= 0.00E+00 SK= 0.00E+00
       N       E                     dE             d eps       ncg     rms          rms(c)
DAV:   1    -0.631928064478E+03    0.40906E+03   -0.41498E+04 20644   0.353E+02
DAV:   2    -0.104156170819E+04   -0.40963E+03   -0.40347E+03 24326   0.975E+01
DAV:   3    -0.105054732048E+04   -0.89856E+01   -0.89792E+01 24632   0.158E+01
DAV:   4    -0.105068222137E+04   -0.13490E+00   -0.13487E+00 24768   0.189E+00    0.346E+01
DAV:   5    -0.104136470270E+04    0.93175E+01   -0.20644E+01 24712   0.930E+00    0.196E+01
DAV:   6    -0.104129128303E+04    0.73420E-01   -0.14389E+01 25024   0.771E+00    0.559E+00
DAV:   7    -0.104185559148E+04   -0.56431E+00   -0.25141E+00 24336   0.335E+00    0.204E+00
DAV:   8    -0.104186603457E+04   -0.10443E-01   -0.20993E-01 24392   0.980E-01    0.899E-01
DAV:   9    -0.104186360405E+04    0.24305E-02   -0.56520E-02 24176   0.582E-01    0.307E-01
DAV:  10    -0.104186211707E+04    0.14870E-02   -0.10988E-02 25160   0.299E-01    0.152E-01
DAV:  11    -0.104186090449E+04    0.12126E-02   -0.51450E-03 24040   0.179E-01    0.104E-01
DAV:  12    -0.104185934382E+04    0.15607E-02   -0.12865E-03 23672   0.168E-01    0.473E-02
DAV:  13    -0.104185881937E+04    0.52446E-03   -0.12351E-03 24056   0.122E-01    0.539E-02
DAV:  14    -0.104185872667E+04    0.92700E-04   -0.87302E-04 24936   0.773E-02
   2242 T=   252. E= -.10499362E+04 F= -.10570736E+04 E0= -.10570736E+04  EK= 0.71374E+01 SP= 0.00E+00 SK= 0.00E+00
   2243 T=   250. E= -.10498218E+04 F= -.10568999E+04 E0= -.10568999E+04  EK= 0.70781E+01 SP= 0.00E+00 SK= 0.00E+00
   2244 T=   248. E= -.10497470E+04 F= -.10567655E+04 E0= -.10567655E+04  EK= 0.70185E+01 SP= 0.00E+00 SK= 0.00E+00
   2245 T=   247. E= -.10497174E+04 F= -.10566998E+04 E0= -.10566998E+04  EK= 0.69824E+01 SP= 0.00E+00 SK= 0.00E+00
   2246 T=   243. E= -.10497357E+04 F= -.10566222E+04 E0= -.10566222E+04  EK= 0.68865E+01 SP= 0.00E+00 SK= 0.00E+00
   2247 T=   241. E= -.10497111E+04 F= -.10565305E+04 E0= -.10565305E+04  EK= 0.68194E+01 SP= 0.00E+00 SK= 0.00E+00
   2248 T=   240. E= -.10496774E+04 F= -.10564709E+04 E0= -.10564709E+04  EK= 0.67934E+01 SP= 0.00E+00 SK= 0.00E+00
   2249 T=   240. E= -.10496428E+04 F= -.10564479E+04 E0= -.10564479E+04  EK= 0.68052E+01 SP= 0.00E+00 SK= 0.00E+00
   2250 T=   246. E= -.10495890E+04 F= -.10565398E+04 E0= -.10565398E+04  EK= 0.69508E+01 SP= 0.00E+00 SK= 0.00E+00
   2251 T=   248. E= -.10496253E+04 F= -.10566494E+04 E0= -.10566494E+04  EK= 0.70242E+01 SP= 0.00E+00 SK= 0.00E+00
       N       E                     dE             d eps       ncg     rms          rms(c)
DAV:   1    -0.103464744227E+04    0.72114E+01   -0.29872E+03 20644   0.101E+02
DAV:   2    -0.104239437516E+04   -0.77469E+01   -0.77449E+01 25008   0.148E+01
DAV:   3    -0.104246349965E+04   -0.69124E-01   -0.69120E-01 24968   0.145E+00
DAV:   4    -0.104246490801E+04   -0.14084E-02   -0.14083E-02 24992   0.203E-01    0.112E+01
DAV:   5    -0.104141637725E+04    0.10485E+01   -0.20725E+00 25936   0.379E+00    0.611E+00
DAV:   6    -0.104141311152E+04    0.32657E-02   -0.15977E+00 24904   0.281E+00    0.183E+00
DAV:   7    -0.104145123612E+04   -0.38125E-01   -0.29469E-01 24568   0.129E+00    0.613E-01
DAV:   8    -0.104144971756E+04    0.15186E-02   -0.27028E-02 23824   0.412E-01    0.304E-01
DAV:   9    -0.104144888315E+04    0.83441E-03   -0.13570E-02 23776   0.270E-01    0.170E-01
DAV:  10    -0.104144792975E+04    0.95340E-03   -0.29027E-03 28616   0.174E-01    0.535E-02
DAV:  11    -0.104144771101E+04    0.21874E-03   -0.11044E-03 23408   0.774E-02    0.460E-02
DAV:  12    -0.104144747336E+04    0.23766E-03   -0.20262E-04 18200   0.645E-02    0.185E-02
DAV:  13    -0.104144741259E+04    0.60763E-04   -0.28498E-04 19632   0.476E-02
   2252 T=   248. E= -.10497057E+04 F= -.10567226E+04 E0= -.10567226E+04  EK= 0.70169E+01 SP= 0.00E+00 SK= 0.00E+00
   2253 T=   248. E= -.10496561E+04 F= -.10566649E+04 E0= -.10566649E+04  EK= 0.70088E+01 SP= 0.00E+00 SK= 0.00E+00
   2254 T=   246. E= -.10496764E+04 F= -.10566359E+04 E0= -.10566359E+04  EK= 0.69594E+01 SP= 0.00E+00 SK= 0.00E+00
   2255 T=   246. E= -.10496459E+04 F= -.10566076E+04 E0= -.10566076E+04  EK= 0.69617E+01 SP= 0.00E+00 SK= 0.00E+00
   2256 T=   246. E= -.10496397E+04 F= -.10565979E+04 E0= -.10565979E+04  EK= 0.69582E+01 SP= 0.00E+00 SK= 0.00E+00
   2257 T=   246. E= -.10496272E+04 F= -.10565962E+04 E0= -.10565962E+04  EK= 0.69690E+01 SP= 0.00E+00 SK= 0.00E+00
   2258 T=   245. E= -.10496371E+04 F= -.10565838E+04 E0= -.10565838E+04  EK= 0.69468E+01 SP= 0.00E+00 SK= 0.00E+00
   2259 T=   243. E= -.10497185E+04 F= -.10565844E+04 E0= -.10565844E+04  EK= 0.68659E+01 SP= 0.00E+00 SK= 0.00E+00
   2260 T=   237. E= -.10498305E+04 F= -.10565270E+04 E0= -.10565270E+04  EK= 0.66965E+01 SP= 0.00E+00 SK= 0.00E+00
   2261 T=   233. E= -.10497946E+04 F= -.10563857E+04 E0= -.10563857E+04  EK= 0.65911E+01 SP= 0.00E+00 SK= 0.00E+00
   2262 T=   226. E= -.10497292E+04 F= -.10561404E+04 E0= -.10561404E+04  EK= 0.64113E+01 SP= 0.00E+00 SK= 0.00E+00
   2263 T=   217. E= -.10497950E+04 F= -.10559322E+04 E0= -.10559322E+04  EK= 0.61373E+01 SP= 0.00E+00 SK= 0.00E+00
   2264 T=   217. E= -.10497192E+04 F= -.10558522E+04 E0= -.10558522E+04  EK= 0.61330E+01 SP= 0.00E+00 SK= 0.00E+00
   2265 T=   224. E= -.10496194E+04 F= -.10559517E+04 E0= -.10559517E+04  EK= 0.63323E+01 SP= 0.00E+00 SK= 0.00E+00
   2266 T=   233. E= -.10495404E+04 F= -.10561222E+04 E0= -.10561222E+04  EK= 0.65819E+01 SP= 0.00E+00 SK= 0.00E+00
   2267 T=   240. E= -.10494887E+04 F= -.10562910E+04 E0= -.10562910E+04  EK= 0.68023E+01 SP= 0.00E+00 SK= 0.00E+00
   2268 T=   242. E= -.10495382E+04 F= -.10563939E+04 E0= -.10563939E+04  EK= 0.68556E+01 SP= 0.00E+00 SK= 0.00E+00
   2269 T=   238. E= -.10496176E+04 F= -.10563663E+04 E0= -.10563663E+04  EK= 0.67487E+01 SP= 0.00E+00 SK= 0.00E+00
   2270 T=   235. E= -.10496135E+04 F= -.10562526E+04 E0= -.10562526E+04  EK= 0.66391E+01 SP= 0.00E+00 SK= 0.00E+00
   2271 T=   233. E= -.10495488E+04 F= -.10561496E+04 E0= -.10561496E+04  EK= 0.66007E+01 SP= 0.00E+00 SK= 0.00E+00
   2272 T=   234. E= -.10495347E+04 F= -.10561558E+04 E0= -.10561558E+04  EK= 0.66211E+01 SP= 0.00E+00 SK= 0.00E+00
   2273 T=   237. E= -.10495788E+04 F= -.10562880E+04 E0= -.10562880E+04  EK= 0.67092E+01 SP= 0.00E+00 SK= 0.00E+00
   2274 T=   245. E= -.10496076E+04 F= -.10565365E+04 E0= -.10565365E+04  EK= 0.69288E+01 SP= 0.00E+00 SK= 0.00E+00
   2275 T=   255. E= -.10495494E+04 F= -.10567692E+04 E0= -.10567692E+04  EK= 0.72197E+01 SP= 0.00E+00 SK= 0.00E+00
   2276 T=   258. E= -.10495107E+04 F= -.10568132E+04 E0= -.10568132E+04  EK= 0.73025E+01 SP= 0.00E+00 SK= 0.00E+00
   2277 T=   251. E= -.10495491E+04 F= -.10566452E+04 E0= -.10566452E+04  EK= 0.70961E+01 SP= 0.00E+00 SK= 0.00E+00
   2278 T=   244. E= -.10495403E+04 F= -.10564413E+04 E0= -.10564413E+04  EK= 0.69010E+01 SP= 0.00E+00 SK= 0.00E+00
   2279 T=   238. E= -.10495781E+04 F= -.10563273E+04 E0= -.10563273E+04  EK= 0.67492E+01 SP= 0.00E+00 SK= 0.00E+00
   2280 T=   239. E= -.10495827E+04 F= -.10563480E+04 E0= -.10563480E+04  EK= 0.67653E+01 SP= 0.00E+00 SK= 0.00E+00
   2281 T=   243. E= -.10495584E+04 F= -.10564419E+04 E0= -.10564419E+04  EK= 0.68835E+01 SP= 0.00E+00 SK= 0.00E+00
   2282 T=   246. E= -.10495933E+04 F= -.10565593E+04 E0= -.10565593E+04  EK= 0.69660E+01 SP= 0.00E+00 SK= 0.00E+00
   2283 T=   248. E= -.10496032E+04 F= -.10566280E+04 E0= -.10566280E+04  EK= 0.70248E+01 SP= 0.00E+00 SK= 0.00E+00
   2284 T=   246. E= -.10496272E+04 F= -.10565794E+04 E0= -.10565794E+04  EK= 0.69523E+01 SP= 0.00E+00 SK= 0.00E+00
   2285 T=   238. E= -.10496950E+04 F= -.10564433E+04 E0= -.10564433E+04  EK= 0.67483E+01 SP= 0.00E+00 SK= 0.00E+00
   2286 T=   232. E= -.10497492E+04 F= -.10563182E+04 E0= -.10563182E+04  EK= 0.65690E+01 SP= 0.00E+00 SK= 0.00E+00
   2287 T=   236. E= -.10496129E+04 F= -.10563035E+04 E0= -.10563035E+04  EK= 0.66905E+01 SP= 0.00E+00 SK= 0.00E+00
   2288 T=   246. E= -.10495043E+04 F= -.10564737E+04 E0= -.10564737E+04  EK= 0.69693E+01 SP= 0.00E+00 SK= 0.00E+00
   2289 T=   254. E= -.10494866E+04 F= -.10566707E+04 E0= -.10566707E+04  EK= 0.71841E+01 SP= 0.00E+00 SK= 0.00E+00
   2290 T=   260. E= -.10494666E+04 F= -.10568359E+04 E0= -.10568359E+04  EK= 0.73693E+01 SP= 0.00E+00 SK= 0.00E+00
   2291 T=   258. E= -.10495065E+04 F= -.10568060E+04 E0= -.10568060E+04  EK= 0.72995E+01 SP= 0.00E+00 SK= 0.00E+00
   2292 T=   250. E= -.10495519E+04 F= -.10566372E+04 E0= -.10566372E+04  EK= 0.70853E+01 SP= 0.00E+00 SK= 0.00E+00
   2293 T=   239. E= -.10496143E+04 F= -.10563870E+04 E0= -.10563870E+04  EK= 0.67728E+01 SP= 0.00E+00 SK= 0.00E+00
   2294 T=   229. E= -.10496938E+04 F= -.10561852E+04 E0= -.10561852E+04  EK= 0.64915E+01 SP= 0.00E+00 SK= 0.00E+00
   2295 T=   227. E= -.10496855E+04 F= -.10561047E+04 E0= -.10561047E+04  EK= 0.64192E+01 SP= 0.00E+00 SK= 0.00E+00
   2296 T=   230. E= -.10496087E+04 F= -.10561232E+04 E0= -.10561232E+04  EK= 0.65145E+01 SP= 0.00E+00 SK= 0.00E+00
   2297 T=   233. E= -.10495949E+04 F= -.10561845E+04 E0= -.10561845E+04  EK= 0.65896E+01 SP= 0.00E+00 SK= 0.00E+00
   2298 T=   236. E= -.10495644E+04 F= -.10562380E+04 E0= -.10562380E+04  EK= 0.66736E+01 SP= 0.00E+00 SK= 0.00E+00
   2299 T=   235. E= -.10495422E+04 F= -.10562076E+04 E0= -.10562076E+04  EK= 0.66654E+01 SP= 0.00E+00 SK= 0.00E+00
   2300 T=   233. E= -.10494939E+04 F= -.10560972E+04 E0= -.10560972E+04  EK= 0.66033E+01 SP= 0.00E+00 SK= 0.00E+00
   2301 T=   233. E= -.10493743E+04 F= -.10559676E+04 E0= -.10559676E+04  EK= 0.65932E+01 SP= 0.00E+00 SK= 0.00E+00
   2302 T=   231. E= -.10493638E+04 F= -.10558901E+04 E0= -.10558901E+04  EK= 0.65264E+01 SP= 0.00E+00 SK= 0.00E+00
   2303 T=   229. E= -.10493862E+04 F= -.10558675E+04 E0= -.10558675E+04  EK= 0.64813E+01 SP= 0.00E+00 SK= 0.00E+00
   2304 T=   231. E= -.10493407E+04 F= -.10558773E+04 E0= -.10558773E+04  EK= 0.65366E+01 SP= 0.00E+00 SK= 0.00E+00
   2305 T=   230. E= -.10494115E+04 F= -.10559220E+04 E0= -.10559220E+04  EK= 0.65106E+01 SP= 0.00E+00 SK= 0.00E+00
   2306 T=   231. E= -.10494547E+04 F= -.10560023E+04 E0= -.10560023E+04  EK= 0.65477E+01 SP= 0.00E+00 SK= 0.00E+00
   2307 T=   234. E= -.10495030E+04 F= -.10561257E+04 E0= -.10561257E+04  EK= 0.66228E+01 SP= 0.00E+00 SK= 0.00E+00
   2308 T=   234. E= -.10495774E+04 F= -.10562113E+04 E0= -.10562113E+04  EK= 0.66339E+01 SP= 0.00E+00 SK= 0.00E+00
   2309 T=   235. E= -.10495622E+04 F= -.10562169E+04 E0= -.10562169E+04  EK= 0.66547E+01 SP= 0.00E+00 SK= 0.00E+00
   2310 T=   234. E= -.10494731E+04 F= -.10560880E+04 E0= -.10560880E+04  EK= 0.66150E+01 SP= 0.00E+00 SK= 0.00E+00
   2311 T=   231. E= -.10493585E+04 F= -.10559015E+04 E0= -.10559015E+04  EK= 0.65430E+01 SP= 0.00E+00 SK= 0.00E+00
   2312 T=   226. E= -.10493966E+04 F= -.10557813E+04 E0= -.10557813E+04  EK= 0.63847E+01 SP= 0.00E+00 SK= 0.00E+00
   2313 T=   222. E= -.10494729E+04 F= -.10557686E+04 E0= -.10557686E+04  EK= 0.62957E+01 SP= 0.00E+00 SK= 0.00E+00
   2314 T=   227. E= -.10494859E+04 F= -.10559020E+04 E0= -.10559020E+04  EK= 0.64161E+01 SP= 0.00E+00 SK= 0.00E+00
   2315 T=   236. E= -.10494743E+04 F= -.10561415E+04 E0= -.10561415E+04  EK= 0.66672E+01 SP= 0.00E+00 SK= 0.00E+00
   2316 T=   244. E= -.10494826E+04 F= -.10563904E+04 E0= -.10563904E+04  EK= 0.69078E+01 SP= 0.00E+00 SK= 0.00E+00
   2317 T=   253. E= -.10494593E+04 F= -.10566106E+04 E0= -.10566106E+04  EK= 0.71513E+01 SP= 0.00E+00 SK= 0.00E+00
   2318 T=   256. E= -.10494304E+04 F= -.10566876E+04 E0= -.10566876E+04  EK= 0.72572E+01 SP= 0.00E+00 SK= 0.00E+00
   2319 T=   252. E= -.10493904E+04 F= -.10565381E+04 E0= -.10565381E+04  EK= 0.71477E+01 SP= 0.00E+00 SK= 0.00E+00
   2320 T=   245. E= -.10493869E+04 F= -.10563140E+04 E0= -.10563140E+04  EK= 0.69270E+01 SP= 0.00E+00 SK= 0.00E+00
   2321 T=   239. E= -.10494612E+04 F= -.10562309E+04 E0= -.10562309E+04  EK= 0.67697E+01 SP= 0.00E+00 SK= 0.00E+00
   2322 T=   248. E= -.10494213E+04 F= -.10564454E+04 E0= -.10564454E+04  EK= 0.70242E+01 SP= 0.00E+00 SK= 0.00E+00
   2323 T=   263. E= -.10493818E+04 F= -.10568128E+04 E0= -.10568128E+04  EK= 0.74310E+01 SP= 0.00E+00 SK= 0.00E+00
   2324 T=   270. E= -.10494410E+04 F= -.10570748E+04 E0= -.10570748E+04  EK= 0.76338E+01 SP= 0.00E+00 SK= 0.00E+00
   2325 T=   267. E= -.10495070E+04 F= -.10570677E+04 E0= -.10570677E+04  EK= 0.75607E+01 SP= 0.00E+00 SK= 0.00E+00
   2326 T=   259. E= -.10495101E+04 F= -.10568467E+04 E0= -.10568467E+04  EK= 0.73366E+01 SP= 0.00E+00 SK= 0.00E+00
   2327 T=   252. E= -.10494766E+04 F= -.10566062E+04 E0= -.10566062E+04  EK= 0.71297E+01 SP= 0.00E+00 SK= 0.00E+00
   2328 T=   247. E= -.10494786E+04 F= -.10564726E+04 E0= -.10564726E+04  EK= 0.69940E+01 SP= 0.00E+00 SK= 0.00E+00
   2329 T=   248. E= -.10494975E+04 F= -.10565141E+04 E0= -.10565141E+04  EK= 0.70166E+01 SP= 0.00E+00 SK= 0.00E+00
   2330 T=   256. E= -.10494706E+04 F= -.10567141E+04 E0= -.10567141E+04  EK= 0.72435E+01 SP= 0.00E+00 SK= 0.00E+00
   2331 T=   267. E= -.10494511E+04 F= -.10570117E+04 E0= -.10570117E+04  EK= 0.75606E+01 SP= 0.00E+00 SK= 0.00E+00
   2332 T=   276. E= -.10494089E+04 F= -.10572156E+04 E0= -.10572156E+04  EK= 0.78066E+01 SP= 0.00E+00 SK= 0.00E+00
   2333 T=   277. E= -.10493689E+04 F= -.10571972E+04 E0= -.10571972E+04  EK= 0.78283E+01 SP= 0.00E+00 SK= 0.00E+00
   2334 T=   264. E= -.10494045E+04 F= -.10568768E+04 E0= -.10568768E+04  EK= 0.74723E+01 SP= 0.00E+00 SK= 0.00E+00
   2335 T=   249. E= -.10494122E+04 F= -.10564584E+04 E0= -.10564584E+04  EK= 0.70462E+01 SP= 0.00E+00 SK= 0.00E+00
   2336 T=   239. E= -.10494381E+04 F= -.10561910E+04 E0= -.10561910E+04  EK= 0.67528E+01 SP= 0.00E+00 SK= 0.00E+00
   2337 T=   234. E= -.10495821E+04 F= -.10562023E+04 E0= -.10562023E+04  EK= 0.66202E+01 SP= 0.00E+00 SK= 0.00E+00
   2338 T=   238. E= -.10497234E+04 F= -.10564632E+04 E0= -.10564632E+04  EK= 0.67399E+01 SP= 0.00E+00 SK= 0.00E+00
   2339 T=   246. E= -.10497957E+04 F= -.10567496E+04 E0= -.10567496E+04  EK= 0.69539E+01 SP= 0.00E+00 SK= 0.00E+00
   2340 T=   254. E= -.10497481E+04 F= -.10569358E+04 E0= -.10569358E+04  EK= 0.71877E+01 SP= 0.00E+00 SK= 0.00E+00
   2341 T=   253. E= -.10497271E+04 F= -.10568885E+04 E0= -.10568885E+04  EK= 0.71614E+01 SP= 0.00E+00 SK= 0.00E+00
   2342 T=   242. E= -.10498129E+04 F= -.10566499E+04 E0= -.10566499E+04  EK= 0.68370E+01 SP= 0.00E+00 SK= 0.00E+00
   2343 T=   231. E= -.10498636E+04 F= -.10564001E+04 E0= -.10564001E+04  EK= 0.65365E+01 SP= 0.00E+00 SK= 0.00E+00
   2344 T=   228. E= -.10498115E+04 F= -.10562709E+04 E0= -.10562709E+04  EK= 0.64594E+01 SP= 0.00E+00 SK= 0.00E+00
   2345 T=   233. E= -.10497767E+04 F= -.10563753E+04 E0= -.10563753E+04  EK= 0.65987E+01 SP= 0.00E+00 SK= 0.00E+00
   2346 T=   244. E= -.10497461E+04 F= -.10566417E+04 E0= -.10566417E+04  EK= 0.68956E+01 SP= 0.00E+00 SK= 0.00E+00
   2347 T=   258. E= -.10496998E+04 F= -.10570032E+04 E0= -.10570032E+04  EK= 0.73034E+01 SP= 0.00E+00 SK= 0.00E+00
   2348 T=   264. E= -.10497255E+04 F= -.10571967E+04 E0= -.10571967E+04  EK= 0.74712E+01 SP= 0.00E+00 SK= 0.00E+00
   2349 T=   262. E= -.10497211E+04 F= -.10571431E+04 E0= -.10571431E+04  EK= 0.74220E+01 SP= 0.00E+00 SK= 0.00E+00
   2350 T=   253. E= -.10497378E+04 F= -.10569064E+04 E0= -.10569064E+04  EK= 0.71686E+01 SP= 0.00E+00 SK= 0.00E+00
   2351 T=   240. E= -.10498745E+04 F= -.10566818E+04 E0= -.10566818E+04  EK= 0.68073E+01 SP= 0.00E+00 SK= 0.00E+00
   2352 T=   236. E= -.10498998E+04 F= -.10565895E+04 E0= -.10565895E+04  EK= 0.66897E+01 SP= 0.00E+00 SK= 0.00E+00
   2353 T=   245. E= -.10497422E+04 F= -.10566805E+04 E0= -.10566805E+04  EK= 0.69383E+01 SP= 0.00E+00 SK= 0.00E+00
   2354 T=   252. E= -.10496726E+04 F= -.10568103E+04 E0= -.10568103E+04  EK= 0.71378E+01 SP= 0.00E+00 SK= 0.00E+00
   2355 T=   254. E= -.10496998E+04 F= -.10568856E+04 E0= -.10568856E+04  EK= 0.71858E+01 SP= 0.00E+00 SK= 0.00E+00
   2356 T=   254. E= -.10497241E+04 F= -.10569156E+04 E0= -.10569156E+04  EK= 0.71915E+01 SP= 0.00E+00 SK= 0.00E+00
   2357 T=   252. E= -.10497268E+04 F= -.10568742E+04 E0= -.10568742E+04  EK= 0.71475E+01 SP= 0.00E+00 SK= 0.00E+00
   2358 T=   248. E= -.10497645E+04 F= -.10567782E+04 E0= -.10567782E+04  EK= 0.70136E+01 SP= 0.00E+00 SK= 0.00E+00
   2359 T=   244. E= -.10497904E+04 F= -.10567076E+04 E0= -.10567076E+04  EK= 0.69172E+01 SP= 0.00E+00 SK= 0.00E+00
   2360 T=   247. E= -.10497314E+04 F= -.10567177E+04 E0= -.10567177E+04  EK= 0.69863E+01 SP= 0.00E+00 SK= 0.00E+00
   2361 T=   250. E= -.10497134E+04 F= -.10567768E+04 E0= -.10567768E+04  EK= 0.70634E+01 SP= 0.00E+00 SK= 0.00E+00
   2362 T=   252. E= -.10496976E+04 F= -.10568323E+04 E0= -.10568323E+04  EK= 0.71347E+01 SP= 0.00E+00 SK= 0.00E+00
   2363 T=   253. E= -.10497084E+04 F= -.10568576E+04 E0= -.10568576E+04  EK= 0.71492E+01 SP= 0.00E+00 SK= 0.00E+00
   2364 T=   252. E= -.10497204E+04 F= -.10568509E+04 E0= -.10568509E+04  EK= 0.71305E+01 SP= 0.00E+00 SK= 0.00E+00
   2365 T=   254. E= -.10496540E+04 F= -.10568380E+04 E0= -.10568380E+04  EK= 0.71840E+01 SP= 0.00E+00 SK= 0.00E+00
   2366 T=   256. E= -.10495617E+04 F= -.10568134E+04 E0= -.10568134E+04  EK= 0.72517E+01 SP= 0.00E+00 SK= 0.00E+00
   2367 T=   257. E= -.10494793E+04 F= -.10567591E+04 E0= -.10567591E+04  EK= 0.72797E+01 SP= 0.00E+00 SK= 0.00E+00
   2368 T=   256. E= -.10493460E+04 F= -.10566006E+04 E0= -.10566006E+04  EK= 0.72547E+01 SP= 0.00E+00 SK= 0.00E+00
   2369 T=   252. E= -.10492923E+04 F= -.10564328E+04 E0= -.10564328E+04  EK= 0.71405E+01 SP= 0.00E+00 SK= 0.00E+00
   2370 T=   246. E= -.10493490E+04 F= -.10563051E+04 E0= -.10563051E+04  EK= 0.69561E+01 SP= 0.00E+00 SK= 0.00E+00
   2371 T=   243. E= -.10494118E+04 F= -.10562824E+04 E0= -.10562824E+04  EK= 0.68706E+01 SP= 0.00E+00 SK= 0.00E+00
   2372 T=   242. E= -.10494869E+04 F= -.10563351E+04 E0= -.10563351E+04  EK= 0.68482E+01 SP= 0.00E+00 SK= 0.00E+00
   2373 T=   244. E= -.10495019E+04 F= -.10564126E+04 E0= -.10564126E+04  EK= 0.69107E+01 SP= 0.00E+00 SK= 0.00E+00
   2374 T=   247. E= -.10494528E+04 F= -.10564416E+04 E0= -.10564416E+04  EK= 0.69888E+01 SP= 0.00E+00 SK= 0.00E+00
   2375 T=   245. E= -.10494863E+04 F= -.10564257E+04 E0= -.10564257E+04  EK= 0.69395E+01 SP= 0.00E+00 SK= 0.00E+00
   2376 T=   241. E= -.10495360E+04 F= -.10563496E+04 E0= -.10563496E+04  EK= 0.68136E+01 SP= 0.00E+00 SK= 0.00E+00
   2377 T=   243. E= -.10494826E+04 F= -.10563668E+04 E0= -.10563668E+04  EK= 0.68842E+01 SP= 0.00E+00 SK= 0.00E+00
   2378 T=   247. E= -.10494603E+04 F= -.10564409E+04 E0= -.10564409E+04  EK= 0.69806E+01 SP= 0.00E+00 SK= 0.00E+00
   2379 T=   250. E= -.10494734E+04 F= -.10565376E+04 E0= -.10565376E+04  EK= 0.70642E+01 SP= 0.00E+00 SK= 0.00E+00
   2380 T=   252. E= -.10495070E+04 F= -.10566357E+04 E0= -.10566357E+04  EK= 0.71287E+01 SP= 0.00E+00 SK= 0.00E+00
   2381 T=   251. E= -.10495875E+04 F= -.10566952E+04 E0= -.10566952E+04  EK= 0.71077E+01 SP= 0.00E+00 SK= 0.00E+00
   2382 T=   255. E= -.10495481E+04 F= -.10567556E+04 E0= -.10567556E+04  EK= 0.72075E+01 SP= 0.00E+00 SK= 0.00E+00
   2383 T=   260. E= -.10494113E+04 F= -.10567623E+04 E0= -.10567623E+04  EK= 0.73510E+01 SP= 0.00E+00 SK= 0.00E+00
   2384 T=   257. E= -.10494266E+04 F= -.10567088E+04 E0= -.10567088E+04  EK= 0.72822E+01 SP= 0.00E+00 SK= 0.00E+00
   2385 T=   251. E= -.10495164E+04 F= -.10566227E+04 E0= -.10566227E+04  EK= 0.71063E+01 SP= 0.00E+00 SK= 0.00E+00
   2386 T=   248. E= -.10495206E+04 F= -.10565311E+04 E0= -.10565311E+04  EK= 0.70106E+01 SP= 0.00E+00 SK= 0.00E+00
   2387 T=   249. E= -.10494552E+04 F= -.10565090E+04 E0= -.10565090E+04  EK= 0.70538E+01 SP= 0.00E+00 SK= 0.00E+00
   2388 T=   251. E= -.10494305E+04 F= -.10565234E+04 E0= -.10565234E+04  EK= 0.70929E+01 SP= 0.00E+00 SK= 0.00E+00
   2389 T=   251. E= -.10494732E+04 F= -.10565705E+04 E0= -.10565705E+04  EK= 0.70973E+01 SP= 0.00E+00 SK= 0.00E+00
   2390 T=   250. E= -.10495425E+04 F= -.10566305E+04 E0= -.10566305E+04  EK= 0.70881E+01 SP= 0.00E+00 SK= 0.00E+00
   2391 T=   251. E= -.10496105E+04 F= -.10567272E+04 E0= -.10567272E+04  EK= 0.71167E+01 SP= 0.00E+00 SK= 0.00E+00
   2392 T=   250. E= -.10496905E+04 F= -.10567659E+04 E0= -.10567659E+04  EK= 0.70754E+01 SP= 0.00E+00 SK= 0.00E+00
   2393 T=   251. E= -.10496795E+04 F= -.10567901E+04 E0= -.10567901E+04  EK= 0.71107E+01 SP= 0.00E+00 SK= 0.00E+00
   2394 T=   254. E= -.10496050E+04 F= -.10567861E+04 E0= -.10567861E+04  EK= 0.71811E+01 SP= 0.00E+00 SK= 0.00E+00
   2395 T=   250. E= -.10496769E+04 F= -.10567555E+04 E0= -.10567555E+04  EK= 0.70786E+01 SP= 0.00E+00 SK= 0.00E+00
   2396 T=   251. E= -.10496438E+04 F= -.10567432E+04 E0= -.10567432E+04  EK= 0.70995E+01 SP= 0.00E+00 SK= 0.00E+00
   2397 T=   257. E= -.10495118E+04 F= -.10567774E+04 E0= -.10567774E+04  EK= 0.72655E+01 SP= 0.00E+00 SK= 0.00E+00
   2398 T=   259. E= -.10494847E+04 F= -.10568301E+04 E0= -.10568301E+04  EK= 0.73454E+01 SP= 0.00E+00 SK= 0.00E+00
   2399 T=   257. E= -.10495601E+04 F= -.10568482E+04 E0= -.10568482E+04  EK= 0.72881E+01 SP= 0.00E+00 SK= 0.00E+00
   2400 T=   253. E= -.10496624E+04 F= -.10568227E+04 E0= -.10568227E+04  EK= 0.71603E+01 SP= 0.00E+00 SK= 0.00E+00
   2401 T=   248. E= -.10497237E+04 F= -.10567452E+04 E0= -.10567452E+04  EK= 0.70215E+01 SP= 0.00E+00 SK= 0.00E+00
   2402 T=   246. E= -.10497302E+04 F= -.10566958E+04 E0= -.10566958E+04  EK= 0.69655E+01 SP= 0.00E+00 SK= 0.00E+00
   2403 T=   250. E= -.10496406E+04 F= -.10567107E+04 E0= -.10567107E+04  EK= 0.70701E+01 SP= 0.00E+00 SK= 0.00E+00
   2404 T=   255. E= -.10494902E+04 F= -.10567227E+04 E0= -.10567227E+04  EK= 0.72325E+01 SP= 0.00E+00 SK= 0.00E+00
   2405 T=   256. E= -.10494428E+04 F= -.10566834E+04 E0= -.10566834E+04  EK= 0.72406E+01 SP= 0.00E+00 SK= 0.00E+00
   2406 T=   254. E= -.10494514E+04 F= -.10566278E+04 E0= -.10566278E+04  EK= 0.71763E+01 SP= 0.00E+00 SK= 0.00E+00
   2407 T=   254. E= -.10494301E+04 F= -.10566211E+04 E0= -.10566211E+04  EK= 0.71910E+01 SP= 0.00E+00 SK= 0.00E+00
   2408 T=   256. E= -.10494276E+04 F= -.10566767E+04 E0= -.10566767E+04  EK= 0.72491E+01 SP= 0.00E+00 SK= 0.00E+00
   2409 T=   258. E= -.10494226E+04 F= -.10567356E+04 E0= -.10567356E+04  EK= 0.73130E+01 SP= 0.00E+00 SK= 0.00E+00
   2410 T=   255. E= -.10494779E+04 F= -.10567092E+04 E0= -.10567092E+04  EK= 0.72313E+01 SP= 0.00E+00 SK= 0.00E+00
   2411 T=   247. E= -.10496152E+04 F= -.10566109E+04 E0= -.10566109E+04  EK= 0.69957E+01 SP= 0.00E+00 SK= 0.00E+00
   2412 T=   244. E= -.10496554E+04 F= -.10565507E+04 E0= -.10565507E+04  EK= 0.68953E+01 SP= 0.00E+00 SK= 0.00E+00
   2413 T=   242. E= -.10497054E+04 F= -.10565419E+04 E0= -.10565419E+04  EK= 0.68365E+01 SP= 0.00E+00 SK= 0.00E+00
   2414 T=   239. E= -.10498071E+04 F= -.10565775E+04 E0= -.10565775E+04  EK= 0.67704E+01 SP= 0.00E+00 SK= 0.00E+00
   2415 T=   242. E= -.10498263E+04 F= -.10566690E+04 E0= -.10566690E+04  EK= 0.68428E+01 SP= 0.00E+00 SK= 0.00E+00
   2416 T=   243. E= -.10498487E+04 F= -.10567350E+04 E0= -.10567350E+04  EK= 0.68863E+01 SP= 0.00E+00 SK= 0.00E+00
   2417 T=   243. E= -.10498605E+04 F= -.10567466E+04 E0= -.10567466E+04  EK= 0.68862E+01 SP= 0.00E+00 SK= 0.00E+00
   2418 T=   241. E= -.10498640E+04 F= -.10566941E+04 E0= -.10566941E+04  EK= 0.68301E+01 SP= 0.00E+00 SK= 0.00E+00
   2419 T=   238. E= -.10499111E+04 F= -.10566581E+04 E0= -.10566581E+04  EK= 0.67470E+01 SP= 0.00E+00 SK= 0.00E+00
   2420 T=   240. E= -.10499000E+04 F= -.10566846E+04 E0= -.10566846E+04  EK= 0.67846E+01 SP= 0.00E+00 SK= 0.00E+00
   2421 T=   241. E= -.10499707E+04 F= -.10567978E+04 E0= -.10567978E+04  EK= 0.68271E+01 SP= 0.00E+00 SK= 0.00E+00
   2422 T=   242. E= -.10501042E+04 F= -.10569560E+04 E0= -.10569560E+04  EK= 0.68518E+01 SP= 0.00E+00 SK= 0.00E+00
   2423 T=   248. E= -.10501057E+04 F= -.10571129E+04 E0= -.10571129E+04  EK= 0.70072E+01 SP= 0.00E+00 SK= 0.00E+00
   2424 T=   250. E= -.10501254E+04 F= -.10572130E+04 E0= -.10572130E+04  EK= 0.70876E+01 SP= 0.00E+00 SK= 0.00E+00
   2425 T=   248. E= -.10502276E+04 F= -.10572467E+04 E0= -.10572467E+04  EK= 0.70192E+01 SP= 0.00E+00 SK= 0.00E+00
   2426 T=   247. E= -.10502717E+04 F= -.10572524E+04 E0= -.10572524E+04  EK= 0.69807E+01 SP= 0.00E+00 SK= 0.00E+00
   2427 T=   245. E= -.10503436E+04 F= -.10572838E+04 E0= -.10572838E+04  EK= 0.69402E+01 SP= 0.00E+00 SK= 0.00E+00
   2428 T=   248. E= -.10503765E+04 F= -.10573885E+04 E0= -.10573885E+04  EK= 0.70120E+01 SP= 0.00E+00 SK= 0.00E+00
   2429 T=   258. E= -.10502395E+04 F= -.10575293E+04 E0= -.10575293E+04  EK= 0.72898E+01 SP= 0.00E+00 SK= 0.00E+00
   2430 T=   263. E= -.10502062E+04 F= -.10576412E+04 E0= -.10576412E+04  EK= 0.74350E+01 SP= 0.00E+00 SK= 0.00E+00
   2431 T=   261. E= -.10502934E+04 F= -.10576743E+04 E0= -.10576743E+04  EK= 0.73809E+01 SP= 0.00E+00 SK= 0.00E+00
   2432 T=   259. E= -.10503000E+04 F= -.10576293E+04 E0= -.10576293E+04  EK= 0.73293E+01 SP= 0.00E+00 SK= 0.00E+00
   2433 T=   258. E= -.10501874E+04 F= -.10575005E+04 E0= -.10575005E+04  EK= 0.73131E+01 SP= 0.00E+00 SK= 0.00E+00
   2434 T=   257. E= -.10501163E+04 F= -.10573911E+04 E0= -.10573911E+04  EK= 0.72749E+01 SP= 0.00E+00 SK= 0.00E+00
   2435 T=   255. E= -.10501328E+04 F= -.10573618E+04 E0= -.10573618E+04  EK= 0.72290E+01 SP= 0.00E+00 SK= 0.00E+00
   2436 T=   255. E= -.10501699E+04 F= -.10574004E+04 E0= -.10574004E+04  EK= 0.72306E+01 SP= 0.00E+00 SK= 0.00E+00
   2437 T=   257. E= -.10502253E+04 F= -.10574864E+04 E0= -.10574864E+04  EK= 0.72611E+01 SP= 0.00E+00 SK= 0.00E+00
   2438 T=   259. E= -.10502144E+04 F= -.10575458E+04 E0= -.10575458E+04  EK= 0.73314E+01 SP= 0.00E+00 SK= 0.00E+00
   2439 T=   258. E= -.10502057E+04 F= -.10575082E+04 E0= -.10575082E+04  EK= 0.73025E+01 SP= 0.00E+00 SK= 0.00E+00
   2440 T=   251. E= -.10502547E+04 F= -.10573655E+04 E0= -.10573655E+04  EK= 0.71108E+01 SP= 0.00E+00 SK= 0.00E+00
   2441 T=   242. E= -.10503103E+04 F= -.10571624E+04 E0= -.10571624E+04  EK= 0.68521E+01 SP= 0.00E+00 SK= 0.00E+00
   2442 T=   233. E= -.10503933E+04 F= -.10569996E+04 E0= -.10569996E+04  EK= 0.66062E+01 SP= 0.00E+00 SK= 0.00E+00
   2443 T=   231. E= -.10504052E+04 F= -.10569475E+04 E0= -.10569475E+04  EK= 0.65423E+01 SP= 0.00E+00 SK= 0.00E+00
   2444 T=   233. E= -.10504203E+04 F= -.10570269E+04 E0= -.10570269E+04  EK= 0.66066E+01 SP= 0.00E+00 SK= 0.00E+00
   2445 T=   236. E= -.10504502E+04 F= -.10571398E+04 E0= -.10571398E+04  EK= 0.66895E+01 SP= 0.00E+00 SK= 0.00E+00
   2446 T=   239. E= -.10503744E+04 F= -.10571456E+04 E0= -.10571456E+04  EK= 0.67712E+01 SP= 0.00E+00 SK= 0.00E+00
   2447 T=   237. E= -.10503003E+04 F= -.10569982E+04 E0= -.10569982E+04  EK= 0.66979E+01 SP= 0.00E+00 SK= 0.00E+00
   2448 T=   228. E= -.10502464E+04 F= -.10567089E+04 E0= -.10567089E+04  EK= 0.64625E+01 SP= 0.00E+00 SK= 0.00E+00
   2449 T=   221. E= -.10502039E+04 F= -.10564691E+04 E0= -.10564691E+04  EK= 0.62653E+01 SP= 0.00E+00 SK= 0.00E+00
   2450 T=   221. E= -.10501929E+04 F= -.10564440E+04 E0= -.10564440E+04  EK= 0.62511E+01 SP= 0.00E+00 SK= 0.00E+00
   2451 T=   228. E= -.10501368E+04 F= -.10565993E+04 E0= -.10565993E+04  EK= 0.64625E+01 SP= 0.00E+00 SK= 0.00E+00
   2452 T=   241. E= -.10499913E+04 F= -.10568040E+04 E0= -.10568040E+04  EK= 0.68127E+01 SP= 0.00E+00 SK= 0.00E+00
   2453 T=   246. E= -.10499645E+04 F= -.10569233E+04 E0= -.10569233E+04  EK= 0.69588E+01 SP= 0.00E+00 SK= 0.00E+00
   2454 T=   243. E= -.10499839E+04 F= -.10568741E+04 E0= -.10568741E+04  EK= 0.68903E+01 SP= 0.00E+00 SK= 0.00E+00
   2455 T=   238. E= -.10499723E+04 F= -.10567132E+04 E0= -.10567132E+04  EK= 0.67409E+01 SP= 0.00E+00 SK= 0.00E+00
   2456 T=   235. E= -.10499260E+04 F= -.10565710E+04 E0= -.10565710E+04  EK= 0.66449E+01 SP= 0.00E+00 SK= 0.00E+00
   2457 T=   234. E= -.10498885E+04 F= -.10565059E+04 E0= -.10565059E+04  EK= 0.66174E+01 SP= 0.00E+00 SK= 0.00E+00
   2458 T=   234. E= -.10499407E+04 F= -.10565649E+04 E0= -.10565649E+04  EK= 0.66242E+01 SP= 0.00E+00 SK= 0.00E+00
   2459 T=   238. E= -.10499848E+04 F= -.10567158E+04 E0= -.10567158E+04  EK= 0.67310E+01 SP= 0.00E+00 SK= 0.00E+00
   2460 T=   241. E= -.10500373E+04 F= -.10568465E+04 E0= -.10568465E+04  EK= 0.68092E+01 SP= 0.00E+00 SK= 0.00E+00
   2461 T=   243. E= -.10500121E+04 F= -.10569004E+04 E0= -.10569004E+04  EK= 0.68883E+01 SP= 0.00E+00 SK= 0.00E+00
   2462 T=   240. E= -.10500305E+04 F= -.10568303E+04 E0= -.10568303E+04  EK= 0.67998E+01 SP= 0.00E+00 SK= 0.00E+00
   2463 T=   232. E= -.10501336E+04 F= -.10567010E+04 E0= -.10567010E+04  EK= 0.65674E+01 SP= 0.00E+00 SK= 0.00E+00
   2464 T=   225. E= -.10501669E+04 F= -.10565446E+04 E0= -.10565446E+04  EK= 0.63777E+01 SP= 0.00E+00 SK= 0.00E+00
   2465 T=   223. E= -.10501675E+04 F= -.10564755E+04 E0= -.10564755E+04  EK= 0.63080E+01 SP= 0.00E+00 SK= 0.00E+00
   2466 T=   222. E= -.10502148E+04 F= -.10565075E+04 E0= -.10565075E+04  EK= 0.62928E+01 SP= 0.00E+00 SK= 0.00E+00
   2467 T=   223. E= -.10502516E+04 F= -.10565633E+04 E0= -.10565633E+04  EK= 0.63116E+01 SP= 0.00E+00 SK= 0.00E+00
       N       E                     dE             d eps       ncg     rms          rms(c)
DAV:   1    -0.414755124058E+03    0.62669E+03   -0.55238E+04 20644   0.401E+02
DAV:   2    -0.103792103106E+04   -0.62317E+03   -0.60919E+03 24404   0.119E+02
DAV:   3    -0.105477888161E+04   -0.16858E+02   -0.16841E+02 25064   0.218E+01
DAV:   4    -0.105502301496E+04   -0.24413E+00   -0.24404E+00 24648   0.253E+00    0.398E+01
DAV:   5    -0.104048730337E+04    0.14536E+02   -0.37763E+01 24824   0.117E+01    0.219E+01
DAV:   6    -0.104077122968E+04   -0.28393E+00   -0.14569E+01 24672   0.755E+00    0.815E+00
DAV:   7    -0.104170912690E+04   -0.93790E+00   -0.29839E+00 24464   0.384E+00    0.221E+00
DAV:   8    -0.104173742307E+04   -0.28296E-01   -0.31025E-01 24128   0.123E+00    0.105E+00
DAV:   9    -0.104174133981E+04   -0.39167E-02   -0.10319E-01 24264   0.691E-01    0.353E-01
DAV:  10    -0.104173865840E+04    0.26814E-02   -0.15963E-02 25184   0.355E-01    0.183E-01
DAV:  11    -0.104173756303E+04    0.10954E-02   -0.84853E-03 23472   0.212E-01    0.127E-01
DAV:  12    -0.104173627041E+04    0.12926E-02   -0.99333E-04 25048   0.135E-01    0.514E-02
DAV:  13    -0.104173543153E+04    0.83889E-03   -0.13398E-03 22672   0.157E-01    0.532E-02
DAV:  14    -0.104173534740E+04    0.84131E-04   -0.11784E-03 25056   0.916E-02    0.314E-02
DAV:  15    -0.104173533546E+04    0.11939E-04   -0.20062E-04 18424   0.282E-02
   2468 T=   226. E= -.10502190E+04 F= -.10566127E+04 E0= -.10566127E+04  EK= 0.63937E+01 SP= 0.00E+00 SK= 0.00E+00
   2469 T=   226. E= -.10501588E+04 F= -.10565546E+04 E0= -.10565546E+04  EK= 0.63958E+01 SP= 0.00E+00 SK= 0.00E+00
   2470 T=   226. E= -.10501226E+04 F= -.10565229E+04 E0= -.10565229E+04  EK= 0.64003E+01 SP= 0.00E+00 SK= 0.00E+00
   2471 T=   231. E= -.10500016E+04 F= -.10565374E+04 E0= -.10565374E+04  EK= 0.65358E+01 SP= 0.00E+00 SK= 0.00E+00
   2472 T=   239. E= -.10498960E+04 F= -.10566730E+04 E0= -.10566730E+04  EK= 0.67771E+01 SP= 0.00E+00 SK= 0.00E+00
   2473 T=   247. E= -.10498938E+04 F= -.10568863E+04 E0= -.10568863E+04  EK= 0.69925E+01 SP= 0.00E+00 SK= 0.00E+00
   2474 T=   252. E= -.10498564E+04 F= -.10569898E+04 E0= -.10569898E+04  EK= 0.71335E+01 SP= 0.00E+00 SK= 0.00E+00
   2475 T=   251. E= -.10497987E+04 F= -.10568935E+04 E0= -.10568935E+04  EK= 0.70948E+01 SP= 0.00E+00 SK= 0.00E+00
   2476 T=   246. E= -.10497446E+04 F= -.10567057E+04 E0= -.10567057E+04  EK= 0.69610E+01 SP= 0.00E+00 SK= 0.00E+00
   2477 T=   240. E= -.10497415E+04 F= -.10565241E+04 E0= -.10565241E+04  EK= 0.67826E+01 SP= 0.00E+00 SK= 0.00E+00
   2478 T=   235. E= -.10498210E+04 F= -.10564875E+04 E0= -.10564875E+04  EK= 0.66665E+01 SP= 0.00E+00 SK= 0.00E+00
   2479 T=   239. E= -.10498295E+04 F= -.10565881E+04 E0= -.10565881E+04  EK= 0.67586E+01 SP= 0.00E+00 SK= 0.00E+00
   2480 T=   248. E= -.10497109E+04 F= -.10567429E+04 E0= -.10567429E+04  EK= 0.70320E+01 SP= 0.00E+00 SK= 0.00E+00
   2481 T=   255. E= -.10495996E+04 F= -.10568196E+04 E0= -.10568196E+04  EK= 0.72200E+01 SP= 0.00E+00 SK= 0.00E+00
   2482 T=   251. E= -.10496343E+04 F= -.10567472E+04 E0= -.10567472E+04  EK= 0.71128E+01 SP= 0.00E+00 SK= 0.00E+00
   2483 T=   242. E= -.10496706E+04 F= -.10565266E+04 E0= -.10565266E+04  EK= 0.68560E+01 SP= 0.00E+00 SK= 0.00E+00
   2484 T=   232. E= -.10496746E+04 F= -.10562410E+04 E0= -.10562410E+04  EK= 0.65665E+01 SP= 0.00E+00 SK= 0.00E+00
   2485 T=   229. E= -.10495909E+04 F= -.10560770E+04 E0= -.10560770E+04  EK= 0.64860E+01 SP= 0.00E+00 SK= 0.00E+00
   2486 T=   233. E= -.10495244E+04 F= -.10561226E+04 E0= -.10561226E+04  EK= 0.65982E+01 SP= 0.00E+00 SK= 0.00E+00
   2487 T=   241. E= -.10495679E+04 F= -.10563866E+04 E0= -.10563866E+04  EK= 0.68187E+01 SP= 0.00E+00 SK= 0.00E+00
   2488 T=   253. E= -.10495951E+04 F= -.10567712E+04 E0= -.10567712E+04  EK= 0.71761E+01 SP= 0.00E+00 SK= 0.00E+00
   2489 T=   262. E= -.10496017E+04 F= -.10570254E+04 E0= -.10570254E+04  EK= 0.74236E+01 SP= 0.00E+00 SK= 0.00E+00
   2490 T=   262. E= -.10495622E+04 F= -.10569656E+04 E0= -.10569656E+04  EK= 0.74034E+01 SP= 0.00E+00 SK= 0.00E+00
   2491 T=   252. E= -.10494951E+04 F= -.10566240E+04 E0= -.10566240E+04  EK= 0.71289E+01 SP= 0.00E+00 SK= 0.00E+00
   2492 T=   238. E= -.10494331E+04 F= -.10561802E+04 E0= -.10561802E+04  EK= 0.67471E+01 SP= 0.00E+00 SK= 0.00E+00
   2493 T=   230. E= -.10493633E+04 F= -.10558881E+04 E0= -.10558881E+04  EK= 0.65248E+01 SP= 0.00E+00 SK= 0.00E+00
   2494 T=   232. E= -.10492704E+04 F= -.10558407E+04 E0= -.10558407E+04  EK= 0.65703E+01 SP= 0.00E+00 SK= 0.00E+00
   2495 T=   240. E= -.10492445E+04 F= -.10560471E+04 E0= -.10560471E+04  EK= 0.68026E+01 SP= 0.00E+00 SK= 0.00E+00
   2496 T=   251. E= -.10491901E+04 F= -.10563070E+04 E0= -.10563070E+04  EK= 0.71169E+01 SP= 0.00E+00 SK= 0.00E+00
   2497 T=   263. E= -.10489901E+04 F= -.10564381E+04 E0= -.10564381E+04  EK= 0.74480E+01 SP= 0.00E+00 SK= 0.00E+00
   2498 T=   263. E= -.10488529E+04 F= -.10562843E+04 E0= -.10562843E+04  EK= 0.74314E+01 SP= 0.00E+00 SK= 0.00E+00
   2499 T=   249. E= -.10488272E+04 F= -.10558818E+04 E0= -.10558818E+04  EK= 0.70546E+01 SP= 0.00E+00 SK= 0.00E+00
   2500 T=   234. E= -.10487836E+04 F= -.10554185E+04 E0= -.10554185E+04  EK= 0.66348E+01 SP= 0.00E+00 SK= 0.00E+00
   2501 T=   228. E= -.10487266E+04 F= -.10551773E+04 E0= -.10551773E+04  EK= 0.64507E+01 SP= 0.00E+00 SK= 0.00E+00
   2502 T=   230. E= -.10487979E+04 F= -.10553002E+04 E0= -.10553002E+04  EK= 0.65023E+01 SP= 0.00E+00 SK= 0.00E+00
   2503 T=   240. E= -.10489134E+04 F= -.10557120E+04 E0= -.10557120E+04  EK= 0.67986E+01 SP= 0.00E+00 SK= 0.00E+00
   2504 T=   254. E= -.10489463E+04 F= -.10561249E+04 E0= -.10561249E+04  EK= 0.71786E+01 SP= 0.00E+00 SK= 0.00E+00
   2505 T=   256. E= -.10490197E+04 F= -.10562800E+04 E0= -.10562800E+04  EK= 0.72604E+01 SP= 0.00E+00 SK= 0.00E+00
   2506 T=   246. E= -.10491845E+04 F= -.10561360E+04 E0= -.10561360E+04  EK= 0.69515E+01 SP= 0.00E+00 SK= 0.00E+00
   2507 T=   232. E= -.10492847E+04 F= -.10558385E+04 E0= -.10558385E+04  EK= 0.65538E+01 SP= 0.00E+00 SK= 0.00E+00
   2508 T=   223. E= -.10493350E+04 F= -.10556548E+04 E0= -.10556548E+04  EK= 0.63198E+01 SP= 0.00E+00 SK= 0.00E+00
   2509 T=   226. E= -.10493176E+04 F= -.10557242E+04 E0= -.10557242E+04  EK= 0.64066E+01 SP= 0.00E+00 SK= 0.00E+00
   2510 T=   238. E= -.10492535E+04 F= -.10559906E+04 E0= -.10559906E+04  EK= 0.67372E+01 SP= 0.00E+00 SK= 0.00E+00
   2511 T=   247. E= -.10492949E+04 F= -.10562924E+04 E0= -.10562924E+04  EK= 0.69974E+01 SP= 0.00E+00 SK= 0.00E+00
   2512 T=   251. E= -.10493820E+04 F= -.10564823E+04 E0= -.10564823E+04  EK= 0.71004E+01 SP= 0.00E+00 SK= 0.00E+00
   2513 T=   251. E= -.10493529E+04 F= -.10564673E+04 E0= -.10564673E+04  EK= 0.71144E+01 SP= 0.00E+00 SK= 0.00E+00
   2514 T=   248. E= -.10492120E+04 F= -.10562267E+04 E0= -.10562267E+04  EK= 0.70147E+01 SP= 0.00E+00 SK= 0.00E+00
   2515 T=   237. E= -.10492314E+04 F= -.10559470E+04 E0= -.10559470E+04  EK= 0.67156E+01 SP= 0.00E+00 SK= 0.00E+00
   2516 T=   229. E= -.10492962E+04 F= -.10557769E+04 E0= -.10557769E+04  EK= 0.64807E+01 SP= 0.00E+00 SK= 0.00E+00
   2517 T=   231. E= -.10492982E+04 F= -.10558442E+04 E0= -.10558442E+04  EK= 0.65460E+01 SP= 0.00E+00 SK= 0.00E+00
   2518 T=   238. E= -.10493913E+04 F= -.10561236E+04 E0= -.10561236E+04  EK= 0.67323E+01 SP= 0.00E+00 SK= 0.00E+00
   2519 T=   245. E= -.10495343E+04 F= -.10564690E+04 E0= -.10564690E+04  EK= 0.69347E+01 SP= 0.00E+00 SK= 0.00E+00
   2520 T=   252. E= -.10495719E+04 F= -.10567052E+04 E0= -.10567052E+04  EK= 0.71333E+01 SP= 0.00E+00 SK= 0.00E+00
   2521 T=   252. E= -.10495934E+04 F= -.10567158E+04 E0= -.10567158E+04  EK= 0.71224E+01 SP= 0.00E+00 SK= 0.00E+00
   2522 T=   242. E= -.10496786E+04 F= -.10565406E+04 E0= -.10565406E+04  EK= 0.68619E+01 SP= 0.00E+00 SK= 0.00E+00
   2523 T=   237. E= -.10496926E+04 F= -.10563895E+04 E0= -.10563895E+04  EK= 0.66969E+01 SP= 0.00E+00 SK= 0.00E+00
   2524 T=   237. E= -.10496766E+04 F= -.10563805E+04 E0= -.10563805E+04  EK= 0.67039E+01 SP= 0.00E+00 SK= 0.00E+00
   2525 T=   243. E= -.10496792E+04 F= -.10565528E+04 E0= -.10565528E+04  EK= 0.68736E+01 SP= 0.00E+00 SK= 0.00E+00
   2526 T=   251. E= -.10496656E+04 F= -.10567775E+04 E0= -.10567775E+04  EK= 0.71119E+01 SP= 0.00E+00 SK= 0.00E+00
   2527 T=   256. E= -.10496369E+04 F= -.10568735E+04 E0= -.10568735E+04  EK= 0.72366E+01 SP= 0.00E+00 SK= 0.00E+00
   2528 T=   253. E= -.10496207E+04 F= -.10567850E+04 E0= -.10567850E+04  EK= 0.71643E+01 SP= 0.00E+00 SK= 0.00E+00
   2529 T=   247. E= -.10496383E+04 F= -.10566432E+04 E0= -.10566432E+04  EK= 0.70049E+01 SP= 0.00E+00 SK= 0.00E+00
   2530 T=   243. E= -.10496662E+04 F= -.10565508E+04 E0= -.10565508E+04  EK= 0.68846E+01 SP= 0.00E+00 SK= 0.00E+00
   2531 T=   241. E= -.10497545E+04 F= -.10565706E+04 E0= -.10565706E+04  EK= 0.68161E+01 SP= 0.00E+00 SK= 0.00E+00
   2532 T=   239. E= -.10498490E+04 F= -.10566097E+04 E0= -.10566097E+04  EK= 0.67607E+01 SP= 0.00E+00 SK= 0.00E+00
   2533 T=   240. E= -.10498432E+04 F= -.10566502E+04 E0= -.10566502E+04  EK= 0.68071E+01 SP= 0.00E+00 SK= 0.00E+00
   2534 T=   241. E= -.10498268E+04 F= -.10566568E+04 E0= -.10566568E+04  EK= 0.68299E+01 SP= 0.00E+00 SK= 0.00E+00
   2535 T=   241. E= -.10498051E+04 F= -.10566327E+04 E0= -.10566327E+04  EK= 0.68276E+01 SP= 0.00E+00 SK= 0.00E+00
   2536 T=   238. E= -.10497887E+04 F= -.10565364E+04 E0= -.10565364E+04  EK= 0.67477E+01 SP= 0.00E+00 SK= 0.00E+00
   2537 T=   235. E= -.10497475E+04 F= -.10564048E+04 E0= -.10564048E+04  EK= 0.66573E+01 SP= 0.00E+00 SK= 0.00E+00
   2538 T=   234. E= -.10497425E+04 F= -.10563693E+04 E0= -.10563693E+04  EK= 0.66268E+01 SP= 0.00E+00 SK= 0.00E+00
   2539 T=   237. E= -.10497703E+04 F= -.10564673E+04 E0= -.10564673E+04  EK= 0.66969E+01 SP= 0.00E+00 SK= 0.00E+00
   2540 T=   240. E= -.10498262E+04 F= -.10566125E+04 E0= -.10566125E+04  EK= 0.67863E+01 SP= 0.00E+00 SK= 0.00E+00
   2541 T=   242. E= -.10498510E+04 F= -.10566998E+04 E0= -.10566998E+04  EK= 0.68488E+01 SP= 0.00E+00 SK= 0.00E+00
   2542 T=   239. E= -.10499060E+04 F= -.10566668E+04 E0= -.10566668E+04  EK= 0.67608E+01 SP= 0.00E+00 SK= 0.00E+00
   2543 T=   231. E= -.10500049E+04 F= -.10565575E+04 E0= -.10565575E+04  EK= 0.65526E+01 SP= 0.00E+00 SK= 0.00E+00
   2544 T=   228. E= -.10500109E+04 F= -.10564709E+04 E0= -.10564709E+04  EK= 0.64600E+01 SP= 0.00E+00 SK= 0.00E+00
   2545 T=   227. E= -.10500636E+04 F= -.10564788E+04 E0= -.10564788E+04  EK= 0.64152E+01 SP= 0.00E+00 SK= 0.00E+00
   2546 T=   228. E= -.10501206E+04 F= -.10565797E+04 E0= -.10565797E+04  EK= 0.64590E+01 SP= 0.00E+00 SK= 0.00E+00
   2547 T=   231. E= -.10501474E+04 F= -.10566817E+04 E0= -.10566817E+04  EK= 0.65343E+01 SP= 0.00E+00 SK= 0.00E+00
   2548 T=   232. E= -.10501438E+04 F= -.10567091E+04 E0= -.10567091E+04  EK= 0.65652E+01 SP= 0.00E+00 SK= 0.00E+00
   2549 T=   230. E= -.10501705E+04 F= -.10566954E+04 E0= -.10566954E+04  EK= 0.65249E+01 SP= 0.00E+00 SK= 0.00E+00
   2550 T=   228. E= -.10501895E+04 F= -.10566478E+04 E0= -.10566478E+04  EK= 0.64582E+01 SP= 0.00E+00 SK= 0.00E+00
   2551 T=   227. E= -.10501399E+04 F= -.10565628E+04 E0= -.10565628E+04  EK= 0.64229E+01 SP= 0.00E+00 SK= 0.00E+00
   2552 T=   225. E= -.10501003E+04 F= -.10564687E+04 E0= -.10564687E+04  EK= 0.63684E+01 SP= 0.00E+00 SK= 0.00E+00
   2553 T=   224. E= -.10500663E+04 F= -.10564064E+04 E0= -.10564064E+04  EK= 0.63401E+01 SP= 0.00E+00 SK= 0.00E+00
   2554 T=   222. E= -.10501214E+04 F= -.10564111E+04 E0= -.10564111E+04  EK= 0.62897E+01 SP= 0.00E+00 SK= 0.00E+00
   2555 T=   223. E= -.10501578E+04 F= -.10564582E+04 E0= -.10564582E+04  EK= 0.63005E+01 SP= 0.00E+00 SK= 0.00E+00
   2556 T=   230. E= -.10499907E+04 F= -.10565094E+04 E0= -.10565094E+04  EK= 0.65187E+01 SP= 0.00E+00 SK= 0.00E+00
   2557 T=   237. E= -.10498164E+04 F= -.10565225E+04 E0= -.10565225E+04  EK= 0.67061E+01 SP= 0.00E+00 SK= 0.00E+00
   2558 T=   237. E= -.10497579E+04 F= -.10564803E+04 E0= -.10564803E+04  EK= 0.67224E+01 SP= 0.00E+00 SK= 0.00E+00
   2559 T=   236. E= -.10497718E+04 F= -.10564628E+04 E0= -.10564628E+04  EK= 0.66909E+01 SP= 0.00E+00 SK= 0.00E+00
   2560 T=   234. E= -.10498430E+04 F= -.10564547E+04 E0= -.10564547E+04  EK= 0.66117E+01 SP= 0.00E+00 SK= 0.00E+00
   2561 T=   238. E= -.10498131E+04 F= -.10565487E+04 E0= -.10565487E+04  EK= 0.67357E+01 SP= 0.00E+00 SK= 0.00E+00
   2562 T=   245. E= -.10497389E+04 F= -.10566613E+04 E0= -.10566613E+04  EK= 0.69224E+01 SP= 0.00E+00 SK= 0.00E+00
   2563 T=   249. E= -.10497034E+04 F= -.10567484E+04 E0= -.10567484E+04  EK= 0.70450E+01 SP= 0.00E+00 SK= 0.00E+00
   2564 T=   250. E= -.10496305E+04 F= -.10567132E+04 E0= -.10567132E+04  EK= 0.70826E+01 SP= 0.00E+00 SK= 0.00E+00
   2565 T=   247. E= -.10496230E+04 F= -.10566238E+04 E0= -.10566238E+04  EK= 0.70008E+01 SP= 0.00E+00 SK= 0.00E+00
   2566 T=   247. E= -.10495588E+04 F= -.10565630E+04 E0= -.10565630E+04  EK= 0.70042E+01 SP= 0.00E+00 SK= 0.00E+00
   2567 T=   248. E= -.10495131E+04 F= -.10565225E+04 E0= -.10565225E+04  EK= 0.70094E+01 SP= 0.00E+00 SK= 0.00E+00
   2568 T=   244. E= -.10495663E+04 F= -.10564809E+04 E0= -.10564809E+04  EK= 0.69145E+01 SP= 0.00E+00 SK= 0.00E+00
   2569 T=   247. E= -.10494535E+04 F= -.10564393E+04 E0= -.10564393E+04  EK= 0.69859E+01 SP= 0.00E+00 SK= 0.00E+00
   2570 T=   250. E= -.10493788E+04 F= -.10564519E+04 E0= -.10564519E+04  EK= 0.70730E+01 SP= 0.00E+00 SK= 0.00E+00
   2571 T=   249. E= -.10494217E+04 F= -.10564619E+04 E0= -.10564619E+04  EK= 0.70402E+01 SP= 0.00E+00 SK= 0.00E+00
   2572 T=   252. E= -.10493241E+04 F= -.10564699E+04 E0= -.10564699E+04  EK= 0.71458E+01 SP= 0.00E+00 SK= 0.00E+00
   2573 T=   252. E= -.10492740E+04 F= -.10564054E+04 E0= -.10564054E+04  EK= 0.71314E+01 SP= 0.00E+00 SK= 0.00E+00
   2574 T=   247. E= -.10493450E+04 F= -.10563287E+04 E0= -.10563287E+04  EK= 0.69837E+01 SP= 0.00E+00 SK= 0.00E+00
   2575 T=   244. E= -.10494494E+04 F= -.10563563E+04 E0= -.10563563E+04  EK= 0.69070E+01 SP= 0.00E+00 SK= 0.00E+00
   2576 T=   246. E= -.10495173E+04 F= -.10564827E+04 E0= -.10564827E+04  EK= 0.69653E+01 SP= 0.00E+00 SK= 0.00E+00
   2577 T=   250. E= -.10495885E+04 F= -.10566724E+04 E0= -.10566724E+04  EK= 0.70839E+01 SP= 0.00E+00 SK= 0.00E+00
   2578 T=   254. E= -.10496300E+04 F= -.10568136E+04 E0= -.10568136E+04  EK= 0.71836E+01 SP= 0.00E+00 SK= 0.00E+00
   2579 T=   253. E= -.10496484E+04 F= -.10568182E+04 E0= -.10568182E+04  EK= 0.71698E+01 SP= 0.00E+00 SK= 0.00E+00
       N       E                     dE             d eps       ncg     rms          rms(c)
DAV:   1    -0.506877157814E+03    0.53486E+03   -0.49118E+04 20644   0.384E+02
DAV:   2    -0.104412505428E+04   -0.53725E+03   -0.52313E+03 25132   0.111E+02
DAV:   3    -0.105879036582E+04   -0.14665E+02   -0.14648E+02 25016   0.192E+01
DAV:   4    -0.105899080220E+04   -0.20044E+00   -0.20036E+00 24560   0.224E+00    0.384E+01
DAV:   5    -0.104166612492E+04    0.17325E+02   -0.30086E+01 24992   0.125E+01    0.211E+01
DAV:   6    -0.104036928167E+04    0.12968E+01   -0.23543E+01 24848   0.966E+00    0.648E+00
DAV:   7    -0.104104422623E+04   -0.67494E+00   -0.39662E+00 24312   0.461E+00    0.247E+00
DAV:   8    -0.104109159786E+04   -0.47372E-01   -0.35095E-01 24024   0.143E+00    0.112E+00
DAV:   9    -0.104110122501E+04   -0.96271E-02   -0.17697E-01 24248   0.935E-01    0.674E-01
DAV:  10    -0.104109001081E+04    0.11214E-01   -0.43578E-02 29680   0.645E-01    0.179E-01
DAV:  11    -0.104108914005E+04    0.87076E-03   -0.14595E-02 23472   0.250E-01    0.159E-01
DAV:  12    -0.104108639744E+04    0.27426E-02   -0.12490E-03 23128   0.198E-01    0.838E-02
DAV:  13    -0.104108531983E+04    0.10776E-02   -0.35346E-03 24520   0.196E-01    0.706E-02
DAV:  14    -0.104108518342E+04    0.13640E-03   -0.12894E-03 24920   0.943E-02    0.546E-02
DAV:  15    -0.104108514272E+04    0.40708E-04   -0.30440E-04 21240   0.382E-02
   2580 T=   248. E= -.10495991E+04 F= -.10566113E+04 E0= -.10566113E+04  EK= 0.70123E+01 SP= 0.00E+00 SK= 0.00E+00
   2581 T=   242. E= -.10496928E+04 F= -.10565469E+04 E0= -.10565469E+04  EK= 0.68541E+01 SP= 0.00E+00 SK= 0.00E+00
   2582 T=   239. E= -.10497169E+04 F= -.10564811E+04 E0= -.10564811E+04  EK= 0.67642E+01 SP= 0.00E+00 SK= 0.00E+00
   2583 T=   243. E= -.10496681E+04 F= -.10565539E+04 E0= -.10565539E+04  EK= 0.68858E+01 SP= 0.00E+00 SK= 0.00E+00
   2584 T=   250. E= -.10496445E+04 F= -.10567139E+04 E0= -.10567139E+04  EK= 0.70695E+01 SP= 0.00E+00 SK= 0.00E+00
   2585 T=   255. E= -.10496793E+04 F= -.10568884E+04 E0= -.10568884E+04  EK= 0.72092E+01 SP= 0.00E+00 SK= 0.00E+00
   2586 T=   258. E= -.10496754E+04 F= -.10569756E+04 E0= -.10569756E+04  EK= 0.73002E+01 SP= 0.00E+00 SK= 0.00E+00
   2587 T=   251. E= -.10497681E+04 F= -.10568846E+04 E0= -.10568846E+04  EK= 0.71165E+01 SP= 0.00E+00 SK= 0.00E+00
   2588 T=   242. E= -.10498267E+04 F= -.10566683E+04 E0= -.10566683E+04  EK= 0.68416E+01 SP= 0.00E+00 SK= 0.00E+00
   2589 T=   239. E= -.10497371E+04 F= -.10564976E+04 E0= -.10564976E+04  EK= 0.67605E+01 SP= 0.00E+00 SK= 0.00E+00
       N       E                     dE             d eps       ncg     rms          rms(c)
DAV:   1    -0.103347992844E+04    0.76053E+01   -0.31367E+03 20644   0.103E+02
DAV:   2    -0.104196145227E+04   -0.84815E+01   -0.84789E+01 25064   0.154E+01
DAV:   3    -0.104203796382E+04   -0.76512E-01   -0.76505E-01 24968   0.152E+00
DAV:   4    -0.104203953371E+04   -0.15699E-02   -0.15698E-02 24992   0.211E-01    0.118E+01
DAV:   5    -0.104068551384E+04    0.13540E+01   -0.30967E+00 25648   0.416E+00    0.613E+00
DAV:   6    -0.104065765112E+04    0.27863E-01   -0.14685E+00 24800   0.253E+00    0.224E+00
DAV:   7    -0.104070371998E+04   -0.46069E-01   -0.29165E-01 25888   0.132E+00    0.698E-01
DAV:   8    -0.104070544510E+04   -0.17251E-02   -0.35315E-02 24144   0.407E-01    0.373E-01
DAV:   9    -0.104070381777E+04    0.16273E-02   -0.13813E-02 23752   0.277E-01    0.162E-01
DAV:  10    -0.104070272455E+04    0.10932E-02   -0.26161E-03 28472   0.193E-01    0.667E-02
DAV:  11    -0.104070249627E+04    0.22828E-03   -0.20379E-03 24184   0.114E-01    0.651E-02
DAV:  12    -0.104070217797E+04    0.31830E-03   -0.34908E-04 21848   0.772E-02    0.210E-02
DAV:  13    -0.104070204660E+04    0.13137E-03   -0.23546E-04 18984   0.723E-02    0.275E-02
DAV:  14    -0.104070203164E+04    0.14960E-04   -0.27818E-04 21008   0.476E-02
   2590 T=   239. E= -.10496279E+04 F= -.10563809E+04 E0= -.10563809E+04  EK= 0.67530E+01 SP= 0.00E+00 SK= 0.00E+00
   2591 T=   242. E= -.10496976E+04 F= -.10565363E+04 E0= -.10565363E+04  EK= 0.68387E+01 SP= 0.00E+00 SK= 0.00E+00
   2592 T=   246. E= -.10497309E+04 F= -.10566874E+04 E0= -.10566874E+04  EK= 0.69565E+01 SP= 0.00E+00 SK= 0.00E+00
   2593 T=   253. E= -.10496802E+04 F= -.10568463E+04 E0= -.10568463E+04  EK= 0.71661E+01 SP= 0.00E+00 SK= 0.00E+00
   2594 T=   256. E= -.10496489E+04 F= -.10569015E+04 E0= -.10569015E+04  EK= 0.72526E+01 SP= 0.00E+00 SK= 0.00E+00
   2595 T=   251. E= -.10496886E+04 F= -.10567949E+04 E0= -.10567949E+04  EK= 0.71063E+01 SP= 0.00E+00 SK= 0.00E+00
   2596 T=   243. E= -.10496704E+04 F= -.10565479E+04 E0= -.10565479E+04  EK= 0.68775E+01 SP= 0.00E+00 SK= 0.00E+00
   2597 T=   233. E= -.10496734E+04 F= -.10562826E+04 E0= -.10562826E+04  EK= 0.66092E+01 SP= 0.00E+00 SK= 0.00E+00
   2598 T=   228. E= -.10496660E+04 F= -.10561299E+04 E0= -.10561299E+04  EK= 0.64639E+01 SP= 0.00E+00 SK= 0.00E+00
   2599 T=   233. E= -.10495890E+04 F= -.10561941E+04 E0= -.10561941E+04  EK= 0.66051E+01 SP= 0.00E+00 SK= 0.00E+00
       N       E                     dE             d eps       ncg     rms          rms(c)
DAV:   1    -0.103443155126E+04    0.62705E+01   -0.28755E+03 20644   0.993E+01
DAV:   2    -0.104169134848E+04   -0.72598E+01   -0.72575E+01 25112   0.144E+01
DAV:   3    -0.104175785024E+04   -0.66502E-01   -0.66495E-01 24992   0.142E+00
DAV:   4    -0.104175925335E+04   -0.14031E-02   -0.14030E-02 25016   0.201E-01    0.116E+01
DAV:   5    -0.104048067963E+04    0.12786E+01   -0.28723E+00 25744   0.407E+00    0.609E+00
DAV:   6    -0.104044980562E+04    0.30874E-01   -0.14622E+00 24920   0.256E+00    0.219E+00
DAV:   7    -0.104049012911E+04   -0.40323E-01   -0.31357E-01 25592   0.140E+00    0.694E-01
DAV:   8    -0.104049021868E+04   -0.89567E-04   -0.37908E-02 24208   0.439E-01    0.393E-01
DAV:   9    -0.104048820374E+04    0.20149E-02   -0.19428E-02 23816   0.307E-01    0.198E-01
DAV:  10    -0.104048665042E+04    0.15533E-02   -0.34908E-03 28768   0.206E-01    0.718E-02
DAV:  11    -0.104048625054E+04    0.39989E-03   -0.21877E-03 23768   0.118E-01    0.667E-02
DAV:  12    -0.104048587222E+04    0.37832E-03   -0.36065E-04 21128   0.751E-02    0.241E-02
DAV:  13    -0.104048572063E+04    0.15159E-03   -0.27893E-04 20096   0.626E-02    0.239E-02
DAV:  14    -0.104048570275E+04    0.17876E-04   -0.17938E-04 18464   0.372E-02
   2600 T=   242. E= -.10494949E+04 F= -.10563363E+04 E0= -.10563363E+04  EK= 0.68414E+01 SP= 0.00E+00 SK= 0.00E+00
   2601 T=   245. E= -.10495841E+04 F= -.10565101E+04 E0= -.10565101E+04  EK= 0.69260E+01 SP= 0.00E+00 SK= 0.00E+00
   2602 T=   243. E= -.10495845E+04 F= -.10564595E+04 E0= -.10564595E+04  EK= 0.68750E+01 SP= 0.00E+00 SK= 0.00E+00
   2603 T=   235. E= -.10495462E+04 F= -.10562018E+04 E0= -.10562018E+04  EK= 0.66556E+01 SP= 0.00E+00 SK= 0.00E+00
   2604 T=   227. E= -.10494806E+04 F= -.10559174E+04 E0= -.10559174E+04  EK= 0.64368E+01 SP= 0.00E+00 SK= 0.00E+00
   2605 T=   223. E= -.10494367E+04 F= -.10557492E+04 E0= -.10557492E+04  EK= 0.63125E+01 SP= 0.00E+00 SK= 0.00E+00
   2606 T=   223. E= -.10494087E+04 F= -.10557111E+04 E0= -.10557111E+04  EK= 0.63023E+01 SP= 0.00E+00 SK= 0.00E+00
   2607 T=   233. E= -.10492555E+04 F= -.10558392E+04 E0= -.10558392E+04  EK= 0.65837E+01 SP= 0.00E+00 SK= 0.00E+00
   2608 T=   244. E= -.10491244E+04 F= -.10560424E+04 E0= -.10560424E+04  EK= 0.69180E+01 SP= 0.00E+00 SK= 0.00E+00
   2609 T=   251. E= -.10490428E+04 F= -.10561498E+04 E0= -.10561498E+04  EK= 0.71070E+01 SP= 0.00E+00 SK= 0.00E+00
       N       E                     dE             d eps       ncg     rms          rms(c)
DAV:   1    -0.103444901436E+04    0.60367E+01   -0.27090E+03 20644   0.964E+01
DAV:   2    -0.104101734634E+04   -0.65683E+01   -0.65665E+01 25096   0.138E+01
DAV:   3    -0.104107874257E+04   -0.61396E-01   -0.61392E-01 25000   0.136E+00
DAV:   4    -0.104108004737E+04   -0.13048E-02   -0.13047E-02 24992   0.193E-01    0.108E+01
DAV:   5    -0.104018772256E+04    0.89232E+00   -0.16833E+00 25920   0.348E+00    0.591E+00
DAV:   6    -0.104018212680E+04    0.55958E-02   -0.15716E+00 25088   0.281E+00    0.161E+00
DAV:   7    -0.104021108123E+04   -0.28954E-01   -0.28805E-01 24424   0.133E+00    0.602E-01
DAV:   8    -0.104021016622E+04    0.91501E-03   -0.30812E-02 24280   0.407E-01    0.331E-01
DAV:   9    -0.104020878755E+04    0.13787E-02   -0.15802E-02 23952   0.308E-01    0.197E-01
DAV:  10    -0.104020731851E+04    0.14690E-02   -0.32836E-03 28672   0.205E-01    0.661E-02
DAV:  11    -0.104020694987E+04    0.36864E-03   -0.20629E-03 24000   0.120E-01    0.606E-02
DAV:  12    -0.104020658791E+04    0.36196E-03   -0.45004E-04 22328   0.871E-02    0.256E-02
DAV:  13    -0.104020644602E+04    0.14188E-03   -0.24133E-04 18104   0.638E-02    0.258E-02
DAV:  14    -0.104020641680E+04    0.29220E-04   -0.15793E-04 17464   0.417E-02
   2610 T=   254. E= -.10489585E+04 F= -.10561372E+04 E0= -.10561372E+04  EK= 0.71786E+01 SP= 0.00E+00 SK= 0.00E+00
   2611 T=   252. E= -.10488811E+04 F= -.10560081E+04 E0= -.10560081E+04  EK= 0.71270E+01 SP= 0.00E+00 SK= 0.00E+00
   2612 T=   248. E= -.10488447E+04 F= -.10558529E+04 E0= -.10558529E+04  EK= 0.70082E+01 SP= 0.00E+00 SK= 0.00E+00
   2613 T=   244. E= -.10488538E+04 F= -.10557730E+04 E0= -.10557730E+04  EK= 0.69193E+01 SP= 0.00E+00 SK= 0.00E+00
   2614 T=   248. E= -.10488250E+04 F= -.10558354E+04 E0= -.10558354E+04  EK= 0.70104E+01 SP= 0.00E+00 SK= 0.00E+00
   2615 T=   252. E= -.10488604E+04 F= -.10559936E+04 E0= -.10559936E+04  EK= 0.71332E+01 SP= 0.00E+00 SK= 0.00E+00
   2616 T=   255. E= -.10489158E+04 F= -.10561389E+04 E0= -.10561389E+04  EK= 0.72231E+01 SP= 0.00E+00 SK= 0.00E+00
   2617 T=   255. E= -.10489283E+04 F= -.10561470E+04 E0= -.10561470E+04  EK= 0.72187E+01 SP= 0.00E+00 SK= 0.00E+00
   2618 T=   250. E= -.10489500E+04 F= -.10560307E+04 E0= -.10560307E+04  EK= 0.70807E+01 SP= 0.00E+00 SK= 0.00E+00
   2619 T=   245. E= -.10489407E+04 F= -.10558623E+04 E0= -.10558623E+04  EK= 0.69216E+01 SP= 0.00E+00 SK= 0.00E+00
       N       E                     dE             d eps       ncg     rms          rms(c)
DAV:   1    -0.103306597367E+04    0.71405E+01   -0.29835E+03 20644   0.101E+02
DAV:   2    -0.104076702281E+04   -0.77010E+01   -0.76988E+01 25080   0.148E+01
DAV:   3    -0.104083784670E+04   -0.70824E-01   -0.70818E-01 25072   0.147E+00
DAV:   4    -0.104083936045E+04   -0.15138E-02   -0.15137E-02 25040   0.208E-01    0.112E+01
DAV:   5    -0.103981813931E+04    0.10212E+01   -0.20428E+00 25688   0.371E+00    0.609E+00
DAV:   6    -0.103982080557E+04   -0.26663E-02   -0.16756E+00 25120   0.276E+00    0.178E+00
DAV:   7    -0.103985653553E+04   -0.35730E-01   -0.31486E-01 24680   0.140E+00    0.633E-01
DAV:   8    -0.103985511191E+04    0.14236E-02   -0.33391E-02 23464   0.481E-01    0.323E-01
DAV:   9    -0.103985485885E+04    0.25306E-03   -0.18703E-02 23640   0.287E-01    0.208E-01
DAV:  10    -0.103985364794E+04    0.12109E-02   -0.37551E-03 29736   0.197E-01    0.548E-02
DAV:  11    -0.103985348111E+04    0.16683E-03   -0.13673E-03 23224   0.853E-02    0.499E-02
DAV:  12    -0.103985324890E+04    0.23221E-03   -0.19555E-04 18368   0.624E-02    0.208E-02
DAV:  13    -0.103985317480E+04    0.74102E-04   -0.29148E-04 19648   0.550E-02
   2620 T=   241. E= -.10489056E+04 F= -.10557322E+04 E0= -.10557322E+04  EK= 0.68267E+01 SP= 0.00E+00 SK= 0.00E+00
   2621 T=   242. E= -.10488353E+04 F= -.10556983E+04 E0= -.10556983E+04  EK= 0.68630E+01 SP= 0.00E+00 SK= 0.00E+00
   2622 T=   250. E= -.10487645E+04 F= -.10558378E+04 E0= -.10558378E+04  EK= 0.70733E+01 SP= 0.00E+00 SK= 0.00E+00
   2623 T=   264. E= -.10485829E+04 F= -.10560527E+04 E0= -.10560527E+04  EK= 0.74697E+01 SP= 0.00E+00 SK= 0.00E+00
   2624 T=   274. E= -.10484924E+04 F= -.10562387E+04 E0= -.10562387E+04  EK= 0.77463E+01 SP= 0.00E+00 SK= 0.00E+00
   2625 T=   275. E= -.10484684E+04 F= -.10562471E+04 E0= -.10562471E+04  EK= 0.77787E+01 SP= 0.00E+00 SK= 0.00E+00
   2626 T=   274. E= -.10483856E+04 F= -.10561444E+04 E0= -.10561444E+04  EK= 0.77588E+01 SP= 0.00E+00 SK= 0.00E+00
   2627 T=   271. E= -.10483946E+04 F= -.10560593E+04 E0= -.10560593E+04  EK= 0.76647E+01 SP= 0.00E+00 SK= 0.00E+00
   2628 T=   271. E= -.10484135E+04 F= -.10560786E+04 E0= -.10560786E+04  EK= 0.76651E+01 SP= 0.00E+00 SK= 0.00E+00
   2629 T=   276. E= -.10483970E+04 F= -.10562029E+04 E0= -.10562029E+04  EK= 0.78059E+01 SP= 0.00E+00 SK= 0.00E+00
       N       E                     dE             d eps       ncg     rms          rms(c)
DAV:   1    -0.103423095990E+04    0.56223E+01   -0.29072E+03 20644   0.100E+02
DAV:   2    -0.104142694512E+04   -0.71960E+01   -0.71939E+01 25008   0.144E+01
DAV:   3    -0.104149465661E+04   -0.67711E-01   -0.67706E-01 24944   0.143E+00
DAV:   4    -0.104149608231E+04   -0.14257E-02   -0.14256E-02 24976   0.203E-01    0.117E+01
DAV:   5    -0.104040485485E+04    0.10912E+01   -0.26209E+00 25152   0.399E+00    0.626E+00
DAV:   6    -0.104043466268E+04   -0.29808E-01   -0.14120E+00 24768   0.258E+00    0.214E+00
DAV:   7    -0.104047670137E+04   -0.42039E-01   -0.30008E-01 26016   0.143E+00    0.649E-01
DAV:   8    -0.104047597186E+04    0.72951E-03   -0.41927E-02 24232   0.481E-01    0.352E-01
DAV:   9    -0.104047369184E+04    0.22800E-02   -0.17081E-02 24008   0.305E-01    0.186E-01
DAV:  10    -0.104047202203E+04    0.16698E-02   -0.33005E-03 29176   0.220E-01    0.772E-02
DAV:  11    -0.104047136117E+04    0.66086E-03   -0.25487E-03 24008   0.156E-01    0.775E-02
DAV:  12    -0.104047078729E+04    0.57387E-03   -0.63445E-04 24688   0.118E-01    0.318E-02
DAV:  13    -0.104047056843E+04    0.21887E-03   -0.47888E-04 23664   0.898E-02    0.321E-02
DAV:  14    -0.104047054159E+04    0.26836E-04   -0.32739E-04 21840   0.495E-02
   2630 T=   281. E= -.10483764E+04 F= -.10563390E+04 E0= -.10563390E+04  EK= 0.79627E+01 SP= 0.00E+00 SK= 0.00E+00
   2631 T=   281. E= -.10485147E+04 F= -.10564799E+04 E0= -.10564799E+04  EK= 0.79651E+01 SP= 0.00E+00 SK= 0.00E+00
   2632 T=   278. E= -.10485684E+04 F= -.10564287E+04 E0= -.10564287E+04  EK= 0.78603E+01 SP= 0.00E+00 SK= 0.00E+00
   2633 T=   271. E= -.10485990E+04 F= -.10562664E+04 E0= -.10562664E+04  EK= 0.76675E+01 SP= 0.00E+00 SK= 0.00E+00
   2634 T=   260. E= -.10486946E+04 F= -.10560591E+04 E0= -.10560591E+04  EK= 0.73645E+01 SP= 0.00E+00 SK= 0.00E+00
   2635 T=   252. E= -.10487278E+04 F= -.10558670E+04 E0= -.10558670E+04  EK= 0.71392E+01 SP= 0.00E+00 SK= 0.00E+00
   2636 T=   246. E= -.10487901E+04 F= -.10557657E+04 E0= -.10557657E+04  EK= 0.69756E+01 SP= 0.00E+00 SK= 0.00E+00
   2637 T=   242. E= -.10489155E+04 F= -.10557735E+04 E0= -.10557735E+04  EK= 0.68580E+01 SP= 0.00E+00 SK= 0.00E+00
   2638 T=   244. E= -.10489122E+04 F= -.10558103E+04 E0= -.10558103E+04  EK= 0.68982E+01 SP= 0.00E+00 SK= 0.00E+00
   2639 T=   246. E= -.10488882E+04 F= -.10558603E+04 E0= -.10558603E+04  EK= 0.69721E+01 SP= 0.00E+00 SK= 0.00E+00
       N       E                     dE             d eps       ncg     rms          rms(c)
DAV:   1    -0.103240642669E+04    0.80641E+01   -0.32153E+03 20644   0.105E+02
DAV:   2    -0.104114091901E+04   -0.87345E+01   -0.87320E+01 25072   0.157E+01
DAV:   3    -0.104122012109E+04   -0.79202E-01   -0.79196E-01 25048   0.157E+00
DAV:   4    -0.104122173702E+04   -0.16159E-02   -0.16158E-02 25024   0.218E-01    0.116E+01
DAV:   5    -0.104004113789E+04    0.11806E+01   -0.25128E+00 25816   0.406E+00    0.623E+00
DAV:   6    -0.104003953601E+04    0.16019E-02   -0.16230E+00 24856   0.274E+00    0.204E+00
DAV:   7    -0.104007750281E+04   -0.37967E-01   -0.33382E-01 25232   0.147E+00    0.672E-01
DAV:   8    -0.104007432387E+04    0.31789E-02   -0.41434E-02 24320   0.537E-01    0.346E-01
DAV:   9    -0.104007163869E+04    0.26852E-02   -0.20492E-02 23944   0.322E-01    0.207E-01
DAV:  10    -0.104006981583E+04    0.18229E-02   -0.42252E-03 27496   0.216E-01    0.820E-02
DAV:  11    -0.104006906487E+04    0.75096E-03   -0.24811E-03 23528   0.140E-01    0.740E-02
DAV:  12    -0.104006849302E+04    0.57184E-03   -0.50996E-04 23296   0.106E-01    0.413E-02
DAV:  13    -0.104006818980E+04    0.30323E-03   -0.43947E-04 21624   0.988E-02    0.236E-02
DAV:  14    -0.104006818072E+04    0.90746E-05   -0.38487E-04 23272   0.534E-02
   2640 T=   247. E= -.10488603E+04 F= -.10558431E+04 E0= -.10558431E+04  EK= 0.69828E+01 SP= 0.00E+00 SK= 0.00E+00
   2641 T=   249. E= -.10488929E+04 F= -.10559377E+04 E0= -.10559377E+04  EK= 0.70448E+01 SP= 0.00E+00 SK= 0.00E+00
   2642 T=   255. E= -.10488304E+04 F= -.10560539E+04 E0= -.10560539E+04  EK= 0.72235E+01 SP= 0.00E+00 SK= 0.00E+00
   2643 T=   259. E= -.10488193E+04 F= -.10561516E+04 E0= -.10561516E+04  EK= 0.73323E+01 SP= 0.00E+00 SK= 0.00E+00
   2644 T=   260. E= -.10488429E+04 F= -.10561926E+04 E0= -.10561926E+04  EK= 0.73497E+01 SP= 0.00E+00 SK= 0.00E+00
   2645 T=   257. E= -.10488473E+04 F= -.10561238E+04 E0= -.10561238E+04  EK= 0.72765E+01 SP= 0.00E+00 SK= 0.00E+00
   2646 T=   252. E= -.10488685E+04 F= -.10560094E+04 E0= -.10560094E+04  EK= 0.71409E+01 SP= 0.00E+00 SK= 0.00E+00
   2647 T=   247. E= -.10489536E+04 F= -.10559517E+04 E0= -.10559517E+04  EK= 0.69980E+01 SP= 0.00E+00 SK= 0.00E+00
   2648 T=   247. E= -.10490300E+04 F= -.10560326E+04 E0= -.10560326E+04  EK= 0.70026E+01 SP= 0.00E+00 SK= 0.00E+00
   2649 T=   254. E= -.10489882E+04 F= -.10561678E+04 E0= -.10561678E+04  EK= 0.71796E+01 SP= 0.00E+00 SK= 0.00E+00
       N       E                     dE             d eps       ncg     rms          rms(c)
DAV:   1    -0.103334480570E+04    0.67234E+01   -0.30391E+03 20644   0.102E+02
DAV:   2    -0.104165909647E+04   -0.83143E+01   -0.83117E+01 25008   0.152E+01
DAV:   3    -0.104173460518E+04   -0.75509E-01   -0.75502E-01 25024   0.153E+00
DAV:   4    -0.104173612156E+04   -0.15164E-02   -0.15163E-02 25088   0.213E-01    0.114E+01
DAV:   5    -0.104055452177E+04    0.11816E+01   -0.27130E+00 25160   0.390E+00    0.607E+00
DAV:   6    -0.104055706578E+04   -0.25440E-02   -0.14616E+00 25040   0.258E+00    0.212E+00
DAV:   7    -0.104059729496E+04   -0.40229E-01   -0.26339E-01 25144   0.123E+00    0.651E-01
DAV:   8    -0.104059749088E+04   -0.19592E-03   -0.28746E-02 23880   0.392E-01    0.312E-01
DAV:   9    -0.104059591059E+04    0.15803E-02   -0.11376E-02 23824   0.250E-01    0.142E-01
DAV:  10    -0.104059506822E+04    0.84236E-03   -0.22891E-03 27960   0.155E-01    0.628E-02
DAV:  11    -0.104059477521E+04    0.29301E-03   -0.11713E-03 23472   0.853E-02    0.484E-02
DAV:  12    -0.104059451704E+04    0.25818E-03   -0.14280E-04 16976   0.622E-02    0.194E-02
DAV:  13    -0.104059442095E+04    0.96089E-04   -0.31383E-04 20120   0.606E-02
   2650 T=   259. E= -.10489095E+04 F= -.10562474E+04 E0= -.10562474E+04  EK= 0.73380E+01 SP= 0.00E+00 SK= 0.00E+00
   2651 T=   258. E= -.10489609E+04 F= -.10562517E+04 E0= -.10562517E+04  EK= 0.72908E+01 SP= 0.00E+00 SK= 0.00E+00
   2652 T=   250. E= -.10489978E+04 F= -.10560710E+04 E0= -.10560710E+04  EK= 0.70732E+01 SP= 0.00E+00 SK= 0.00E+00
   2653 T=   241. E= -.10489896E+04 F= -.10558221E+04 E0= -.10558221E+04  EK= 0.68324E+01 SP= 0.00E+00 SK= 0.00E+00
   2654 T=   237. E= -.10489801E+04 F= -.10556946E+04 E0= -.10556946E+04  EK= 0.67145E+01 SP= 0.00E+00 SK= 0.00E+00
   2655 T=   244. E= -.10488905E+04 F= -.10558024E+04 E0= -.10558024E+04  EK= 0.69120E+01 SP= 0.00E+00 SK= 0.00E+00
   2656 T=   255. E= -.10487993E+04 F= -.10560202E+04 E0= -.10560202E+04  EK= 0.72210E+01 SP= 0.00E+00 SK= 0.00E+00
   2657 T=   264. E= -.10487846E+04 F= -.10562593E+04 E0= -.10562593E+04  EK= 0.74746E+01 SP= 0.00E+00 SK= 0.00E+00
   2658 T=   269. E= -.10487772E+04 F= -.10563948E+04 E0= -.10563948E+04  EK= 0.76176E+01 SP= 0.00E+00 SK= 0.00E+00
   2659 T=   267. E= -.10488109E+04 F= -.10563809E+04 E0= -.10563809E+04  EK= 0.75700E+01 SP= 0.00E+00 SK= 0.00E+00
       N       E                     dE             d eps       ncg     rms          rms(c)
DAV:   1    -0.103417562395E+04    0.64189E+01   -0.29444E+03 20644   0.100E+02
DAV:   2    -0.104168750031E+04   -0.75119E+01   -0.75099E+01 24928   0.146E+01
DAV:   3    -0.104175710924E+04   -0.69609E-01   -0.69604E-01 24968   0.146E+00
DAV:   4    -0.104175856935E+04   -0.14601E-02   -0.14600E-02 24944   0.205E-01    0.116E+01
DAV:   5    -0.104064243619E+04    0.11161E+01   -0.29062E+00 24696   0.366E+00    0.607E+00
DAV:   6    -0.104065219796E+04   -0.97618E-02   -0.11285E+00 25088   0.227E+00    0.221E+00
DAV:   7    -0.104069178232E+04   -0.39584E-01   -0.23732E-01 25440   0.120E+00    0.629E-01
DAV:   8    -0.104069221453E+04   -0.43221E-03   -0.29778E-02 24208   0.384E-01    0.340E-01
DAV:   9    -0.104069052653E+04    0.16880E-02   -0.14135E-02 23568   0.280E-01    0.155E-01
DAV:  10    -0.104068966736E+04    0.85917E-03   -0.28415E-03 27584   0.171E-01    0.750E-02
DAV:  11    -0.104068934497E+04    0.32239E-03   -0.16266E-03 23640   0.104E-01    0.552E-02
DAV:  12    -0.104068901501E+04    0.32996E-03   -0.17868E-04 17864   0.824E-02    0.230E-02
DAV:  13    -0.104068888277E+04    0.13224E-03   -0.45116E-04 22232   0.804E-02    0.260E-02
DAV:  14    -0.104068887059E+04    0.12174E-04   -0.24952E-04 19008   0.409E-02
   2660 T=   260. E= -.10488914E+04 F= -.10562549E+04 E0= -.10562549E+04  EK= 0.73635E+01 SP= 0.00E+00 SK= 0.00E+00
   2661 T=   253. E= -.10489436E+04 F= -.10561066E+04 E0= -.10561066E+04  EK= 0.71630E+01 SP= 0.00E+00 SK= 0.00E+00
   2662 T=   249. E= -.10489197E+04 F= -.10559805E+04 E0= -.10559805E+04  EK= 0.70608E+01 SP= 0.00E+00 SK= 0.00E+00
   2663 T=   247. E= -.10489821E+04 F= -.10559711E+04 E0= -.10559711E+04  EK= 0.69890E+01 SP= 0.00E+00 SK= 0.00E+00
   2664 T=   248. E= -.10490775E+04 F= -.10561021E+04 E0= -.10561021E+04  EK= 0.70245E+01 SP= 0.00E+00 SK= 0.00E+00
   2665 T=   255. E= -.10490718E+04 F= -.10562921E+04 E0= -.10562921E+04  EK= 0.72203E+01 SP= 0.00E+00 SK= 0.00E+00
   2666 T=   259. E= -.10490108E+04 F= -.10563392E+04 E0= -.10563392E+04  EK= 0.73284E+01 SP= 0.00E+00 SK= 0.00E+00
   2667 T=   256. E= -.10489613E+04 F= -.10562011E+04 E0= -.10562011E+04  EK= 0.72398E+01 SP= 0.00E+00 SK= 0.00E+00
   2668 T=   248. E= -.10489528E+04 F= -.10559711E+04 E0= -.10559711E+04  EK= 0.70183E+01 SP= 0.00E+00 SK= 0.00E+00
   2669 T=   241. E= -.10489852E+04 F= -.10558070E+04 E0= -.10558070E+04  EK= 0.68218E+01 SP= 0.00E+00 SK= 0.00E+00
       N       E                     dE             d eps       ncg     rms          rms(c)
DAV:   1    -0.103345251191E+04    0.72364E+01   -0.29938E+03 20644   0.101E+02
DAV:   2    -0.104130878907E+04   -0.78563E+01   -0.78539E+01 24984   0.150E+01
DAV:   3    -0.104138001527E+04   -0.71226E-01   -0.71220E-01 25056   0.149E+00
DAV:   4    -0.104138148225E+04   -0.14670E-02   -0.14669E-02 25016   0.209E-01    0.117E+01
DAV:   5    -0.104025185309E+04    0.11296E+01   -0.28840E+00 24920   0.384E+00    0.615E+00
DAV:   6    -0.104028178800E+04   -0.29935E-01   -0.13883E+00 25088   0.249E+00    0.217E+00
DAV:   7    -0.104032901372E+04   -0.47226E-01   -0.26985E-01 25120   0.126E+00    0.664E-01
DAV:   8    -0.104033001450E+04   -0.10008E-02   -0.31700E-02 23968   0.401E-01    0.340E-01
DAV:   9    -0.104032872215E+04    0.12924E-02   -0.13688E-02 23768   0.263E-01    0.156E-01
DAV:  10    -0.104032769950E+04    0.10226E-02   -0.24742E-03 27944   0.170E-01    0.634E-02
DAV:  11    -0.104032733347E+04    0.36602E-03   -0.14873E-03 23488   0.993E-02    0.553E-02
DAV:  12    -0.104032700178E+04    0.33169E-03   -0.25907E-04 19448   0.710E-02    0.207E-02
DAV:  13    -0.104032686648E+04    0.13530E-03   -0.28624E-04 20320   0.620E-02    0.264E-02
DAV:  14    -0.104032684274E+04    0.23735E-04   -0.17398E-04 17504   0.385E-02
   2670 T=   240. E= -.10489963E+04 F= -.10557789E+04 E0= -.10557789E+04  EK= 0.67826E+01 SP= 0.00E+00 SK= 0.00E+00
   2671 T=   240. E= -.10490730E+04 F= -.10558602E+04 E0= -.10558602E+04  EK= 0.67873E+01 SP= 0.00E+00 SK= 0.00E+00
   2672 T=   243. E= -.10491392E+04 F= -.10560048E+04 E0= -.10560048E+04  EK= 0.68655E+01 SP= 0.00E+00 SK= 0.00E+00
   2673 T=   246. E= -.10492382E+04 F= -.10562005E+04 E0= -.10562005E+04  EK= 0.69624E+01 SP= 0.00E+00 SK= 0.00E+00
   2674 T=   246. E= -.10493802E+04 F= -.10563443E+04 E0= -.10563443E+04  EK= 0.69641E+01 SP= 0.00E+00 SK= 0.00E+00
   2675 T=   243. E= -.10494817E+04 F= -.10563629E+04 E0= -.10563629E+04  EK= 0.68813E+01 SP= 0.00E+00 SK= 0.00E+00
   2676 T=   239. E= -.10494902E+04 F= -.10562479E+04 E0= -.10562479E+04  EK= 0.67577E+01 SP= 0.00E+00 SK= 0.00E+00
   2677 T=   235. E= -.10494230E+04 F= -.10560662E+04 E0= -.10560662E+04  EK= 0.66432E+01 SP= 0.00E+00 SK= 0.00E+00
   2678 T=   233. E= -.10493810E+04 F= -.10559820E+04 E0= -.10559820E+04  EK= 0.66010E+01 SP= 0.00E+00 SK= 0.00E+00
   2679 T=   237. E= -.10493313E+04 F= -.10560492E+04 E0= -.10560492E+04  EK= 0.67178E+01 SP= 0.00E+00 SK= 0.00E+00
   2680 T=   245. E= -.10493301E+04 F= -.10562607E+04 E0= -.10562607E+04  EK= 0.69306E+01 SP= 0.00E+00 SK= 0.00E+00
   2681 T=   252. E= -.10493608E+04 F= -.10564876E+04 E0= -.10564876E+04  EK= 0.71268E+01 SP= 0.00E+00 SK= 0.00E+00
   2682 T=   251. E= -.10494535E+04 F= -.10565628E+04 E0= -.10565628E+04  EK= 0.71093E+01 SP= 0.00E+00 SK= 0.00E+00
   2683 T=   247. E= -.10494719E+04 F= -.10564562E+04 E0= -.10564562E+04  EK= 0.69843E+01 SP= 0.00E+00 SK= 0.00E+00
   2684 T=   245. E= -.10493750E+04 F= -.10562973E+04 E0= -.10562973E+04  EK= 0.69223E+01 SP= 0.00E+00 SK= 0.00E+00
   2685 T=   243. E= -.10492984E+04 F= -.10561905E+04 E0= -.10561905E+04  EK= 0.68921E+01 SP= 0.00E+00 SK= 0.00E+00
   2686 T=   242. E= -.10493120E+04 F= -.10561597E+04 E0= -.10561597E+04  EK= 0.68477E+01 SP= 0.00E+00 SK= 0.00E+00
   2687 T=   244. E= -.10493231E+04 F= -.10562409E+04 E0= -.10562409E+04  EK= 0.69178E+01 SP= 0.00E+00 SK= 0.00E+00
   2688 T=   249. E= -.10493720E+04 F= -.10564111E+04 E0= -.10564111E+04  EK= 0.70391E+01 SP= 0.00E+00 SK= 0.00E+00
   2689 T=   253. E= -.10494531E+04 F= -.10566113E+04 E0= -.10566113E+04  EK= 0.71582E+01 SP= 0.00E+00 SK= 0.00E+00
   2690 T=   254. E= -.10494688E+04 F= -.10566716E+04 E0= -.10566716E+04  EK= 0.72028E+01 SP= 0.00E+00 SK= 0.00E+00
   2691 T=   249. E= -.10494833E+04 F= -.10565201E+04 E0= -.10565201E+04  EK= 0.70368E+01 SP= 0.00E+00 SK= 0.00E+00
       N       E                     dE             d eps       ncg     rms          rms(c)
DAV:   1    -0.100474934531E+04    0.35578E+02   -0.98918E+03 20644   0.182E+02
DAV:   2    -0.104400810551E+04   -0.39259E+02   -0.39239E+02 24664   0.318E+01
DAV:   3    -0.104438709136E+04   -0.37899E+00   -0.37892E+00 24920   0.347E+00
DAV:   4    -0.104439422099E+04   -0.71296E-02   -0.71288E-02 24864   0.465E-01    0.208E+01
DAV:   5    -0.104090123450E+04    0.34930E+01   -0.93708E+00 24880   0.611E+00    0.110E+01
DAV:   6    -0.104091433974E+04   -0.13105E-01   -0.32498E+00 25064   0.379E+00    0.397E+00
DAV:   7    -0.104108717857E+04   -0.17284E+00   -0.61279E-01 24376   0.174E+00    0.995E-01
DAV:   8    -0.104109005235E+04   -0.28738E-02   -0.62314E-02 24328   0.530E-01    0.484E-01
DAV:   9    -0.104108653184E+04    0.35205E-02   -0.22271E-02 23760   0.357E-01    0.171E-01
DAV:  10    -0.104108528028E+04    0.12516E-02   -0.45133E-03 25264   0.190E-01    0.103E-01
DAV:  11    -0.104108445095E+04    0.82933E-03   -0.23046E-03 23304   0.121E-01    0.647E-02
DAV:  12    -0.104108379600E+04    0.65495E-03   -0.31182E-04 19400   0.948E-02    0.297E-02
DAV:  13    -0.104108351601E+04    0.27998E-03   -0.58667E-04 22168   0.962E-02    0.281E-02
DAV:  14    -0.104108350162E+04    0.14398E-04   -0.37822E-04 23448   0.506E-02
   2692 T=   240. E= -.10494770E+04 F= -.10562795E+04 E0= -.10562795E+04  EK= 0.68025E+01 SP= 0.00E+00 SK= 0.00E+00
   2693 T=   236. E= -.10493914E+04 F= -.10560584E+04 E0= -.10560584E+04  EK= 0.66670E+01 SP= 0.00E+00 SK= 0.00E+00
   2694 T=   236. E= -.10493736E+04 F= -.10560409E+04 E0= -.10560409E+04  EK= 0.66673E+01 SP= 0.00E+00 SK= 0.00E+00
   2695 T=   240. E= -.10494353E+04 F= -.10562280E+04 E0= -.10562280E+04  EK= 0.67927E+01 SP= 0.00E+00 SK= 0.00E+00
   2696 T=   246. E= -.10495316E+04 F= -.10564900E+04 E0= -.10564900E+04  EK= 0.69584E+01 SP= 0.00E+00 SK= 0.00E+00
   2697 T=   250. E= -.10495244E+04 F= -.10565994E+04 E0= -.10565994E+04  EK= 0.70750E+01 SP= 0.00E+00 SK= 0.00E+00
   2698 T=   247. E= -.10494736E+04 F= -.10564535E+04 E0= -.10564535E+04  EK= 0.69799E+01 SP= 0.00E+00 SK= 0.00E+00
   2699 T=   238. E= -.10494622E+04 F= -.10562026E+04 E0= -.10562026E+04  EK= 0.67404E+01 SP= 0.00E+00 SK= 0.00E+00
   2700 T=   229. E= -.10495404E+04 F= -.10560100E+04 E0= -.10560100E+04  EK= 0.64696E+01 SP= 0.00E+00 SK= 0.00E+00
   2701 T=   224. E= -.10496891E+04 F= -.10560182E+04 E0= -.10560182E+04  EK= 0.63291E+01 SP= 0.00E+00 SK= 0.00E+00
   2702 T=   228. E= -.10497362E+04 F= -.10562042E+04 E0= -.10562042E+04  EK= 0.64680E+01 SP= 0.00E+00 SK= 0.00E+00
   2703 T=   235. E= -.10497933E+04 F= -.10564578E+04 E0= -.10564578E+04  EK= 0.66645E+01 SP= 0.00E+00 SK= 0.00E+00
   2704 T=   236. E= -.10498465E+04 F= -.10565259E+04 E0= -.10565259E+04  EK= 0.66794E+01 SP= 0.00E+00 SK= 0.00E+00
   2705 T=   233. E= -.10498269E+04 F= -.10564117E+04 E0= -.10564117E+04  EK= 0.65848E+01 SP= 0.00E+00 SK= 0.00E+00
   2706 T=   227. E= -.10497708E+04 F= -.10561883E+04 E0= -.10561883E+04  EK= 0.64175E+01 SP= 0.00E+00 SK= 0.00E+00
   2707 T=   225. E= -.10496692E+04 F= -.10560282E+04 E0= -.10560282E+04  EK= 0.63590E+01 SP= 0.00E+00 SK= 0.00E+00
   2708 T=   226. E= -.10496659E+04 F= -.10560566E+04 E0= -.10560566E+04  EK= 0.63907E+01 SP= 0.00E+00 SK= 0.00E+00
   2709 T=   231. E= -.10497569E+04 F= -.10562988E+04 E0= -.10562988E+04  EK= 0.65419E+01 SP= 0.00E+00 SK= 0.00E+00
   2710 T=   240. E= -.10498680E+04 F= -.10566478E+04 E0= -.10566478E+04  EK= 0.67798E+01 SP= 0.00E+00 SK= 0.00E+00
   2711 T=   247. E= -.10498744E+04 F= -.10568717E+04 E0= -.10568717E+04  EK= 0.69972E+01 SP= 0.00E+00 SK= 0.00E+00
   2712 T=   248. E= -.10498322E+04 F= -.10568658E+04 E0= -.10568658E+04  EK= 0.70336E+01 SP= 0.00E+00 SK= 0.00E+00
   2713 T=   242. E= -.10498238E+04 F= -.10566689E+04 E0= -.10566689E+04  EK= 0.68451E+01 SP= 0.00E+00 SK= 0.00E+00
   2714 T=   239. E= -.10497506E+04 F= -.10565130E+04 E0= -.10565130E+04  EK= 0.67625E+01 SP= 0.00E+00 SK= 0.00E+00
   2715 T=   239. E= -.10497340E+04 F= -.10564922E+04 E0= -.10564922E+04  EK= 0.67582E+01 SP= 0.00E+00 SK= 0.00E+00
   2716 T=   241. E= -.10497436E+04 F= -.10565761E+04 E0= -.10565761E+04  EK= 0.68325E+01 SP= 0.00E+00 SK= 0.00E+00
   2717 T=   246. E= -.10496975E+04 F= -.10566667E+04 E0= -.10566667E+04  EK= 0.69692E+01 SP= 0.00E+00 SK= 0.00E+00
   2718 T=   247. E= -.10497091E+04 F= -.10567094E+04 E0= -.10567094E+04  EK= 0.70002E+01 SP= 0.00E+00 SK= 0.00E+00
   2719 T=   243. E= -.10497974E+04 F= -.10566622E+04 E0= -.10566622E+04  EK= 0.68648E+01 SP= 0.00E+00 SK= 0.00E+00
   2720 T=   238. E= -.10498359E+04 F= -.10565597E+04 E0= -.10565597E+04  EK= 0.67238E+01 SP= 0.00E+00 SK= 0.00E+00
   2721 T=   233. E= -.10498883E+04 F= -.10564773E+04 E0= -.10564773E+04  EK= 0.65890E+01 SP= 0.00E+00 SK= 0.00E+00
   2722 T=   233. E= -.10498922E+04 F= -.10564864E+04 E0= -.10564864E+04  EK= 0.65942E+01 SP= 0.00E+00 SK= 0.00E+00
   2723 T=   239. E= -.10498150E+04 F= -.10565891E+04 E0= -.10565891E+04  EK= 0.67740E+01 SP= 0.00E+00 SK= 0.00E+00
   2724 T=   243. E= -.10497886E+04 F= -.10566701E+04 E0= -.10566701E+04  EK= 0.68814E+01 SP= 0.00E+00 SK= 0.00E+00
   2725 T=   242. E= -.10498238E+04 F= -.10566675E+04 E0= -.10566675E+04  EK= 0.68437E+01 SP= 0.00E+00 SK= 0.00E+00
   2726 T=   239. E= -.10498348E+04 F= -.10565967E+04 E0= -.10565967E+04  EK= 0.67619E+01 SP= 0.00E+00 SK= 0.00E+00
   2727 T=   238. E= -.10497753E+04 F= -.10565041E+04 E0= -.10565041E+04  EK= 0.67289E+01 SP= 0.00E+00 SK= 0.00E+00
   2728 T=   241. E= -.10496999E+04 F= -.10565285E+04 E0= -.10565285E+04  EK= 0.68286E+01 SP= 0.00E+00 SK= 0.00E+00
   2729 T=   244. E= -.10497340E+04 F= -.10566297E+04 E0= -.10566297E+04  EK= 0.68957E+01 SP= 0.00E+00 SK= 0.00E+00
   2730 T=   249. E= -.10496994E+04 F= -.10567614E+04 E0= -.10567614E+04  EK= 0.70620E+01 SP= 0.00E+00 SK= 0.00E+00
   2731 T=   255. E= -.10495904E+04 F= -.10568072E+04 E0= -.10568072E+04  EK= 0.72168E+01 SP= 0.00E+00 SK= 0.00E+00
   2732 T=   251. E= -.10495893E+04 F= -.10567066E+04 E0= -.10567066E+04  EK= 0.71173E+01 SP= 0.00E+00 SK= 0.00E+00
   2733 T=   245. E= -.10496023E+04 F= -.10565383E+04 E0= -.10565383E+04  EK= 0.69360E+01 SP= 0.00E+00 SK= 0.00E+00
   2734 T=   241. E= -.10495605E+04 F= -.10563824E+04 E0= -.10563824E+04  EK= 0.68219E+01 SP= 0.00E+00 SK= 0.00E+00
   2735 T=   244. E= -.10494883E+04 F= -.10563850E+04 E0= -.10563850E+04  EK= 0.68967E+01 SP= 0.00E+00 SK= 0.00E+00
   2736 T=   248. E= -.10494384E+04 F= -.10564452E+04 E0= -.10564452E+04  EK= 0.70068E+01 SP= 0.00E+00 SK= 0.00E+00
   2737 T=   251. E= -.10494457E+04 F= -.10565491E+04 E0= -.10565491E+04  EK= 0.71034E+01 SP= 0.00E+00 SK= 0.00E+00
   2738 T=   251. E= -.10495008E+04 F= -.10566122E+04 E0= -.10566122E+04  EK= 0.71114E+01 SP= 0.00E+00 SK= 0.00E+00
   2739 T=   252. E= -.10494789E+04 F= -.10566184E+04 E0= -.10566184E+04  EK= 0.71395E+01 SP= 0.00E+00 SK= 0.00E+00
   2740 T=   255. E= -.10493463E+04 F= -.10565674E+04 E0= -.10565674E+04  EK= 0.72211E+01 SP= 0.00E+00 SK= 0.00E+00
   2741 T=   261. E= -.10491822E+04 F= -.10565757E+04 E0= -.10565757E+04  EK= 0.73935E+01 SP= 0.00E+00 SK= 0.00E+00
   2742 T=   268. E= -.10490481E+04 F= -.10566206E+04 E0= -.10566206E+04  EK= 0.75725E+01 SP= 0.00E+00 SK= 0.00E+00
   2743 T=   272. E= -.10489760E+04 F= -.10566867E+04 E0= -.10566867E+04  EK= 0.77107E+01 SP= 0.00E+00 SK= 0.00E+00
   2744 T=   272. E= -.10489767E+04 F= -.10566827E+04 E0= -.10566827E+04  EK= 0.77060E+01 SP= 0.00E+00 SK= 0.00E+00
   2745 T=   269. E= -.10490195E+04 F= -.10566415E+04 E0= -.10566415E+04  EK= 0.76219E+01 SP= 0.00E+00 SK= 0.00E+00
       N       E                     dE             d eps       ncg     rms          rms(c)
DAV:   1    -0.806658632804E+03    0.23442E+03   -0.30087E+04 20644   0.305E+02
DAV:   2    -0.104507500693E+04   -0.23842E+03   -0.23768E+03 24304   0.763E+01
DAV:   3    -0.104877344358E+04   -0.36984E+01   -0.36970E+01 24992   0.105E+01
DAV:   4    -0.104883295797E+04   -0.59514E-01   -0.59504E-01 24480   0.131E+00    0.318E+01
DAV:   5    -0.104140716750E+04    0.74258E+01   -0.15761E+01 24992   0.849E+00    0.180E+01
DAV:   6    -0.104131680234E+04    0.90365E-01   -0.12100E+01 25144   0.728E+00    0.479E+00
DAV:   7    -0.104168668545E+04   -0.36988E+00   -0.20957E+00 24208   0.302E+00    0.186E+00
DAV:   8    -0.104168990744E+04   -0.32220E-02   -0.17142E-01 24032   0.897E-01    0.858E-01
DAV:   9    -0.104168866624E+04    0.12412E-02   -0.51891E-02 24224   0.550E-01    0.342E-01
DAV:  10    -0.104168788834E+04    0.77791E-03   -0.10161E-02 25416   0.278E-01    0.138E-01
DAV:  11    -0.104168753057E+04    0.35777E-03   -0.46706E-03 24296   0.159E-01    0.933E-02
DAV:  12    -0.104168707509E+04    0.45548E-03   -0.78768E-04 24240   0.938E-02    0.391E-02
DAV:  13    -0.104168683345E+04    0.24163E-03   -0.47858E-04 22640   0.803E-02    0.372E-02
DAV:  14    -0.104168678883E+04    0.44624E-04   -0.37095E-04 22448   0.518E-02
   2746 T=   268. E= -.10489645E+04 F= -.10565604E+04 E0= -.10565604E+04  EK= 0.75958E+01 SP= 0.00E+00 SK= 0.00E+00
   2747 T=   265. E= -.10489827E+04 F= -.10564732E+04 E0= -.10564732E+04  EK= 0.74905E+01 SP= 0.00E+00 SK= 0.00E+00
   2748 T=   261. E= -.10490355E+04 F= -.10564191E+04 E0= -.10564191E+04  EK= 0.73836E+01 SP= 0.00E+00 SK= 0.00E+00
   2749 T=   259. E= -.10490676E+04 F= -.10563973E+04 E0= -.10563973E+04  EK= 0.73297E+01 SP= 0.00E+00 SK= 0.00E+00
   2750 T=   257. E= -.10491261E+04 F= -.10564011E+04 E0= -.10564011E+04  EK= 0.72750E+01 SP= 0.00E+00 SK= 0.00E+00
   2751 T=   255. E= -.10491605E+04 F= -.10563837E+04 E0= -.10563837E+04  EK= 0.72232E+01 SP= 0.00E+00 SK= 0.00E+00
   2752 T=   253. E= -.10491512E+04 F= -.10563072E+04 E0= -.10563072E+04  EK= 0.71559E+01 SP= 0.00E+00 SK= 0.00E+00
   2753 T=   252. E= -.10490459E+04 F= -.10561741E+04 E0= -.10561741E+04  EK= 0.71282E+01 SP= 0.00E+00 SK= 0.00E+00
   2754 T=   251. E= -.10489368E+04 F= -.10560376E+04 E0= -.10560376E+04  EK= 0.71009E+01 SP= 0.00E+00 SK= 0.00E+00
   2755 T=   248. E= -.10489521E+04 F= -.10559819E+04 E0= -.10559819E+04  EK= 0.70298E+01 SP= 0.00E+00 SK= 0.00E+00
   2756 T=   251. E= -.10489838E+04 F= -.10560898E+04 E0= -.10560898E+04  EK= 0.71060E+01 SP= 0.00E+00 SK= 0.00E+00
   2757 T=   256. E= -.10490012E+04 F= -.10562423E+04 E0= -.10562423E+04  EK= 0.72411E+01 SP= 0.00E+00 SK= 0.00E+00
   2758 T=   256. E= -.10490497E+04 F= -.10562914E+04 E0= -.10562914E+04  EK= 0.72417E+01 SP= 0.00E+00 SK= 0.00E+00
   2759 T=   251. E= -.10491375E+04 F= -.10562565E+04 E0= -.10562565E+04  EK= 0.71190E+01 SP= 0.00E+00 SK= 0.00E+00
   2760 T=   245. E= -.10492358E+04 F= -.10561657E+04 E0= -.10561657E+04  EK= 0.69299E+01 SP= 0.00E+00 SK= 0.00E+00
   2761 T=   240. E= -.10492570E+04 F= -.10560593E+04 E0= -.10560593E+04  EK= 0.68023E+01 SP= 0.00E+00 SK= 0.00E+00
   2762 T=   238. E= -.10492236E+04 F= -.10559577E+04 E0= -.10559577E+04  EK= 0.67341E+01 SP= 0.00E+00 SK= 0.00E+00
   2763 T=   242. E= -.10491049E+04 F= -.10559562E+04 E0= -.10559562E+04  EK= 0.68514E+01 SP= 0.00E+00 SK= 0.00E+00
   2764 T=   244. E= -.10491255E+04 F= -.10560439E+04 E0= -.10560439E+04  EK= 0.69183E+01 SP= 0.00E+00 SK= 0.00E+00
   2765 T=   246. E= -.10491779E+04 F= -.10561555E+04 E0= -.10561555E+04  EK= 0.69776E+01 SP= 0.00E+00 SK= 0.00E+00
       N       E                     dE             d eps       ncg     rms          rms(c)
DAV:   1    -0.100025552092E+04    0.41431E+02   -0.10173E+04 20644   0.182E+02
DAV:   2    -0.104377002467E+04   -0.43515E+02   -0.43486E+02 24712   0.335E+01
DAV:   3    -0.104420912653E+04   -0.43910E+00   -0.43903E+00 24960   0.364E+00
DAV:   4    -0.104421730517E+04   -0.81786E-02   -0.81778E-02 24840   0.489E-01    0.188E+01
DAV:   5    -0.104129290127E+04    0.29244E+01   -0.42861E+00 25312   0.492E+00    0.106E+01
DAV:   6    -0.104111938716E+04    0.17351E+00   -0.53870E+00 25112   0.485E+00    0.228E+00
DAV:   7    -0.104120543925E+04   -0.86052E-01   -0.87795E-01 23992   0.208E+00    0.106E+00
DAV:   8    -0.104120769503E+04   -0.22558E-02   -0.82923E-02 24320   0.564E-01    0.591E-01
DAV:   9    -0.104120511772E+04    0.25773E-02   -0.31687E-02 23872   0.468E-01    0.311E-01
DAV:  10    -0.104120261035E+04    0.25074E-02   -0.66165E-03 24096   0.283E-01    0.140E-01
DAV:  11    -0.104120216982E+04    0.44053E-03   -0.71985E-03 24696   0.203E-01    0.102E-01
DAV:  12    -0.104120154033E+04    0.62949E-03   -0.12732E-03 24048   0.113E-01    0.357E-02
DAV:  13    -0.104120121210E+04    0.32823E-03   -0.41619E-04 22120   0.957E-02    0.330E-02
DAV:  14    -0.104120112883E+04    0.83271E-04   -0.39694E-04 22192   0.715E-02
   2766 T=   249. E= -.10491653E+04 F= -.10562047E+04 E0= -.10562047E+04  EK= 0.70394E+01 SP= 0.00E+00 SK= 0.00E+00
   2767 T=   245. E= -.10492164E+04 F= -.10561379E+04 E0= -.10561379E+04  EK= 0.69215E+01 SP= 0.00E+00 SK= 0.00E+00
   2768 T=   240. E= -.10492030E+04 F= -.10559982E+04 E0= -.10559982E+04  EK= 0.67952E+01 SP= 0.00E+00 SK= 0.00E+00
   2769 T=   238. E= -.10490849E+04 F= -.10558177E+04 E0= -.10558177E+04  EK= 0.67328E+01 SP= 0.00E+00 SK= 0.00E+00
   2770 T=   236. E= -.10490122E+04 F= -.10556843E+04 E0= -.10556843E+04  EK= 0.66721E+01 SP= 0.00E+00 SK= 0.00E+00
   2771 T=   238. E= -.10490120E+04 F= -.10557401E+04 E0= -.10557401E+04  EK= 0.67281E+01 SP= 0.00E+00 SK= 0.00E+00
   2772 T=   240. E= -.10491334E+04 F= -.10559311E+04 E0= -.10559311E+04  EK= 0.67977E+01 SP= 0.00E+00 SK= 0.00E+00
   2773 T=   241. E= -.10493122E+04 F= -.10561322E+04 E0= -.10561322E+04  EK= 0.68200E+01 SP= 0.00E+00 SK= 0.00E+00
   2774 T=   242. E= -.10494469E+04 F= -.10562900E+04 E0= -.10562900E+04  EK= 0.68431E+01 SP= 0.00E+00 SK= 0.00E+00
   2775 T=   241. E= -.10495104E+04 F= -.10563339E+04 E0= -.10563339E+04  EK= 0.68235E+01 SP= 0.00E+00 SK= 0.00E+00
   2776 T=   240. E= -.10495149E+04 F= -.10562950E+04 E0= -.10562950E+04  EK= 0.67801E+01 SP= 0.00E+00 SK= 0.00E+00
   2777 T=   238. E= -.10495092E+04 F= -.10562581E+04 E0= -.10562581E+04  EK= 0.67489E+01 SP= 0.00E+00 SK= 0.00E+00
   2778 T=   239. E= -.10494914E+04 F= -.10562527E+04 E0= -.10562527E+04  EK= 0.67613E+01 SP= 0.00E+00 SK= 0.00E+00
   2779 T=   239. E= -.10495559E+04 F= -.10563233E+04 E0= -.10563233E+04  EK= 0.67674E+01 SP= 0.00E+00 SK= 0.00E+00
   2780 T=   243. E= -.10495760E+04 F= -.10564421E+04 E0= -.10564421E+04  EK= 0.68661E+01 SP= 0.00E+00 SK= 0.00E+00
   2781 T=   250. E= -.10495018E+04 F= -.10565735E+04 E0= -.10565735E+04  EK= 0.70717E+01 SP= 0.00E+00 SK= 0.00E+00
   2782 T=   251. E= -.10495201E+04 F= -.10566226E+04 E0= -.10566226E+04  EK= 0.71025E+01 SP= 0.00E+00 SK= 0.00E+00
       N       E                     dE             d eps       ncg     rms          rms(c)
DAV:   1    -0.102014632312E+04    0.21055E+02   -0.69321E+03 20644   0.152E+02
DAV:   2    -0.104282707090E+04   -0.22681E+02   -0.22671E+02 24768   0.245E+01
DAV:   3    -0.104304024289E+04   -0.21317E+00   -0.21315E+00 24976   0.255E+00
DAV:   4    -0.104304441971E+04   -0.41768E-02   -0.41765E-02 24968   0.349E-01    0.155E+01
DAV:   5    -0.104139269852E+04    0.16517E+01   -0.24213E+00 24400   0.363E+00    0.892E+00
DAV:   6    -0.104141681867E+04   -0.24120E-01   -0.36629E+00 24936   0.407E+00    0.165E+00
DAV:   7    -0.104147265741E+04   -0.55839E-01   -0.60224E-01 23936   0.157E+00    0.900E-01
DAV:   8    -0.104147260033E+04    0.57088E-04   -0.47118E-02 24456   0.440E-01    0.432E-01
DAV:   9    -0.104147148922E+04    0.11111E-02   -0.11900E-02 24000   0.301E-01    0.190E-01
DAV:  10    -0.104147073739E+04    0.75183E-03   -0.35144E-03 23840   0.176E-01    0.768E-02
DAV:  11    -0.104147051872E+04    0.21867E-03   -0.19808E-03 24368   0.103E-01    0.583E-02
DAV:  12    -0.104147029947E+04    0.21926E-03   -0.32351E-04 19872   0.562E-02    0.250E-02
DAV:  13    -0.104147017476E+04    0.12471E-03   -0.22129E-04 17848   0.539E-02    0.261E-02
DAV:  14    -0.104147015026E+04    0.24504E-04   -0.13572E-04 17656   0.346E-02
   2783 T=   246. E= -.10496255E+04 F= -.10565817E+04 E0= -.10565817E+04  EK= 0.69562E+01 SP= 0.00E+00 SK= 0.00E+00
   2784 T=   241. E= -.10495886E+04 F= -.10564202E+04 E0= -.10564202E+04  EK= 0.68316E+01 SP= 0.00E+00 SK= 0.00E+00
   2785 T=   242. E= -.10494698E+04 F= -.10563161E+04 E0= -.10563161E+04  EK= 0.68462E+01 SP= 0.00E+00 SK= 0.00E+00
   2786 T=   246. E= -.10493371E+04 F= -.10563077E+04 E0= -.10563077E+04  EK= 0.69707E+01 SP= 0.00E+00 SK= 0.00E+00
   2787 T=   251. E= -.10493056E+04 F= -.10564155E+04 E0= -.10564155E+04  EK= 0.71099E+01 SP= 0.00E+00 SK= 0.00E+00
   2788 T=   250. E= -.10494338E+04 F= -.10565231E+04 E0= -.10565231E+04  EK= 0.70893E+01 SP= 0.00E+00 SK= 0.00E+00
   2789 T=   248. E= -.10495938E+04 F= -.10566042E+04 E0= -.10566042E+04  EK= 0.70104E+01 SP= 0.00E+00 SK= 0.00E+00
   2790 T=   247. E= -.10496359E+04 F= -.10566300E+04 E0= -.10566300E+04  EK= 0.69940E+01 SP= 0.00E+00 SK= 0.00E+00
   2791 T=   251. E= -.10494916E+04 F= -.10566028E+04 E0= -.10566028E+04  EK= 0.71112E+01 SP= 0.00E+00 SK= 0.00E+00
   2792 T=   252. E= -.10494142E+04 F= -.10565470E+04 E0= -.10565470E+04  EK= 0.71328E+01 SP= 0.00E+00 SK= 0.00E+00
       N       E                     dE             d eps       ncg     rms          rms(c)
DAV:   1    -0.103480143346E+04    0.66687E+01   -0.30070E+03 20644   0.101E+02
DAV:   2    -0.104233158990E+04   -0.75302E+01   -0.75281E+01 24968   0.147E+01
DAV:   3    -0.104239985749E+04   -0.68268E-01   -0.68263E-01 24976   0.144E+00
DAV:   4    -0.104240125903E+04   -0.14015E-02   -0.14015E-02 24976   0.203E-01    0.114E+01
DAV:   5    -0.104132096844E+04    0.10803E+01   -0.20970E+00 26104   0.376E+00    0.622E+00
DAV:   6    -0.104132618566E+04   -0.52172E-02   -0.16705E+00 25104   0.282E+00    0.181E+00
DAV:   7    -0.104136487206E+04   -0.38686E-01   -0.29358E-01 24656   0.131E+00    0.635E-01
DAV:   8    -0.104136550648E+04   -0.63441E-03   -0.32677E-02 23296   0.390E-01    0.345E-01
DAV:   9    -0.104136459041E+04    0.91607E-03   -0.13560E-02 23712   0.291E-01    0.182E-01
DAV:  10    -0.104136354453E+04    0.10459E-02   -0.28659E-03 27200   0.188E-01    0.578E-02
DAV:  11    -0.104136340980E+04    0.13472E-03   -0.16693E-03 24224   0.938E-02    0.529E-02
DAV:  12    -0.104136321124E+04    0.19857E-03   -0.34034E-04 20944   0.657E-02    0.223E-02
DAV:  13    -0.104136313775E+04    0.73490E-04   -0.13097E-04 16536   0.473E-02
   2793 T=   248. E= -.10495134E+04 F= -.10565245E+04 E0= -.10565245E+04  EK= 0.70111E+01 SP= 0.00E+00 SK= 0.00E+00
   2794 T=   245. E= -.10495617E+04 F= -.10564926E+04 E0= -.10564926E+04  EK= 0.69309E+01 SP= 0.00E+00 SK= 0.00E+00
   2795 T=   243. E= -.10496468E+04 F= -.10565147E+04 E0= -.10565147E+04  EK= 0.68679E+01 SP= 0.00E+00 SK= 0.00E+00
   2796 T=   240. E= -.10497537E+04 F= -.10565492E+04 E0= -.10565492E+04  EK= 0.67955E+01 SP= 0.00E+00 SK= 0.00E+00
   2797 T=   240. E= -.10497736E+04 F= -.10565673E+04 E0= -.10565673E+04  EK= 0.67937E+01 SP= 0.00E+00 SK= 0.00E+00
   2798 T=   241. E= -.10497239E+04 F= -.10565526E+04 E0= -.10565526E+04  EK= 0.68288E+01 SP= 0.00E+00 SK= 0.00E+00
   2799 T=   241. E= -.10496639E+04 F= -.10564881E+04 E0= -.10564881E+04  EK= 0.68241E+01 SP= 0.00E+00 SK= 0.00E+00
   2800 T=   241. E= -.10495992E+04 F= -.10564327E+04 E0= -.10564327E+04  EK= 0.68336E+01 SP= 0.00E+00 SK= 0.00E+00
   2801 T=   241. E= -.10495891E+04 F= -.10564028E+04 E0= -.10564028E+04  EK= 0.68137E+01 SP= 0.00E+00 SK= 0.00E+00
   2802 T=   237. E= -.10496742E+04 F= -.10563756E+04 E0= -.10563756E+04  EK= 0.67014E+01 SP= 0.00E+00 SK= 0.00E+00
       N       E                     dE             d eps       ncg     rms          rms(c)
DAV:   1    -0.103485548450E+04    0.65077E+01   -0.28806E+03 20644   0.992E+01
DAV:   2    -0.104201056512E+04   -0.71551E+01   -0.71531E+01 25016   0.143E+01
DAV:   3    -0.104207672245E+04   -0.66157E-01   -0.66152E-01 25016   0.141E+00
DAV:   4    -0.104207812453E+04   -0.14021E-02   -0.14020E-02 25056   0.201E-01    0.113E+01
DAV:   5    -0.104105461546E+04    0.10235E+01   -0.21309E+00 25680   0.378E+00    0.614E+00
DAV:   6    -0.104106379276E+04   -0.91773E-02   -0.15009E+00 25120   0.268E+00    0.187E+00
DAV:   7    -0.104110058930E+04   -0.36797E-01   -0.27990E-01 24912   0.127E+00    0.614E-01
DAV:   8    -0.104109986788E+04    0.72142E-03   -0.27888E-02 23928   0.390E-01    0.320E-01
DAV:   9    -0.104109837830E+04    0.14896E-02   -0.13233E-02 23960   0.288E-01    0.167E-01
DAV:  10    -0.104109718499E+04    0.11933E-02   -0.30754E-03 27848   0.192E-01    0.603E-02
DAV:  11    -0.104109684517E+04    0.33982E-03   -0.15535E-03 23976   0.103E-01    0.570E-02
DAV:  12    -0.104109644970E+04    0.39548E-03   -0.29605E-04 19896   0.900E-02    0.214E-02
DAV:  13    -0.104109633453E+04    0.11517E-03   -0.43666E-04 22488   0.703E-02    0.320E-02
DAV:  14    -0.104109631169E+04    0.22834E-04   -0.21697E-04 18472   0.393E-02
   2803 T=   233. E= -.10497598E+04 F= -.10563451E+04 E0= -.10563451E+04  EK= 0.65853E+01 SP= 0.00E+00 SK= 0.00E+00
   2804 T=   230. E= -.10498150E+04 F= -.10563207E+04 E0= -.10563207E+04  EK= 0.65056E+01 SP= 0.00E+00 SK= 0.00E+00
   2805 T=   230. E= -.10498266E+04 F= -.10563234E+04 E0= -.10563234E+04  EK= 0.64968E+01 SP= 0.00E+00 SK= 0.00E+00
   2806 T=   233. E= -.10497660E+04 F= -.10563615E+04 E0= -.10563615E+04  EK= 0.65955E+01 SP= 0.00E+00 SK= 0.00E+00
   2807 T=   236. E= -.10497525E+04 F= -.10564257E+04 E0= -.10564257E+04  EK= 0.66732E+01 SP= 0.00E+00 SK= 0.00E+00
   2808 T=   237. E= -.10498296E+04 F= -.10565340E+04 E0= -.10565340E+04  EK= 0.67044E+01 SP= 0.00E+00 SK= 0.00E+00
   2809 T=   237. E= -.10498653E+04 F= -.10565777E+04 E0= -.10565777E+04  EK= 0.67124E+01 SP= 0.00E+00 SK= 0.00E+00
   2810 T=   237. E= -.10498324E+04 F= -.10565450E+04 E0= -.10565450E+04  EK= 0.67127E+01 SP= 0.00E+00 SK= 0.00E+00
   2811 T=   237. E= -.10498007E+04 F= -.10564988E+04 E0= -.10564988E+04  EK= 0.66982E+01 SP= 0.00E+00 SK= 0.00E+00
   2812 T=   237. E= -.10497829E+04 F= -.10564803E+04 E0= -.10564803E+04  EK= 0.66974E+01 SP= 0.00E+00 SK= 0.00E+00
       N       E                     dE             d eps       ncg     rms          rms(c)
DAV:   1    -0.103509923288E+04    0.59971E+01   -0.28607E+03 20644   0.987E+01
DAV:   2    -0.104202482826E+04   -0.69256E+01   -0.69238E+01 24984   0.141E+01
DAV:   3    -0.104208972848E+04   -0.64900E-01   -0.64896E-01 25016   0.139E+00
DAV:   4    -0.104209112822E+04   -0.13997E-02   -0.13997E-02 25024   0.198E-01    0.108E+01
DAV:   5    -0.104116552937E+04    0.92560E+00   -0.17911E+00 25608   0.342E+00    0.595E+00
DAV:   6    -0.104115734926E+04    0.81801E-02   -0.14556E+00 24968   0.256E+00    0.170E+00
DAV:   7    -0.104118898964E+04   -0.31640E-01   -0.27082E-01 25016   0.131E+00    0.616E-01
DAV:   8    -0.104118885493E+04    0.13470E-03   -0.32514E-02 23544   0.409E-01    0.336E-01
DAV:   9    -0.104118796093E+04    0.89400E-03   -0.15958E-02 23904   0.280E-01    0.193E-01
DAV:  10    -0.104118673942E+04    0.12215E-02   -0.31255E-03 30248   0.201E-01    0.608E-02
DAV:  11    -0.104118658694E+04    0.15248E-03   -0.18048E-03 23864   0.990E-02    0.587E-02
DAV:  12    -0.104118633403E+04    0.25291E-03   -0.24147E-04 18608   0.621E-02    0.207E-02
DAV:  13    -0.104118625385E+04    0.80181E-04   -0.27144E-04 19928   0.518E-02
   2813 T=   237. E= -.10497502E+04 F= -.10564734E+04 E0= -.10564734E+04  EK= 0.67232E+01 SP= 0.00E+00 SK= 0.00E+00
   2814 T=   240. E= -.10497645E+04 F= -.10565628E+04 E0= -.10565628E+04  EK= 0.67983E+01 SP= 0.00E+00 SK= 0.00E+00
   2815 T=   238. E= -.10498600E+04 F= -.10565999E+04 E0= -.10565999E+04  EK= 0.67399E+01 SP= 0.00E+00 SK= 0.00E+00
   2816 T=   235. E= -.10499243E+04 F= -.10565667E+04 E0= -.10565667E+04  EK= 0.66423E+01 SP= 0.00E+00 SK= 0.00E+00
   2817 T=   234. E= -.10498490E+04 F= -.10564823E+04 E0= -.10564823E+04  EK= 0.66333E+01 SP= 0.00E+00 SK= 0.00E+00
   2818 T=   233. E= -.10498168E+04 F= -.10564185E+04 E0= -.10564185E+04  EK= 0.66017E+01 SP= 0.00E+00 SK= 0.00E+00
   2819 T=   234. E= -.10498641E+04 F= -.10564761E+04 E0= -.10564761E+04  EK= 0.66120E+01 SP= 0.00E+00 SK= 0.00E+00
   2820 T=   239. E= -.10499183E+04 F= -.10566726E+04 E0= -.10566726E+04  EK= 0.67543E+01 SP= 0.00E+00 SK= 0.00E+00
   2821 T=   245. E= -.10499349E+04 F= -.10568581E+04 E0= -.10568581E+04  EK= 0.69232E+01 SP= 0.00E+00 SK= 0.00E+00
   2822 T=   250. E= -.10498618E+04 F= -.10569437E+04 E0= -.10569437E+04  EK= 0.70819E+01 SP= 0.00E+00 SK= 0.00E+00
       N       E                     dE             d eps       ncg     rms          rms(c)
DAV:   1    -0.103577213462E+04    0.54142E+01   -0.27388E+03 20644   0.967E+01
DAV:   2    -0.104239686209E+04   -0.66247E+01   -0.66231E+01 25000   0.138E+01
DAV:   3    -0.104245743466E+04   -0.60573E-01   -0.60569E-01 24952   0.135E+00
DAV:   4    -0.104245871958E+04   -0.12849E-02   -0.12849E-02 24960   0.192E-01    0.109E+01
DAV:   5    -0.104151777024E+04    0.94095E+00   -0.19460E+00 26072   0.360E+00    0.595E+00
DAV:   6    -0.104153574659E+04   -0.17976E-01   -0.14535E+00 24848   0.257E+00    0.178E+00
DAV:   7    -0.104157182170E+04   -0.36075E-01   -0.26560E-01 24528   0.126E+00    0.610E-01
DAV:   8    -0.104157147151E+04    0.35020E-03   -0.28534E-02 23608   0.404E-01    0.336E-01
DAV:   9    -0.104157032455E+04    0.11470E-02   -0.16737E-02 23840   0.311E-01    0.197E-01
DAV:  10    -0.104156896249E+04    0.13621E-02   -0.35301E-03 28440   0.199E-01    0.658E-02
DAV:  11    -0.104156864621E+04    0.31628E-03   -0.18177E-03 23680   0.101E-01    0.572E-02
DAV:  12    -0.104156826551E+04    0.38070E-03   -0.24772E-04 19200   0.789E-02    0.227E-02
DAV:  13    -0.104156812111E+04    0.14440E-03   -0.38787E-04 22000   0.694E-02    0.273E-02
DAV:  14    -0.104156809898E+04    0.22126E-04   -0.17700E-04 17448   0.378E-02
   2823 T=   255. E= -.10496501E+04 F= -.10568688E+04 E0= -.10568688E+04  EK= 0.72188E+01 SP= 0.00E+00 SK= 0.00E+00
   2824 T=   254. E= -.10495616E+04 F= -.10567461E+04 E0= -.10567461E+04  EK= 0.71845E+01 SP= 0.00E+00 SK= 0.00E+00
   2825 T=   248. E= -.10496442E+04 F= -.10566586E+04 E0= -.10566586E+04  EK= 0.70144E+01 SP= 0.00E+00 SK= 0.00E+00
   2826 T=   245. E= -.10497658E+04 F= -.10567022E+04 E0= -.10567022E+04  EK= 0.69364E+01 SP= 0.00E+00 SK= 0.00E+00
   2827 T=   249. E= -.10497707E+04 F= -.10568270E+04 E0= -.10568270E+04  EK= 0.70563E+01 SP= 0.00E+00 SK= 0.00E+00
   2828 T=   250. E= -.10498277E+04 F= -.10569122E+04 E0= -.10569122E+04  EK= 0.70845E+01 SP= 0.00E+00 SK= 0.00E+00
   2829 T=   244. E= -.10499679E+04 F= -.10568809E+04 E0= -.10568809E+04  EK= 0.69130E+01 SP= 0.00E+00 SK= 0.00E+00
   2830 T=   237. E= -.10500613E+04 F= -.10567761E+04 E0= -.10567761E+04  EK= 0.67148E+01 SP= 0.00E+00 SK= 0.00E+00
   2831 T=   230. E= -.10501253E+04 F= -.10566380E+04 E0= -.10566380E+04  EK= 0.65127E+01 SP= 0.00E+00 SK= 0.00E+00
   2832 T=   227. E= -.10501239E+04 F= -.10565494E+04 E0= -.10565494E+04  EK= 0.64255E+01 SP= 0.00E+00 SK= 0.00E+00
       N       E                     dE             d eps       ncg     rms          rms(c)
DAV:   1    -0.103485433270E+04    0.67138E+01   -0.30009E+03 20644   0.101E+02
DAV:   2    -0.104236612174E+04   -0.75118E+01   -0.75095E+01 25016   0.146E+01
DAV:   3    -0.104243535798E+04   -0.69236E-01   -0.69230E-01 25008   0.144E+00
DAV:   4    -0.104243680961E+04   -0.14516E-02   -0.14515E-02 25008   0.204E-01    0.115E+01
DAV:   5    -0.104124755868E+04    0.11893E+01   -0.23325E+00 25632   0.381E+00    0.620E+00
DAV:   6    -0.104120296104E+04    0.44598E-01   -0.15838E+00 25016   0.267E+00    0.190E+00
DAV:   7    -0.104123842381E+04   -0.35463E-01   -0.30184E-01 25256   0.135E+00    0.650E-01
DAV:   8    -0.104123684374E+04    0.15801E-02   -0.34282E-02 24080   0.425E-01    0.355E-01
DAV:   9    -0.104123412905E+04    0.27147E-02   -0.15490E-02 23912   0.296E-01    0.178E-01
DAV:  10    -0.104123227396E+04    0.18551E-02   -0.32206E-03 28360   0.214E-01    0.680E-02
DAV:  11    -0.104123168794E+04    0.58602E-03   -0.23247E-03 23968   0.128E-01    0.729E-02
DAV:  12    -0.104123108909E+04    0.59885E-03   -0.52405E-04 22752   0.101E-01    0.249E-02
DAV:  13    -0.104123090544E+04    0.18365E-03   -0.45859E-04 22440   0.792E-02    0.361E-02
DAV:  14    -0.104123088110E+04    0.24346E-04   -0.30338E-04 21864   0.456E-02
   2833 T=   228. E= -.10501363E+04 F= -.10565880E+04 E0= -.10565880E+04  EK= 0.64517E+01 SP= 0.00E+00 SK= 0.00E+00
   2834 T=   227. E= -.10502309E+04 F= -.10566648E+04 E0= -.10566648E+04  EK= 0.64339E+01 SP= 0.00E+00 SK= 0.00E+00
   2835 T=   231. E= -.10502819E+04 F= -.10568151E+04 E0= -.10568151E+04  EK= 0.65332E+01 SP= 0.00E+00 SK= 0.00E+00
   2836 T=   237. E= -.10502562E+04 F= -.10569605E+04 E0= -.10569605E+04  EK= 0.67044E+01 SP= 0.00E+00 SK= 0.00E+00
   2837 T=   245. E= -.10501660E+04 F= -.10570901E+04 E0= -.10570901E+04  EK= 0.69241E+01 SP= 0.00E+00 SK= 0.00E+00
   2838 T=   249. E= -.10501010E+04 F= -.10571596E+04 E0= -.10571596E+04  EK= 0.70585E+01 SP= 0.00E+00 SK= 0.00E+00
   2839 T=   248. E= -.10501363E+04 F= -.10571642E+04 E0= -.10571642E+04  EK= 0.70279E+01 SP= 0.00E+00 SK= 0.00E+00
   2840 T=   248. E= -.10501423E+04 F= -.10571762E+04 E0= -.10571762E+04  EK= 0.70340E+01 SP= 0.00E+00 SK= 0.00E+00
   2841 T=   247. E= -.10501654E+04 F= -.10571707E+04 E0= -.10571707E+04  EK= 0.70054E+01 SP= 0.00E+00 SK= 0.00E+00
   2842 T=   245. E= -.10501740E+04 F= -.10570995E+04 E0= -.10570995E+04  EK= 0.69255E+01 SP= 0.00E+00 SK= 0.00E+00
       N       E                     dE             d eps       ncg     rms          rms(c)
DAV:   1    -0.103513036143E+04    0.61005E+01   -0.29804E+03 20644   0.101E+02
DAV:   2    -0.104240538154E+04   -0.72750E+01   -0.72729E+01 25024   0.145E+01
DAV:   3    -0.104247310756E+04   -0.67726E-01   -0.67720E-01 24968   0.144E+00
DAV:   4    -0.104247455905E+04   -0.14515E-02   -0.14514E-02 25008   0.204E-01    0.112E+01
DAV:   5    -0.104148159267E+04    0.99297E+00   -0.18448E+00 25528   0.344E+00    0.616E+00
DAV:   6    -0.104144530689E+04    0.36286E-01   -0.15925E+00 25128   0.276E+00    0.165E+00
DAV:   7    -0.104147794501E+04   -0.32638E-01   -0.30524E-01 24824   0.132E+00    0.652E-01
DAV:   8    -0.104147635035E+04    0.15947E-02   -0.32745E-02 23744   0.397E-01    0.351E-01
DAV:   9    -0.104147428209E+04    0.20683E-02   -0.12299E-02 23992   0.280E-01    0.167E-01
DAV:  10    -0.104147278565E+04    0.14964E-02   -0.27560E-03 27736   0.211E-01    0.683E-02
DAV:  11    -0.104147245764E+04    0.32801E-03   -0.24822E-03 24552   0.131E-01    0.715E-02
DAV:  12    -0.104147206099E+04    0.39665E-03   -0.76104E-04 22872   0.989E-02    0.367E-02
DAV:  13    -0.104147192134E+04    0.13965E-03   -0.25802E-04 19304   0.726E-02    0.391E-02
DAV:  14    -0.104147189251E+04    0.28833E-04   -0.38124E-04 23456   0.520E-02
   2843 T=   242. E= -.10500456E+04 F= -.10569031E+04 E0= -.10569031E+04  EK= 0.68575E+01 SP= 0.00E+00 SK= 0.00E+00
   2844 T=   236. E= -.10500600E+04 F= -.10567390E+04 E0= -.10567390E+04  EK= 0.66790E+01 SP= 0.00E+00 SK= 0.00E+00
   2845 T=   230. E= -.10500675E+04 F= -.10565779E+04 E0= -.10565779E+04  EK= 0.65104E+01 SP= 0.00E+00 SK= 0.00E+00
   2846 T=   229. E= -.10500210E+04 F= -.10564979E+04 E0= -.10564979E+04  EK= 0.64769E+01 SP= 0.00E+00 SK= 0.00E+00
   2847 T=   230. E= -.10500021E+04 F= -.10565203E+04 E0= -.10565203E+04  EK= 0.65182E+01 SP= 0.00E+00 SK= 0.00E+00
   2848 T=   231. E= -.10500580E+04 F= -.10565938E+04 E0= -.10565938E+04  EK= 0.65358E+01 SP= 0.00E+00 SK= 0.00E+00
   2849 T=   231. E= -.10501066E+04 F= -.10566524E+04 E0= -.10566524E+04  EK= 0.65458E+01 SP= 0.00E+00 SK= 0.00E+00
   2850 T=   229. E= -.10501412E+04 F= -.10566335E+04 E0= -.10566335E+04  EK= 0.64923E+01 SP= 0.00E+00 SK= 0.00E+00
   2851 T=   230. E= -.10501380E+04 F= -.10566428E+04 E0= -.10566428E+04  EK= 0.65048E+01 SP= 0.00E+00 SK= 0.00E+00
   2852 T=   233. E= -.10501203E+04 F= -.10567255E+04 E0= -.10567255E+04  EK= 0.66052E+01 SP= 0.00E+00 SK= 0.00E+00
       N       E                     dE             d eps       ncg     rms          rms(c)
DAV:   1    -0.103483927785E+04    0.66326E+01   -0.28024E+03 20644   0.974E+01
DAV:   2    -0.104210598154E+04   -0.72667E+01   -0.72646E+01 25048   0.143E+01
DAV:   3    -0.104217300373E+04   -0.67022E-01   -0.67017E-01 24960   0.143E+00
DAV:   4    -0.104217440553E+04   -0.14018E-02   -0.14017E-02 24992   0.202E-01    0.108E+01
DAV:   5    -0.104128955724E+04    0.88485E+00   -0.16816E+00 25608   0.339E+00    0.598E+00
DAV:   6    -0.104129634353E+04   -0.67863E-02   -0.15287E+00 25112   0.265E+00    0.161E+00
DAV:   7    -0.104132735564E+04   -0.31012E-01   -0.28344E-01 24880   0.132E+00    0.612E-01
DAV:   8    -0.104132631275E+04    0.10429E-02   -0.31445E-02 23688   0.429E-01    0.334E-01
DAV:   9    -0.104132540740E+04    0.90535E-03   -0.17426E-02 23848   0.301E-01    0.205E-01
DAV:  10    -0.104132401882E+04    0.13886E-02   -0.36627E-03 29592   0.205E-01    0.601E-02
DAV:  11    -0.104132375005E+04    0.26877E-03   -0.17106E-03 23752   0.995E-02    0.545E-02
DAV:  12    -0.104132342189E+04    0.32816E-03   -0.24903E-04 19080   0.744E-02    0.225E-02
DAV:  13    -0.104132330968E+04    0.11222E-03   -0.36854E-04 22168   0.674E-02    0.285E-02
DAV:  14    -0.104132329297E+04    0.16703E-04   -0.16688E-04 17656   0.353E-02
   2853 T=   238. E= -.10500891E+04 F= -.10568135E+04 E0= -.10568135E+04  EK= 0.67243E+01 SP= 0.00E+00 SK= 0.00E+00
   2854 T=   243. E= -.10501164E+04 F= -.10569935E+04 E0= -.10569935E+04  EK= 0.68770E+01 SP= 0.00E+00 SK= 0.00E+00
   2855 T=   243. E= -.10501949E+04 F= -.10570827E+04 E0= -.10570827E+04  EK= 0.68878E+01 SP= 0.00E+00 SK= 0.00E+00
   2856 T=   243. E= -.10501944E+04 F= -.10570726E+04 E0= -.10570726E+04  EK= 0.68783E+01 SP= 0.00E+00 SK= 0.00E+00
   2857 T=   244. E= -.10500986E+04 F= -.10569967E+04 E0= -.10569967E+04  EK= 0.68981E+01 SP= 0.00E+00 SK= 0.00E+00
   2858 T=   243. E= -.10500016E+04 F= -.10568738E+04 E0= -.10568738E+04  EK= 0.68721E+01 SP= 0.00E+00 SK= 0.00E+00
   2859 T=   241. E= -.10499271E+04 F= -.10567563E+04 E0= -.10567563E+04  EK= 0.68292E+01 SP= 0.00E+00 SK= 0.00E+00
   2860 T=   241. E= -.10498709E+04 F= -.10566898E+04 E0= -.10566898E+04  EK= 0.68189E+01 SP= 0.00E+00 SK= 0.00E+00
   2861 T=   241. E= -.10497849E+04 F= -.10566177E+04 E0= -.10566177E+04  EK= 0.68328E+01 SP= 0.00E+00 SK= 0.00E+00
   2862 T=   241. E= -.10497562E+04 F= -.10565884E+04 E0= -.10565884E+04  EK= 0.68322E+01 SP= 0.00E+00 SK= 0.00E+00
       N       E                     dE             d eps       ncg     rms          rms(c)
DAV:   1    -0.103483096966E+04    0.64923E+01   -0.27868E+03 20644   0.975E+01
DAV:   2    -0.104181601050E+04   -0.69850E+01   -0.69830E+01 25112   0.141E+01
DAV:   3    -0.104187930346E+04   -0.63293E-01   -0.63287E-01 25040   0.139E+00
DAV:   4    -0.104188060236E+04   -0.12989E-02   -0.12988E-02 25040   0.197E-01    0.110E+01
DAV:   5    -0.104097946184E+04    0.90114E+00   -0.18240E+00 25704   0.348E+00    0.607E+00
DAV:   6    -0.104098723987E+04   -0.77780E-02   -0.15404E+00 25128   0.275E+00    0.168E+00
DAV:   7    -0.104102353709E+04   -0.36297E-01   -0.29938E-01 24736   0.133E+00    0.628E-01
DAV:   8    -0.104102136651E+04    0.21706E-02   -0.31233E-02 23720   0.414E-01    0.328E-01
DAV:   9    -0.104101973400E+04    0.16325E-02   -0.14498E-02 23904   0.274E-01    0.176E-01
DAV:  10    -0.104101828831E+04    0.14457E-02   -0.29424E-03 28640   0.201E-01    0.587E-02
DAV:  11    -0.104101792809E+04    0.36022E-03   -0.18455E-03 23840   0.110E-01    0.628E-02
DAV:  12    -0.104101757062E+04    0.35748E-03   -0.43317E-04 22136   0.734E-02    0.239E-02
DAV:  13    -0.104101744253E+04    0.12809E-03   -0.20656E-04 17352   0.576E-02    0.285E-02
DAV:  14    -0.104101742399E+04    0.18536E-04   -0.17438E-04 17592   0.362E-02
   2863 T=   236. E= -.10498653E+04 F= -.10565478E+04 E0= -.10565478E+04  EK= 0.66824E+01 SP= 0.00E+00 SK= 0.00E+00
   2864 T=   231. E= -.10499946E+04 F= -.10565347E+04 E0= -.10565347E+04  EK= 0.65401E+01 SP= 0.00E+00 SK= 0.00E+00
   2865 T=   231. E= -.10499658E+04 F= -.10564990E+04 E0= -.10564990E+04  EK= 0.65331E+01 SP= 0.00E+00 SK= 0.00E+00
   2866 T=   231. E= -.10499271E+04 F= -.10564620E+04 E0= -.10564620E+04  EK= 0.65349E+01 SP= 0.00E+00 SK= 0.00E+00
   2867 T=   232. E= -.10498910E+04 F= -.10564589E+04 E0= -.10564589E+04  EK= 0.65679E+01 SP= 0.00E+00 SK= 0.00E+00
   2868 T=   239. E= -.10497239E+04 F= -.10564880E+04 E0= -.10564880E+04  EK= 0.67642E+01 SP= 0.00E+00 SK= 0.00E+00
   2869 T=   246. E= -.10495890E+04 F= -.10565564E+04 E0= -.10565564E+04  EK= 0.69674E+01 SP= 0.00E+00 SK= 0.00E+00
   2870 T=   249. E= -.10496052E+04 F= -.10566488E+04 E0= -.10566488E+04  EK= 0.70436E+01 SP= 0.00E+00 SK= 0.00E+00
   2871 T=   249. E= -.10496866E+04 F= -.10567239E+04 E0= -.10567239E+04  EK= 0.70373E+01 SP= 0.00E+00 SK= 0.00E+00
   2872 T=   246. E= -.10497340E+04 F= -.10566979E+04 E0= -.10566979E+04  EK= 0.69638E+01 SP= 0.00E+00 SK= 0.00E+00
   2873 T=   243. E= -.10497261E+04 F= -.10566085E+04 E0= -.10566085E+04  EK= 0.68824E+01 SP= 0.00E+00 SK= 0.00E+00
   2874 T=   236. E= -.10497598E+04 F= -.10564427E+04 E0= -.10564427E+04  EK= 0.66829E+01 SP= 0.00E+00 SK= 0.00E+00
       N       E                     dE             d eps       ncg     rms          rms(c)
DAV:   1    -0.103121766446E+04    0.97998E+01   -0.39299E+03 20644   0.115E+02
DAV:   2    -0.104157726145E+04   -0.10360E+02   -0.10356E+02 24936   0.170E+01
DAV:   3    -0.104167498869E+04   -0.97727E-01   -0.97718E-01 25008   0.173E+00
DAV:   4    -0.104167701906E+04   -0.20304E-02   -0.20302E-02 25088   0.242E-01    0.124E+01
DAV:   5    -0.104063067513E+04    0.10463E+01   -0.22295E+00 25392   0.372E+00    0.686E+00
DAV:   6    -0.104070550646E+04   -0.74831E-01   -0.18367E+00 24936   0.285E+00    0.189E+00
DAV:   7    -0.104075219251E+04   -0.46686E-01   -0.30405E-01 24504   0.130E+00    0.643E-01
DAV:   8    -0.104075231919E+04   -0.12668E-03   -0.31442E-02 23952   0.397E-01    0.321E-01
DAV:   9    -0.104075107537E+04    0.12438E-02   -0.11464E-02 23760   0.253E-01    0.154E-01
DAV:  10    -0.104075014434E+04    0.93103E-03   -0.21337E-03 26792   0.151E-01    0.635E-02
DAV:  11    -0.104074981567E+04    0.32867E-03   -0.13171E-03 23616   0.876E-02    0.478E-02
DAV:  12    -0.104074948299E+04    0.33267E-03   -0.28085E-04 19320   0.724E-02    0.171E-02
DAV:  13    -0.104074942475E+04    0.58245E-04   -0.26272E-04 19496   0.445E-02
   2875 T=   232. E= -.10497473E+04 F= -.10563089E+04 E0= -.10563089E+04  EK= 0.65616E+01 SP= 0.00E+00 SK= 0.00E+00
   2876 T=   233. E= -.10496811E+04 F= -.10562680E+04 E0= -.10562680E+04  EK= 0.65869E+01 SP= 0.00E+00 SK= 0.00E+00
   2877 T=   236. E= -.10496471E+04 F= -.10563226E+04 E0= -.10563226E+04  EK= 0.66755E+01 SP= 0.00E+00 SK= 0.00E+00
   2878 T=   240. E= -.10496520E+04 F= -.10564351E+04 E0= -.10564351E+04  EK= 0.67831E+01 SP= 0.00E+00 SK= 0.00E+00
   2879 T=   241. E= -.10496638E+04 F= -.10564731E+04 E0= -.10564731E+04  EK= 0.68093E+01 SP= 0.00E+00 SK= 0.00E+00
   2880 T=   239. E= -.10496581E+04 F= -.10564234E+04 E0= -.10564234E+04  EK= 0.67653E+01 SP= 0.00E+00 SK= 0.00E+00
   2881 T=   238. E= -.10495770E+04 F= -.10563050E+04 E0= -.10563050E+04  EK= 0.67280E+01 SP= 0.00E+00 SK= 0.00E+00
   2882 T=   236. E= -.10495235E+04 F= -.10562178E+04 E0= -.10562178E+04  EK= 0.66943E+01 SP= 0.00E+00 SK= 0.00E+00
   2883 T=   236. E= -.10495041E+04 F= -.10561823E+04 E0= -.10561823E+04  EK= 0.66782E+01 SP= 0.00E+00 SK= 0.00E+00
   2884 T=   235. E= -.10495532E+04 F= -.10562188E+04 E0= -.10562188E+04  EK= 0.66656E+01 SP= 0.00E+00 SK= 0.00E+00
       N       E                     dE             d eps       ncg     rms          rms(c)
DAV:   1    -0.103318422777E+04    0.75653E+01   -0.32308E+03 20644   0.104E+02
DAV:   2    -0.104191106367E+04   -0.87268E+01   -0.87244E+01 25032   0.156E+01
DAV:   3    -0.104199088230E+04   -0.79819E-01   -0.79812E-01 25032   0.155E+00
DAV:   4    -0.104199256051E+04   -0.16782E-02   -0.16781E-02 25000   0.219E-01    0.113E+01
DAV:   5    -0.104080041530E+04    0.11921E+01   -0.24915E+00 25456   0.395E+00    0.601E+00
DAV:   6    -0.104077383183E+04    0.26583E-01   -0.15876E+00 25152   0.268E+00    0.197E+00
DAV:   7    -0.104081107945E+04   -0.37248E-01   -0.29466E-01 24944   0.132E+00    0.656E-01
DAV:   8    -0.104081015948E+04    0.91998E-03   -0.31510E-02 24160   0.421E-01    0.346E-01
DAV:   9    -0.104080813529E+04    0.20242E-02   -0.16040E-02 23736   0.298E-01    0.181E-01
DAV:  10    -0.104080670625E+04    0.14290E-02   -0.31111E-03 28128   0.188E-01    0.699E-02
DAV:  11    -0.104080626684E+04    0.43941E-03   -0.18475E-03 23488   0.106E-01    0.607E-02
DAV:  12    -0.104080586031E+04    0.40654E-03   -0.31477E-04 19736   0.829E-02    0.246E-02
DAV:  13    -0.104080572300E+04    0.13730E-03   -0.42093E-04 22024   0.684E-02    0.312E-02
DAV:  14    -0.104080569573E+04    0.27276E-04   -0.16900E-04 17608   0.396E-02
   2885 T=   235. E= -.10496253E+04 F= -.10562918E+04 E0= -.10562918E+04  EK= 0.66665E+01 SP= 0.00E+00 SK= 0.00E+00
   2886 T=   237. E= -.10496135E+04 F= -.10563341E+04 E0= -.10563341E+04  EK= 0.67206E+01 SP= 0.00E+00 SK= 0.00E+00
   2887 T=   238. E= -.10496216E+04 F= -.10563682E+04 E0= -.10563682E+04  EK= 0.67466E+01 SP= 0.00E+00 SK= 0.00E+00
   2888 T=   240. E= -.10495656E+04 F= -.10563529E+04 E0= -.10563529E+04  EK= 0.67873E+01 SP= 0.00E+00 SK= 0.00E+00
   2889 T=   238. E= -.10495591E+04 F= -.10563090E+04 E0= -.10563090E+04  EK= 0.67499E+01 SP= 0.00E+00 SK= 0.00E+00
   2890 T=   237. E= -.10494891E+04 F= -.10561962E+04 E0= -.10561962E+04  EK= 0.67071E+01 SP= 0.00E+00 SK= 0.00E+00
   2891 T=   236. E= -.10493937E+04 F= -.10560841E+04 E0= -.10560841E+04  EK= 0.66905E+01 SP= 0.00E+00 SK= 0.00E+00
   2892 T=   229. E= -.10495135E+04 F= -.10559854E+04 E0= -.10559854E+04  EK= 0.64719E+01 SP= 0.00E+00 SK= 0.00E+00
   2893 T=   223. E= -.10496443E+04 F= -.10559604E+04 E0= -.10559604E+04  EK= 0.63161E+01 SP= 0.00E+00 SK= 0.00E+00
   2894 T=   227. E= -.10496052E+04 F= -.10560305E+04 E0= -.10560305E+04  EK= 0.64253E+01 SP= 0.00E+00 SK= 0.00E+00
       N       E                     dE             d eps       ncg     rms          rms(c)
DAV:   1    -0.103442189003E+04    0.63838E+01   -0.27413E+03 20644   0.967E+01
DAV:   2    -0.104145825542E+04   -0.70364E+01   -0.70344E+01 24936   0.141E+01
DAV:   3    -0.104152282931E+04   -0.64574E-01   -0.64568E-01 25064   0.141E+00
DAV:   4    -0.104152415809E+04   -0.13288E-02   -0.13287E-02 25040   0.198E-01    0.109E+01
DAV:   5    -0.104067232995E+04    0.85183E+00   -0.20791E+00 24920   0.337E+00    0.589E+00
DAV:   6    -0.104070502634E+04   -0.32696E-01   -0.11849E+00 25104   0.232E+00    0.189E+00
DAV:   7    -0.104074021391E+04   -0.35188E-01   -0.24832E-01 25640   0.126E+00    0.616E-01
DAV:   8    -0.104073930965E+04    0.90427E-03   -0.32490E-02 24032   0.402E-01    0.345E-01
DAV:   9    -0.104073697229E+04    0.23374E-02   -0.14575E-02 23824   0.280E-01    0.167E-01
DAV:  10    -0.104073560532E+04    0.13670E-02   -0.27282E-03 27888   0.197E-01    0.748E-02
DAV:  11    -0.104073520612E+04    0.39921E-03   -0.23820E-03 24112   0.133E-01    0.727E-02
DAV:  12    -0.104073480784E+04    0.39828E-03   -0.44510E-04 23416   0.898E-02    0.270E-02
DAV:  13    -0.104073463266E+04    0.17517E-03   -0.31847E-04 21224   0.800E-02    0.277E-02
DAV:  14    -0.104073461165E+04    0.21018E-04   -0.26828E-04 19912   0.499E-02
   2895 T=   233. E= -.10495391E+04 F= -.10561362E+04 E0= -.10561362E+04  EK= 0.65971E+01 SP= 0.00E+00 SK= 0.00E+00
   2896 T=   233. E= -.10495720E+04 F= -.10561797E+04 E0= -.10561797E+04  EK= 0.66077E+01 SP= 0.00E+00 SK= 0.00E+00
   2897 T=   232. E= -.10496314E+04 F= -.10562080E+04 E0= -.10562080E+04  EK= 0.65765E+01 SP= 0.00E+00 SK= 0.00E+00
   2898 T=   234. E= -.10495865E+04 F= -.10562038E+04 E0= -.10562038E+04  EK= 0.66172E+01 SP= 0.00E+00 SK= 0.00E+00
   2899 T=   234. E= -.10495732E+04 F= -.10562075E+04 E0= -.10562075E+04  EK= 0.66343E+01 SP= 0.00E+00 SK= 0.00E+00
   2900 T=   230. E= -.10497326E+04 F= -.10562316E+04 E0= -.10562316E+04  EK= 0.64990E+01 SP= 0.00E+00 SK= 0.00E+00
   2901 T=   229. E= -.10498144E+04 F= -.10562849E+04 E0= -.10562849E+04  EK= 0.64706E+01 SP= 0.00E+00 SK= 0.00E+00
   2902 T=   235. E= -.10497702E+04 F= -.10564308E+04 E0= -.10564308E+04  EK= 0.66606E+01 SP= 0.00E+00 SK= 0.00E+00
   2903 T=   242. E= -.10497222E+04 F= -.10565812E+04 E0= -.10565812E+04  EK= 0.68590E+01 SP= 0.00E+00 SK= 0.00E+00
   2904 T=   250. E= -.10495871E+04 F= -.10566664E+04 E0= -.10566664E+04  EK= 0.70793E+01 SP= 0.00E+00 SK= 0.00E+00
   2905 T=   256. E= -.10494236E+04 F= -.10566695E+04 E0= -.10566695E+04  EK= 0.72458E+01 SP= 0.00E+00 SK= 0.00E+00
   2906 T=   256. E= -.10493108E+04 F= -.10565678E+04 E0= -.10565678E+04  EK= 0.72570E+01 SP= 0.00E+00 SK= 0.00E+00
   2907 T=   256. E= -.10491783E+04 F= -.10564137E+04 E0= -.10564137E+04  EK= 0.72354E+01 SP= 0.00E+00 SK= 0.00E+00
   2908 T=   250. E= -.10492050E+04 F= -.10562756E+04 E0= -.10562756E+04  EK= 0.70707E+01 SP= 0.00E+00 SK= 0.00E+00
   2909 T=   244. E= -.10492814E+04 F= -.10561930E+04 E0= -.10561930E+04  EK= 0.69116E+01 SP= 0.00E+00 SK= 0.00E+00
   2910 T=   243. E= -.10493243E+04 F= -.10562064E+04 E0= -.10562064E+04  EK= 0.68822E+01 SP= 0.00E+00 SK= 0.00E+00
   2911 T=   244. E= -.10492997E+04 F= -.10562065E+04 E0= -.10562065E+04  EK= 0.69068E+01 SP= 0.00E+00 SK= 0.00E+00
   2912 T=   245. E= -.10492536E+04 F= -.10561962E+04 E0= -.10561962E+04  EK= 0.69426E+01 SP= 0.00E+00 SK= 0.00E+00
   2913 T=   239. E= -.10493707E+04 F= -.10561309E+04 E0= -.10561309E+04  EK= 0.67601E+01 SP= 0.00E+00 SK= 0.00E+00
   2914 T=   233. E= -.10494875E+04 F= -.10560766E+04 E0= -.10560766E+04  EK= 0.65891E+01 SP= 0.00E+00 SK= 0.00E+00
   2915 T=   229. E= -.10495674E+04 F= -.10560610E+04 E0= -.10560610E+04  EK= 0.64936E+01 SP= 0.00E+00 SK= 0.00E+00
   2916 T=   231. E= -.10496069E+04 F= -.10561442E+04 E0= -.10561442E+04  EK= 0.65373E+01 SP= 0.00E+00 SK= 0.00E+00
   2917 T=   238. E= -.10495238E+04 F= -.10562555E+04 E0= -.10562555E+04  EK= 0.67317E+01 SP= 0.00E+00 SK= 0.00E+00
   2918 T=   243. E= -.10493957E+04 F= -.10562855E+04 E0= -.10562855E+04  EK= 0.68898E+01 SP= 0.00E+00 SK= 0.00E+00
   2919 T=   248. E= -.10492669E+04 F= -.10562785E+04 E0= -.10562785E+04  EK= 0.70116E+01 SP= 0.00E+00 SK= 0.00E+00
   2920 T=   245. E= -.10492647E+04 F= -.10562068E+04 E0= -.10562068E+04  EK= 0.69421E+01 SP= 0.00E+00 SK= 0.00E+00
   2921 T=   241. E= -.10493095E+04 F= -.10561234E+04 E0= -.10561234E+04  EK= 0.68138E+01 SP= 0.00E+00 SK= 0.00E+00
   2922 T=   240. E= -.10492811E+04 F= -.10560724E+04 E0= -.10560724E+04  EK= 0.67912E+01 SP= 0.00E+00 SK= 0.00E+00
   2923 T=   244. E= -.10491772E+04 F= -.10560879E+04 E0= -.10560879E+04  EK= 0.69107E+01 SP= 0.00E+00 SK= 0.00E+00
   2924 T=   251. E= -.10489955E+04 F= -.10560900E+04 E0= -.10560900E+04  EK= 0.70945E+01 SP= 0.00E+00 SK= 0.00E+00
   2925 T=   251. E= -.10489536E+04 F= -.10560569E+04 E0= -.10560569E+04  EK= 0.71033E+01 SP= 0.00E+00 SK= 0.00E+00
   2926 T=   243. E= -.10490958E+04 F= -.10559775E+04 E0= -.10559775E+04  EK= 0.68817E+01 SP= 0.00E+00 SK= 0.00E+00
   2927 T=   239. E= -.10491200E+04 F= -.10558826E+04 E0= -.10558826E+04  EK= 0.67625E+01 SP= 0.00E+00 SK= 0.00E+00
   2928 T=   237. E= -.10490823E+04 F= -.10557954E+04 E0= -.10557954E+04  EK= 0.67131E+01 SP= 0.00E+00 SK= 0.00E+00
   2929 T=   240. E= -.10490438E+04 F= -.10558345E+04 E0= -.10558345E+04  EK= 0.67907E+01 SP= 0.00E+00 SK= 0.00E+00
   2930 T=   248. E= -.10489470E+04 F= -.10559710E+04 E0= -.10559710E+04  EK= 0.70240E+01 SP= 0.00E+00 SK= 0.00E+00
   2931 T=   254. E= -.10489557E+04 F= -.10561418E+04 E0= -.10561418E+04  EK= 0.71861E+01 SP= 0.00E+00 SK= 0.00E+00
   2932 T=   258. E= -.10489498E+04 F= -.10562435E+04 E0= -.10562435E+04  EK= 0.72937E+01 SP= 0.00E+00 SK= 0.00E+00
   2933 T=   261. E= -.10488667E+04 F= -.10562655E+04 E0= -.10562655E+04  EK= 0.73989E+01 SP= 0.00E+00 SK= 0.00E+00
   2934 T=   261. E= -.10487892E+04 F= -.10561883E+04 E0= -.10561883E+04  EK= 0.73991E+01 SP= 0.00E+00 SK= 0.00E+00
   2935 T=   258. E= -.10488337E+04 F= -.10561511E+04 E0= -.10561511E+04  EK= 0.73175E+01 SP= 0.00E+00 SK= 0.00E+00
   2936 T=   255. E= -.10489343E+04 F= -.10561631E+04 E0= -.10561631E+04  EK= 0.72287E+01 SP= 0.00E+00 SK= 0.00E+00
   2937 T=   258. E= -.10489411E+04 F= -.10562555E+04 E0= -.10562555E+04  EK= 0.73143E+01 SP= 0.00E+00 SK= 0.00E+00
   2938 T=   261. E= -.10489711E+04 F= -.10563607E+04 E0= -.10563607E+04  EK= 0.73895E+01 SP= 0.00E+00 SK= 0.00E+00
   2939 T=   259. E= -.10490469E+04 F= -.10563730E+04 E0= -.10563730E+04  EK= 0.73261E+01 SP= 0.00E+00 SK= 0.00E+00
   2940 T=   254. E= -.10490733E+04 F= -.10562675E+04 E0= -.10562675E+04  EK= 0.71942E+01 SP= 0.00E+00 SK= 0.00E+00
   2941 T=   248. E= -.10491196E+04 F= -.10561327E+04 E0= -.10561327E+04  EK= 0.70132E+01 SP= 0.00E+00 SK= 0.00E+00
   2942 T=   242. E= -.10491715E+04 F= -.10560298E+04 E0= -.10560298E+04  EK= 0.68583E+01 SP= 0.00E+00 SK= 0.00E+00
   2943 T=   243. E= -.10491437E+04 F= -.10560307E+04 E0= -.10560307E+04  EK= 0.68870E+01 SP= 0.00E+00 SK= 0.00E+00
   2944 T=   250. E= -.10490800E+04 F= -.10561522E+04 E0= -.10561522E+04  EK= 0.70722E+01 SP= 0.00E+00 SK= 0.00E+00
   2945 T=   259. E= -.10489696E+04 F= -.10563079E+04 E0= -.10563079E+04  EK= 0.73383E+01 SP= 0.00E+00 SK= 0.00E+00
   2946 T=   269. E= -.10488021E+04 F= -.10564042E+04 E0= -.10564042E+04  EK= 0.76021E+01 SP= 0.00E+00 SK= 0.00E+00
   2947 T=   274. E= -.10487234E+04 F= -.10564823E+04 E0= -.10564823E+04  EK= 0.77589E+01 SP= 0.00E+00 SK= 0.00E+00
   2948 T=   274. E= -.10487534E+04 F= -.10565178E+04 E0= -.10565178E+04  EK= 0.77644E+01 SP= 0.00E+00 SK= 0.00E+00
   2949 T=   277. E= -.10487827E+04 F= -.10566137E+04 E0= -.10566137E+04  EK= 0.78311E+01 SP= 0.00E+00 SK= 0.00E+00
   2950 T=   276. E= -.10488708E+04 F= -.10566930E+04 E0= -.10566930E+04  EK= 0.78221E+01 SP= 0.00E+00 SK= 0.00E+00
   2951 T=   273. E= -.10490147E+04 F= -.10567345E+04 E0= -.10567345E+04  EK= 0.77198E+01 SP= 0.00E+00 SK= 0.00E+00
   2952 T=   273. E= -.10490341E+04 F= -.10567587E+04 E0= -.10567587E+04  EK= 0.77247E+01 SP= 0.00E+00 SK= 0.00E+00
   2953 T=   271. E= -.10490332E+04 F= -.10567177E+04 E0= -.10567177E+04  EK= 0.76845E+01 SP= 0.00E+00 SK= 0.00E+00
   2954 T=   265. E= -.10491614E+04 F= -.10566503E+04 E0= -.10566503E+04  EK= 0.74889E+01 SP= 0.00E+00 SK= 0.00E+00
   2955 T=   261. E= -.10491925E+04 F= -.10565822E+04 E0= -.10565822E+04  EK= 0.73896E+01 SP= 0.00E+00 SK= 0.00E+00
   2956 T=   261. E= -.10491880E+04 F= -.10565658E+04 E0= -.10565658E+04  EK= 0.73778E+01 SP= 0.00E+00 SK= 0.00E+00
   2957 T=   261. E= -.10492017E+04 F= -.10565918E+04 E0= -.10565918E+04  EK= 0.73901E+01 SP= 0.00E+00 SK= 0.00E+00
   2958 T=   263. E= -.10491829E+04 F= -.10566216E+04 E0= -.10566216E+04  EK= 0.74387E+01 SP= 0.00E+00 SK= 0.00E+00
   2959 T=   260. E= -.10492569E+04 F= -.10566227E+04 E0= -.10566227E+04  EK= 0.73657E+01 SP= 0.00E+00 SK= 0.00E+00
   2960 T=   258. E= -.10492852E+04 F= -.10565902E+04 E0= -.10565902E+04  EK= 0.73050E+01 SP= 0.00E+00 SK= 0.00E+00
   2961 T=   257. E= -.10492313E+04 F= -.10565136E+04 E0= -.10565136E+04  EK= 0.72823E+01 SP= 0.00E+00 SK= 0.00E+00
   2962 T=   257. E= -.10491886E+04 F= -.10564767E+04 E0= -.10564767E+04  EK= 0.72881E+01 SP= 0.00E+00 SK= 0.00E+00
   2963 T=   260. E= -.10491924E+04 F= -.10565460E+04 E0= -.10565460E+04  EK= 0.73536E+01 SP= 0.00E+00 SK= 0.00E+00
   2964 T=   265. E= -.10492170E+04 F= -.10567055E+04 E0= -.10567055E+04  EK= 0.74885E+01 SP= 0.00E+00 SK= 0.00E+00
   2965 T=   270. E= -.10492029E+04 F= -.10568527E+04 E0= -.10568527E+04  EK= 0.76498E+01 SP= 0.00E+00 SK= 0.00E+00
   2966 T=   267. E= -.10493196E+04 F= -.10568704E+04 E0= -.10568704E+04  EK= 0.75508E+01 SP= 0.00E+00 SK= 0.00E+00
   2967 T=   255. E= -.10495395E+04 F= -.10567565E+04 E0= -.10567565E+04  EK= 0.72169E+01 SP= 0.00E+00 SK= 0.00E+00
   2968 T=   244. E= -.10496620E+04 F= -.10565583E+04 E0= -.10565583E+04  EK= 0.68963E+01 SP= 0.00E+00 SK= 0.00E+00
   2969 T=   235. E= -.10497234E+04 F= -.10563679E+04 E0= -.10563679E+04  EK= 0.66445E+01 SP= 0.00E+00 SK= 0.00E+00
   2970 T=   232. E= -.10497119E+04 F= -.10562761E+04 E0= -.10562761E+04  EK= 0.65642E+01 SP= 0.00E+00 SK= 0.00E+00
   2971 T=   233. E= -.10497297E+04 F= -.10563365E+04 E0= -.10563365E+04  EK= 0.66067E+01 SP= 0.00E+00 SK= 0.00E+00
   2972 T=   235. E= -.10498508E+04 F= -.10565015E+04 E0= -.10565015E+04  EK= 0.66507E+01 SP= 0.00E+00 SK= 0.00E+00
   2973 T=   237. E= -.10499544E+04 F= -.10566737E+04 E0= -.10566737E+04  EK= 0.67193E+01 SP= 0.00E+00 SK= 0.00E+00
   2974 T=   239. E= -.10499592E+04 F= -.10567162E+04 E0= -.10567162E+04  EK= 0.67570E+01 SP= 0.00E+00 SK= 0.00E+00
   2975 T=   239. E= -.10498422E+04 F= -.10565962E+04 E0= -.10565962E+04  EK= 0.67540E+01 SP= 0.00E+00 SK= 0.00E+00
   2976 T=   234. E= -.10497494E+04 F= -.10563873E+04 E0= -.10563873E+04  EK= 0.66378E+01 SP= 0.00E+00 SK= 0.00E+00
   2977 T=   232. E= -.10496672E+04 F= -.10562328E+04 E0= -.10562328E+04  EK= 0.65656E+01 SP= 0.00E+00 SK= 0.00E+00
   2978 T=   233. E= -.10496451E+04 F= -.10562339E+04 E0= -.10562339E+04  EK= 0.65888E+01 SP= 0.00E+00 SK= 0.00E+00
   2979 T=   238. E= -.10496644E+04 F= -.10563988E+04 E0= -.10563988E+04  EK= 0.67343E+01 SP= 0.00E+00 SK= 0.00E+00
   2980 T=   246. E= -.10496400E+04 F= -.10566026E+04 E0= -.10566026E+04  EK= 0.69627E+01 SP= 0.00E+00 SK= 0.00E+00
   2981 T=   248. E= -.10497227E+04 F= -.10567386E+04 E0= -.10567386E+04  EK= 0.70159E+01 SP= 0.00E+00 SK= 0.00E+00
   2982 T=   241. E= -.10499005E+04 F= -.10567315E+04 E0= -.10567315E+04  EK= 0.68310E+01 SP= 0.00E+00 SK= 0.00E+00
   2983 T=   231. E= -.10500446E+04 F= -.10565774E+04 E0= -.10565774E+04  EK= 0.65328E+01 SP= 0.00E+00 SK= 0.00E+00
   2984 T=   222. E= -.10501099E+04 F= -.10563819E+04 E0= -.10563819E+04  EK= 0.62721E+01 SP= 0.00E+00 SK= 0.00E+00
   2985 T=   216. E= -.10501405E+04 F= -.10562538E+04 E0= -.10562538E+04  EK= 0.61133E+01 SP= 0.00E+00 SK= 0.00E+00
   2986 T=   215. E= -.10501474E+04 F= -.10562345E+04 E0= -.10562345E+04  EK= 0.60871E+01 SP= 0.00E+00 SK= 0.00E+00
   2987 T=   218. E= -.10501865E+04 F= -.10563711E+04 E0= -.10563711E+04  EK= 0.61846E+01 SP= 0.00E+00 SK= 0.00E+00
   2988 T=   228. E= -.10501770E+04 F= -.10566240E+04 E0= -.10566240E+04  EK= 0.64470E+01 SP= 0.00E+00 SK= 0.00E+00
   2989 T=   237. E= -.10501443E+04 F= -.10568509E+04 E0= -.10568509E+04  EK= 0.67066E+01 SP= 0.00E+00 SK= 0.00E+00
   2990 T=   238. E= -.10501301E+04 F= -.10568685E+04 E0= -.10568685E+04  EK= 0.67384E+01 SP= 0.00E+00 SK= 0.00E+00
   2991 T=   238. E= -.10500045E+04 F= -.10567453E+04 E0= -.10567453E+04  EK= 0.67408E+01 SP= 0.00E+00 SK= 0.00E+00
       N       E                     dE             d eps       ncg     rms          rms(c)
DAV:   1    -0.469348195398E+03    0.57139E+03   -0.47439E+04 20644   0.375E+02
DAV:   2    -0.103689918146E+04   -0.56755E+03   -0.55588E+03 23619   0.113E+02
DAV:   3    -0.105211896269E+04   -0.15220E+02   -0.15199E+02 24656   0.205E+01
DAV:   4    -0.105234600768E+04   -0.22704E+00   -0.22696E+00 24928   0.241E+00    0.378E+01
DAV:   5    -0.103934481516E+04    0.13001E+02   -0.37889E+01 24712   0.116E+01    0.207E+01
DAV:   6    -0.104034130099E+04   -0.99649E+00   -0.13002E+01 24736   0.725E+00    0.812E+00
DAV:   7    -0.104142923377E+04   -0.10879E+01   -0.28397E+00 23864   0.378E+00    0.212E+00
DAV:   8    -0.104146622511E+04   -0.36991E-01   -0.27808E-01 24368   0.114E+00    0.103E+00
DAV:   9    -0.104147262575E+04   -0.64006E-02   -0.10705E-01 23568   0.685E-01    0.382E-01
DAV:  10    -0.104146937684E+04    0.32489E-02   -0.15538E-02 26152   0.356E-01    0.172E-01
DAV:  11    -0.104146847879E+04    0.89805E-03   -0.89082E-03 23112   0.203E-01    0.124E-01
DAV:  12    -0.104146737576E+04    0.11030E-02   -0.11388E-03 25304   0.112E-01    0.503E-02
DAV:  13    -0.104146671562E+04    0.66013E-03   -0.12345E-03 22736   0.111E-01    0.586E-02
DAV:  14    -0.104146654263E+04    0.17299E-03   -0.53258E-04 22952   0.716E-02    0.268E-02
DAV:  15    -0.104146653178E+04    0.10857E-04   -0.19471E-04 19328   0.290E-02
   2992 T=   236. E= -.10498741E+04 F= -.10565431E+04 E0= -.10565431E+04  EK= 0.66690E+01 SP= 0.00E+00 SK= 0.00E+00
   2993 T=   231. E= -.10499602E+04 F= -.10565001E+04 E0= -.10565001E+04  EK= 0.65399E+01 SP= 0.00E+00 SK= 0.00E+00
   2994 T=   229. E= -.10499959E+04 F= -.10564925E+04 E0= -.10564925E+04  EK= 0.64966E+01 SP= 0.00E+00 SK= 0.00E+00
   2995 T=   232. E= -.10500070E+04 F= -.10565812E+04 E0= -.10565812E+04  EK= 0.65741E+01 SP= 0.00E+00 SK= 0.00E+00
   2996 T=   239. E= -.10499802E+04 F= -.10567534E+04 E0= -.10567534E+04  EK= 0.67733E+01 SP= 0.00E+00 SK= 0.00E+00
   2997 T=   248. E= -.10499168E+04 F= -.10569476E+04 E0= -.10569476E+04  EK= 0.70309E+01 SP= 0.00E+00 SK= 0.00E+00
   2998 T=   250. E= -.10499015E+04 F= -.10569723E+04 E0= -.10569723E+04  EK= 0.70708E+01 SP= 0.00E+00 SK= 0.00E+00
   2999 T=   245. E= -.10498900E+04 F= -.10568149E+04 E0= -.10568149E+04  EK= 0.69249E+01 SP= 0.00E+00 SK= 0.00E+00
   3000 T=   239. E= -.10498180E+04 F= -.10565795E+04 E0= -.10565795E+04  EK= 0.67615E+01 SP= 0.00E+00 SK= 0.00E+00
   3001 T=   233. E= -.10498056E+04 F= -.10563939E+04 E0= -.10563939E+04  EK= 0.65883E+01 SP= 0.00E+00 SK= 0.00E+00
       N       E                     dE             d eps       ncg     rms          rms(c)
DAV:   1    -0.103553661574E+04    0.59299E+01   -0.25985E+03 20644   0.943E+01
DAV:   2    -0.104212181942E+04   -0.65852E+01   -0.65833E+01 25048   0.137E+01
DAV:   3    -0.104218364335E+04   -0.61824E-01   -0.61819E-01 24960   0.137E+00
DAV:   4    -0.104218497860E+04   -0.13352E-02   -0.13352E-02 25040   0.195E-01    0.113E+01
DAV:   5    -0.104112081173E+04    0.10642E+01   -0.24129E+00 25800   0.395E+00    0.604E+00
DAV:   6    -0.104112918698E+04   -0.83753E-02   -0.13895E+00 24832   0.258E+00    0.202E+00
DAV:   7    -0.104116708749E+04   -0.37901E-01   -0.27580E-01 25424   0.129E+00    0.619E-01
DAV:   8    -0.104116499090E+04    0.20966E-02   -0.31002E-02 24576   0.415E-01    0.322E-01
DAV:   9    -0.104116176717E+04    0.32237E-02   -0.13200E-02 23800   0.280E-01    0.164E-01
DAV:  10    -0.104115990624E+04    0.18609E-02   -0.32233E-03 28008   0.206E-01    0.658E-02
DAV:  11    -0.104115915295E+04    0.75329E-03   -0.19317E-03 23720   0.125E-01    0.667E-02
DAV:  12    -0.104115854000E+04    0.61295E-03   -0.38925E-04 21312   0.989E-02    0.251E-02
DAV:  13    -0.104115833736E+04    0.20264E-03   -0.47900E-04 22144   0.861E-02    0.313E-02
DAV:  14    -0.104115833158E+04    0.57787E-05   -0.38005E-04 24352   0.470E-02
   3002 T=   231. E= -.10497923E+04 F= -.10563290E+04 E0= -.10563290E+04  EK= 0.65368E+01 SP= 0.00E+00 SK= 0.00E+00
   3003 T=   237. E= -.10498344E+04 F= -.10565459E+04 E0= -.10565459E+04  EK= 0.67115E+01 SP= 0.00E+00 SK= 0.00E+00
   3004 T=   246. E= -.10497417E+04 F= -.10567047E+04 E0= -.10567047E+04  EK= 0.69630E+01 SP= 0.00E+00 SK= 0.00E+00
   3005 T=   249. E= -.10497075E+04 F= -.10567634E+04 E0= -.10567634E+04  EK= 0.70559E+01 SP= 0.00E+00 SK= 0.00E+00
   3006 T=   249. E= -.10497197E+04 F= -.10567543E+04 E0= -.10567543E+04  EK= 0.70347E+01 SP= 0.00E+00 SK= 0.00E+00
   3007 T=   246. E= -.10496951E+04 F= -.10566518E+04 E0= -.10566518E+04  EK= 0.69567E+01 SP= 0.00E+00 SK= 0.00E+00
   3008 T=   242. E= -.10496245E+04 F= -.10564806E+04 E0= -.10564806E+04  EK= 0.68560E+01 SP= 0.00E+00 SK= 0.00E+00
   3009 T=   238. E= -.10495503E+04 F= -.10562755E+04 E0= -.10562755E+04  EK= 0.67252E+01 SP= 0.00E+00 SK= 0.00E+00
   3010 T=   233. E= -.10494702E+04 F= -.10560655E+04 E0= -.10560655E+04  EK= 0.65953E+01 SP= 0.00E+00 SK= 0.00E+00
   3011 T=   231. E= -.10493806E+04 F= -.10559153E+04 E0= -.10559153E+04  EK= 0.65347E+01 SP= 0.00E+00 SK= 0.00E+00
       N       E                     dE             d eps       ncg     rms          rms(c)
DAV:   1    -0.103449988542E+04    0.66585E+01   -0.27263E+03 20644   0.964E+01
DAV:   2    -0.104155544181E+04   -0.70556E+01   -0.70535E+01 25096   0.140E+01
DAV:   3    -0.104162245513E+04   -0.67013E-01   -0.67007E-01 24984   0.142E+00
DAV:   4    -0.104162391487E+04   -0.14597E-02   -0.14597E-02 25024   0.203E-01    0.112E+01
DAV:   5    -0.104059677878E+04    0.10271E+01   -0.23559E+00 26232   0.381E+00    0.604E+00
DAV:   6    -0.104060793716E+04   -0.11158E-01   -0.13659E+00 25016   0.254E+00    0.198E+00
DAV:   7    -0.104064705872E+04   -0.39122E-01   -0.26242E-01 24856   0.121E+00    0.627E-01
DAV:   8    -0.104064643349E+04    0.62522E-03   -0.26455E-02 24024   0.372E-01    0.325E-01
DAV:   9    -0.104064457344E+04    0.18601E-02   -0.11590E-02 23912   0.268E-01    0.152E-01
DAV:  10    -0.104064345774E+04    0.11157E-02   -0.26629E-03 27808   0.177E-01    0.601E-02
DAV:  11    -0.104064311673E+04    0.34101E-03   -0.13696E-03 23704   0.931E-02    0.538E-02
DAV:  12    -0.104064279354E+04    0.32319E-03   -0.22095E-04 18632   0.709E-02    0.200E-02
DAV:  13    -0.104064268557E+04    0.10797E-03   -0.31392E-04 21368   0.611E-02    0.272E-02
DAV:  14    -0.104064266644E+04    0.19138E-04   -0.17161E-04 17384   0.371E-02
   3012 T=   230. E= -.10493352E+04 F= -.10558426E+04 E0= -.10558426E+04  EK= 0.65074E+01 SP= 0.00E+00 SK= 0.00E+00
   3013 T=   233. E= -.10491820E+04 F= -.10557885E+04 E0= -.10557885E+04  EK= 0.66064E+01 SP= 0.00E+00 SK= 0.00E+00
   3014 T=   235. E= -.10491689E+04 F= -.10558233E+04 E0= -.10558233E+04  EK= 0.66544E+01 SP= 0.00E+00 SK= 0.00E+00
   3015 T=   233. E= -.10492375E+04 F= -.10558358E+04 E0= -.10558358E+04  EK= 0.65984E+01 SP= 0.00E+00 SK= 0.00E+00
   3016 T=   235. E= -.10491990E+04 F= -.10558411E+04 E0= -.10558411E+04  EK= 0.66420E+01 SP= 0.00E+00 SK= 0.00E+00
   3017 T=   236. E= -.10491205E+04 F= -.10558112E+04 E0= -.10558112E+04  EK= 0.66907E+01 SP= 0.00E+00 SK= 0.00E+00
   3018 T=   237. E= -.10490449E+04 F= -.10557478E+04 E0= -.10557478E+04  EK= 0.67029E+01 SP= 0.00E+00 SK= 0.00E+00
   3019 T=   237. E= -.10490200E+04 F= -.10557222E+04 E0= -.10557222E+04  EK= 0.67022E+01 SP= 0.00E+00 SK= 0.00E+00
   3020 T=   239. E= -.10489908E+04 F= -.10557501E+04 E0= -.10557501E+04  EK= 0.67593E+01 SP= 0.00E+00 SK= 0.00E+00
   3021 T=   241. E= -.10490103E+04 F= -.10558304E+04 E0= -.10558304E+04  EK= 0.68201E+01 SP= 0.00E+00 SK= 0.00E+00
       N       E                     dE             d eps       ncg     rms          rms(c)
DAV:   1    -0.103419461932E+04    0.64481E+01   -0.29383E+03 20644   0.999E+01
DAV:   2    -0.104190135952E+04   -0.77067E+01   -0.77043E+01 25024   0.147E+01
DAV:   3    -0.104197335115E+04   -0.71992E-01   -0.71984E-01 25032   0.148E+00
DAV:   4    -0.104197488422E+04   -0.15331E-02   -0.15330E-02 24992   0.209E-01    0.113E+01
DAV:   5    -0.104077752792E+04    0.11974E+01   -0.23137E+00 25728   0.391E+00    0.607E+00
DAV:   6    -0.104074151265E+04    0.36015E-01   -0.16977E+00 25064   0.274E+00    0.188E+00
DAV:   7    -0.104077124358E+04   -0.29731E-01   -0.31607E-01 24664   0.141E+00    0.637E-01
DAV:   8    -0.104076911340E+04    0.21302E-02   -0.35695E-02 24376   0.468E-01    0.353E-01
DAV:   9    -0.104076664271E+04    0.24707E-02   -0.21825E-02 23720   0.350E-01    0.231E-01
DAV:  10    -0.104076451878E+04    0.21239E-02   -0.50899E-03 28576   0.237E-01    0.792E-02
DAV:  11    -0.104076392404E+04    0.59475E-03   -0.26110E-03 23696   0.128E-01    0.671E-02
DAV:  12    -0.104076329934E+04    0.62470E-03   -0.29258E-04 19832   0.103E-01    0.320E-02
DAV:  13    -0.104076301452E+04    0.28482E-03   -0.59440E-04 21984   0.108E-01    0.255E-02
DAV:  14    -0.104076302600E+04   -0.11477E-04   -0.46946E-04 24856   0.497E-02
   3022 T=   237. E= -.10492636E+04 F= -.10559786E+04 E0= -.10559786E+04  EK= 0.67149E+01 SP= 0.00E+00 SK= 0.00E+00
   3023 T=   232. E= -.10493922E+04 F= -.10559475E+04 E0= -.10559475E+04  EK= 0.65553E+01 SP= 0.00E+00 SK= 0.00E+00
   3024 T=   229. E= -.10494737E+04 F= -.10559672E+04 E0= -.10559672E+04  EK= 0.64935E+01 SP= 0.00E+00 SK= 0.00E+00
   3025 T=   227. E= -.10495572E+04 F= -.10559774E+04 E0= -.10559774E+04  EK= 0.64202E+01 SP= 0.00E+00 SK= 0.00E+00
   3026 T=   224. E= -.10496065E+04 F= -.10559391E+04 E0= -.10559391E+04  EK= 0.63326E+01 SP= 0.00E+00 SK= 0.00E+00
   3027 T=   223. E= -.10495906E+04 F= -.10558987E+04 E0= -.10558987E+04  EK= 0.63081E+01 SP= 0.00E+00 SK= 0.00E+00
   3028 T=   223. E= -.10495426E+04 F= -.10558621E+04 E0= -.10558621E+04  EK= 0.63195E+01 SP= 0.00E+00 SK= 0.00E+00
   3029 T=   229. E= -.10493927E+04 F= -.10558690E+04 E0= -.10558690E+04  EK= 0.64763E+01 SP= 0.00E+00 SK= 0.00E+00
   3030 T=   234. E= -.10493050E+04 F= -.10559298E+04 E0= -.10559298E+04  EK= 0.66248E+01 SP= 0.00E+00 SK= 0.00E+00
   3031 T=   238. E= -.10492809E+04 F= -.10560141E+04 E0= -.10560141E+04  EK= 0.67333E+01 SP= 0.00E+00 SK= 0.00E+00
       N       E                     dE             d eps       ncg     rms          rms(c)
DAV:   1    -0.103456041915E+04    0.62026E+01   -0.29440E+03 20644   0.100E+02
DAV:   2    -0.104210846884E+04   -0.75480E+01   -0.75461E+01 25016   0.146E+01
DAV:   3    -0.104217706132E+04   -0.68592E-01   -0.68587E-01 25032   0.144E+00
DAV:   4    -0.104217851142E+04   -0.14501E-02   -0.14500E-02 24952   0.204E-01    0.109E+01
DAV:   5    -0.104105288047E+04    0.11256E+01   -0.20973E+00 25592   0.366E+00    0.588E+00
DAV:   6    -0.104099467673E+04    0.58204E-01   -0.16228E+00 25152   0.267E+00    0.177E+00
DAV:   7    -0.104102429408E+04   -0.29617E-01   -0.31312E-01 24896   0.143E+00    0.647E-01
DAV:   8    -0.104102314985E+04    0.11442E-02   -0.37860E-02 23752   0.450E-01    0.377E-01
DAV:   9    -0.104102120431E+04    0.19455E-02   -0.21190E-02 23824   0.333E-01    0.225E-01
DAV:  10    -0.104101928607E+04    0.19182E-02   -0.39758E-03 28912   0.231E-01    0.809E-02
DAV:  11    -0.104101892180E+04    0.36427E-03   -0.29818E-03 23960   0.136E-01    0.743E-02
DAV:  12    -0.104101844164E+04    0.48016E-03   -0.51835E-04 22952   0.962E-02    0.250E-02
DAV:  13    -0.104101827567E+04    0.16597E-03   -0.37967E-04 22520   0.751E-02    0.302E-02
DAV:  14    -0.104101824284E+04    0.32827E-04   -0.23688E-04 19480   0.469E-02
   3032 T=   246. E= -.10492313E+04 F= -.10561914E+04 E0= -.10561914E+04  EK= 0.69601E+01 SP= 0.00E+00 SK= 0.00E+00
   3033 T=   251. E= -.10491420E+04 F= -.10562515E+04 E0= -.10562515E+04  EK= 0.71095E+01 SP= 0.00E+00 SK= 0.00E+00
   3034 T=   252. E= -.10491761E+04 F= -.10563179E+04 E0= -.10563179E+04  EK= 0.71419E+01 SP= 0.00E+00 SK= 0.00E+00
   3035 T=   251. E= -.10492092E+04 F= -.10563136E+04 E0= -.10563136E+04  EK= 0.71044E+01 SP= 0.00E+00 SK= 0.00E+00
   3036 T=   249. E= -.10491918E+04 F= -.10562315E+04 E0= -.10562315E+04  EK= 0.70398E+01 SP= 0.00E+00 SK= 0.00E+00
   3037 T=   249. E= -.10491065E+04 F= -.10561493E+04 E0= -.10561493E+04  EK= 0.70428E+01 SP= 0.00E+00 SK= 0.00E+00
   3038 T=   248. E= -.10490853E+04 F= -.10561128E+04 E0= -.10561128E+04  EK= 0.70275E+01 SP= 0.00E+00 SK= 0.00E+00
   3039 T=   249. E= -.10491241E+04 F= -.10561746E+04 E0= -.10561746E+04  EK= 0.70504E+01 SP= 0.00E+00 SK= 0.00E+00
   3040 T=   253. E= -.10492119E+04 F= -.10563609E+04 E0= -.10563609E+04  EK= 0.71490E+01 SP= 0.00E+00 SK= 0.00E+00
   3041 T=   256. E= -.10493300E+04 F= -.10565627E+04 E0= -.10565627E+04  EK= 0.72328E+01 SP= 0.00E+00 SK= 0.00E+00
   3042 T=   255. E= -.10493898E+04 F= -.10566140E+04 E0= -.10566140E+04  EK= 0.72242E+01 SP= 0.00E+00 SK= 0.00E+00
   3043 T=   252. E= -.10493044E+04 F= -.10564262E+04 E0= -.10564262E+04  EK= 0.71218E+01 SP= 0.00E+00 SK= 0.00E+00
   3044 T=   244. E= -.10492231E+04 F= -.10561400E+04 E0= -.10561400E+04  EK= 0.69169E+01 SP= 0.00E+00 SK= 0.00E+00
   3045 T=   237. E= -.10492368E+04 F= -.10559363E+04 E0= -.10559363E+04  EK= 0.66996E+01 SP= 0.00E+00 SK= 0.00E+00
   3046 T=   233. E= -.10493082E+04 F= -.10559009E+04 E0= -.10559009E+04  EK= 0.65927E+01 SP= 0.00E+00 SK= 0.00E+00
   3047 T=   234. E= -.10493819E+04 F= -.10560060E+04 E0= -.10560060E+04  EK= 0.66241E+01 SP= 0.00E+00 SK= 0.00E+00
   3048 T=   243. E= -.10493518E+04 F= -.10562393E+04 E0= -.10562393E+04  EK= 0.68875E+01 SP= 0.00E+00 SK= 0.00E+00
   3049 T=   254. E= -.10492659E+04 F= -.10564579E+04 E0= -.10564579E+04  EK= 0.71920E+01 SP= 0.00E+00 SK= 0.00E+00
   3050 T=   261. E= -.10492405E+04 F= -.10566286E+04 E0= -.10566286E+04  EK= 0.73881E+01 SP= 0.00E+00 SK= 0.00E+00
   3051 T=   263. E= -.10492085E+04 F= -.10566568E+04 E0= -.10566568E+04  EK= 0.74483E+01 SP= 0.00E+00 SK= 0.00E+00
   3052 T=   264. E= -.10491309E+04 F= -.10565930E+04 E0= -.10565930E+04  EK= 0.74621E+01 SP= 0.00E+00 SK= 0.00E+00
   3053 T=   261. E= -.10490805E+04 F= -.10564718E+04 E0= -.10564718E+04  EK= 0.73913E+01 SP= 0.00E+00 SK= 0.00E+00
   3054 T=   259. E= -.10490706E+04 F= -.10563923E+04 E0= -.10563923E+04  EK= 0.73217E+01 SP= 0.00E+00 SK= 0.00E+00
   3055 T=   258. E= -.10491476E+04 F= -.10564393E+04 E0= -.10564393E+04  EK= 0.72917E+01 SP= 0.00E+00 SK= 0.00E+00
   3056 T=   261. E= -.10492430E+04 F= -.10566181E+04 E0= -.10566181E+04  EK= 0.73751E+01 SP= 0.00E+00 SK= 0.00E+00
   3057 T=   263. E= -.10493833E+04 F= -.10568179E+04 E0= -.10568179E+04  EK= 0.74346E+01 SP= 0.00E+00 SK= 0.00E+00
   3058 T=   261. E= -.10494832E+04 F= -.10568702E+04 E0= -.10568702E+04  EK= 0.73870E+01 SP= 0.00E+00 SK= 0.00E+00
   3059 T=   258. E= -.10494729E+04 F= -.10567712E+04 E0= -.10567712E+04  EK= 0.72983E+01 SP= 0.00E+00 SK= 0.00E+00
   3060 T=   251. E= -.10494712E+04 F= -.10565844E+04 E0= -.10565844E+04  EK= 0.71132E+01 SP= 0.00E+00 SK= 0.00E+00
   3061 T=   246. E= -.10495278E+04 F= -.10564931E+04 E0= -.10564931E+04  EK= 0.69654E+01 SP= 0.00E+00 SK= 0.00E+00
   3062 T=   244. E= -.10495712E+04 F= -.10564693E+04 E0= -.10564693E+04  EK= 0.68981E+01 SP= 0.00E+00 SK= 0.00E+00
   3063 T=   248. E= -.10495437E+04 F= -.10565512E+04 E0= -.10565512E+04  EK= 0.70074E+01 SP= 0.00E+00 SK= 0.00E+00
   3064 T=   256. E= -.10495159E+04 F= -.10567590E+04 E0= -.10567590E+04  EK= 0.72431E+01 SP= 0.00E+00 SK= 0.00E+00
   3065 T=   265. E= -.10494854E+04 F= -.10569792E+04 E0= -.10569792E+04  EK= 0.74938E+01 SP= 0.00E+00 SK= 0.00E+00
   3066 T=   273. E= -.10493651E+04 F= -.10570809E+04 E0= -.10570809E+04  EK= 0.77158E+01 SP= 0.00E+00 SK= 0.00E+00
   3067 T=   274. E= -.10492453E+04 F= -.10569908E+04 E0= -.10569908E+04  EK= 0.77454E+01 SP= 0.00E+00 SK= 0.00E+00
   3068 T=   264. E= -.10493005E+04 F= -.10567767E+04 E0= -.10567767E+04  EK= 0.74761E+01 SP= 0.00E+00 SK= 0.00E+00
   3069 T=   254. E= -.10493861E+04 F= -.10565873E+04 E0= -.10565873E+04  EK= 0.72012E+01 SP= 0.00E+00 SK= 0.00E+00
   3070 T=   251. E= -.10494233E+04 F= -.10565257E+04 E0= -.10565257E+04  EK= 0.71024E+01 SP= 0.00E+00 SK= 0.00E+00
   3071 T=   254. E= -.10493443E+04 F= -.10565470E+04 E0= -.10565470E+04  EK= 0.72028E+01 SP= 0.00E+00 SK= 0.00E+00
   3072 T=   256. E= -.10492959E+04 F= -.10565551E+04 E0= -.10565551E+04  EK= 0.72592E+01 SP= 0.00E+00 SK= 0.00E+00
   3073 T=   251. E= -.10494265E+04 F= -.10565277E+04 E0= -.10565277E+04  EK= 0.71013E+01 SP= 0.00E+00 SK= 0.00E+00
   3074 T=   245. E= -.10494886E+04 F= -.10564375E+04 E0= -.10564375E+04  EK= 0.69489E+01 SP= 0.00E+00 SK= 0.00E+00
   3075 T=   244. E= -.10494301E+04 F= -.10563274E+04 E0= -.10563274E+04  EK= 0.68973E+01 SP= 0.00E+00 SK= 0.00E+00
   3076 T=   244. E= -.10493196E+04 F= -.10562304E+04 E0= -.10562304E+04  EK= 0.69108E+01 SP= 0.00E+00 SK= 0.00E+00
   3077 T=   243. E= -.10492717E+04 F= -.10561448E+04 E0= -.10561448E+04  EK= 0.68731E+01 SP= 0.00E+00 SK= 0.00E+00
   3078 T=   242. E= -.10492297E+04 F= -.10560694E+04 E0= -.10560694E+04  EK= 0.68397E+01 SP= 0.00E+00 SK= 0.00E+00
   3079 T=   244. E= -.10490834E+04 F= -.10559840E+04 E0= -.10559840E+04  EK= 0.69006E+01 SP= 0.00E+00 SK= 0.00E+00
   3080 T=   242. E= -.10490939E+04 F= -.10559451E+04 E0= -.10559451E+04  EK= 0.68512E+01 SP= 0.00E+00 SK= 0.00E+00
   3081 T=   238. E= -.10491861E+04 F= -.10559270E+04 E0= -.10559270E+04  EK= 0.67408E+01 SP= 0.00E+00 SK= 0.00E+00
   3082 T=   240. E= -.10491874E+04 F= -.10559707E+04 E0= -.10559707E+04  EK= 0.67833E+01 SP= 0.00E+00 SK= 0.00E+00
   3083 T=   244. E= -.10491976E+04 F= -.10561073E+04 E0= -.10561073E+04  EK= 0.69097E+01 SP= 0.00E+00 SK= 0.00E+00
   3084 T=   249. E= -.10492179E+04 F= -.10562634E+04 E0= -.10562634E+04  EK= 0.70455E+01 SP= 0.00E+00 SK= 0.00E+00
   3085 T=   254. E= -.10491626E+04 F= -.10563621E+04 E0= -.10563621E+04  EK= 0.71995E+01 SP= 0.00E+00 SK= 0.00E+00
   3086 T=   256. E= -.10490723E+04 F= -.10563214E+04 E0= -.10563214E+04  EK= 0.72490E+01 SP= 0.00E+00 SK= 0.00E+00
   3087 T=   254. E= -.10489542E+04 F= -.10561322E+04 E0= -.10561322E+04  EK= 0.71780E+01 SP= 0.00E+00 SK= 0.00E+00
   3088 T=   250. E= -.10488516E+04 F= -.10559241E+04 E0= -.10559241E+04  EK= 0.70725E+01 SP= 0.00E+00 SK= 0.00E+00
   3089 T=   252. E= -.10487215E+04 F= -.10558424E+04 E0= -.10558424E+04  EK= 0.71209E+01 SP= 0.00E+00 SK= 0.00E+00
   3090 T=   260. E= -.10485883E+04 F= -.10559518E+04 E0= -.10559518E+04  EK= 0.73635E+01 SP= 0.00E+00 SK= 0.00E+00
   3091 T=   267. E= -.10485625E+04 F= -.10561310E+04 E0= -.10561310E+04  EK= 0.75685E+01 SP= 0.00E+00 SK= 0.00E+00
   3092 T=   273. E= -.10485876E+04 F= -.10563173E+04 E0= -.10563173E+04  EK= 0.77298E+01 SP= 0.00E+00 SK= 0.00E+00
   3093 T=   271. E= -.10487279E+04 F= -.10564040E+04 E0= -.10564040E+04  EK= 0.76761E+01 SP= 0.00E+00 SK= 0.00E+00
   3094 T=   262. E= -.10488801E+04 F= -.10563087E+04 E0= -.10563087E+04  EK= 0.74286E+01 SP= 0.00E+00 SK= 0.00E+00
   3095 T=   255. E= -.10488768E+04 F= -.10560887E+04 E0= -.10560887E+04  EK= 0.72119E+01 SP= 0.00E+00 SK= 0.00E+00
   3096 T=   248. E= -.10488644E+04 F= -.10558813E+04 E0= -.10558813E+04  EK= 0.70169E+01 SP= 0.00E+00 SK= 0.00E+00
   3097 T=   243. E= -.10489489E+04 F= -.10558176E+04 E0= -.10558176E+04  EK= 0.68686E+01 SP= 0.00E+00 SK= 0.00E+00
   3098 T=   244. E= -.10490617E+04 F= -.10559747E+04 E0= -.10559747E+04  EK= 0.69130E+01 SP= 0.00E+00 SK= 0.00E+00
   3099 T=   255. E= -.10491161E+04 F= -.10563270E+04 E0= -.10563270E+04  EK= 0.72109E+01 SP= 0.00E+00 SK= 0.00E+00
   3100 T=   264. E= -.10491188E+04 F= -.10566045E+04 E0= -.10566045E+04  EK= 0.74857E+01 SP= 0.00E+00 SK= 0.00E+00
   3101 T=   269. E= -.10490456E+04 F= -.10566696E+04 E0= -.10566696E+04  EK= 0.76239E+01 SP= 0.00E+00 SK= 0.00E+00
   3102 T=   266. E= -.10489929E+04 F= -.10565094E+04 E0= -.10565094E+04  EK= 0.75165E+01 SP= 0.00E+00 SK= 0.00E+00
   3103 T=   255. E= -.10490183E+04 F= -.10562343E+04 E0= -.10562343E+04  EK= 0.72160E+01 SP= 0.00E+00 SK= 0.00E+00
   3104 T=   248. E= -.10490458E+04 F= -.10560572E+04 E0= -.10560572E+04  EK= 0.70114E+01 SP= 0.00E+00 SK= 0.00E+00
   3105 T=   251. E= -.10489634E+04 F= -.10560786E+04 E0= -.10560786E+04  EK= 0.71152E+01 SP= 0.00E+00 SK= 0.00E+00
   3106 T=   259. E= -.10489232E+04 F= -.10562425E+04 E0= -.10562425E+04  EK= 0.73193E+01 SP= 0.00E+00 SK= 0.00E+00
   3107 T=   263. E= -.10489900E+04 F= -.10564437E+04 E0= -.10564437E+04  EK= 0.74537E+01 SP= 0.00E+00 SK= 0.00E+00
   3108 T=   264. E= -.10490710E+04 F= -.10565551E+04 E0= -.10565551E+04  EK= 0.74841E+01 SP= 0.00E+00 SK= 0.00E+00
   3109 T=   260. E= -.10491400E+04 F= -.10564945E+04 E0= -.10564945E+04  EK= 0.73545E+01 SP= 0.00E+00 SK= 0.00E+00
   3110 T=   255. E= -.10490705E+04 F= -.10562846E+04 E0= -.10562846E+04  EK= 0.72141E+01 SP= 0.00E+00 SK= 0.00E+00
   3111 T=   248. E= -.10489534E+04 F= -.10559792E+04 E0= -.10559792E+04  EK= 0.70258E+01 SP= 0.00E+00 SK= 0.00E+00
   3112 T=   244. E= -.10488912E+04 F= -.10558095E+04 E0= -.10558095E+04  EK= 0.69182E+01 SP= 0.00E+00 SK= 0.00E+00
   3113 T=   247. E= -.10488282E+04 F= -.10558124E+04 E0= -.10558124E+04  EK= 0.69842E+01 SP= 0.00E+00 SK= 0.00E+00
   3114 T=   256. E= -.10487733E+04 F= -.10560076E+04 E0= -.10560076E+04  EK= 0.72343E+01 SP= 0.00E+00 SK= 0.00E+00
   3115 T=   266. E= -.10487028E+04 F= -.10562213E+04 E0= -.10562213E+04  EK= 0.75185E+01 SP= 0.00E+00 SK= 0.00E+00
   3116 T=   270. E= -.10486496E+04 F= -.10563064E+04 E0= -.10563064E+04  EK= 0.76568E+01 SP= 0.00E+00 SK= 0.00E+00
   3117 T=   268. E= -.10486766E+04 F= -.10562657E+04 E0= -.10562657E+04  EK= 0.75891E+01 SP= 0.00E+00 SK= 0.00E+00
   3118 T=   266. E= -.10486235E+04 F= -.10561418E+04 E0= -.10561418E+04  EK= 0.75184E+01 SP= 0.00E+00 SK= 0.00E+00
   3119 T=   263. E= -.10485776E+04 F= -.10560215E+04 E0= -.10560215E+04  EK= 0.74439E+01 SP= 0.00E+00 SK= 0.00E+00
   3120 T=   261. E= -.10486013E+04 F= -.10559815E+04 E0= -.10559815E+04  EK= 0.73802E+01 SP= 0.00E+00 SK= 0.00E+00
   3121 T=   263. E= -.10485923E+04 F= -.10560315E+04 E0= -.10560315E+04  EK= 0.74392E+01 SP= 0.00E+00 SK= 0.00E+00
   3122 T=   266. E= -.10485717E+04 F= -.10561131E+04 E0= -.10561131E+04  EK= 0.75414E+01 SP= 0.00E+00 SK= 0.00E+00
   3123 T=   268. E= -.10485728E+04 F= -.10561569E+04 E0= -.10561569E+04  EK= 0.75841E+01 SP= 0.00E+00 SK= 0.00E+00
   3124 T=   266. E= -.10486128E+04 F= -.10561456E+04 E0= -.10561456E+04  EK= 0.75327E+01 SP= 0.00E+00 SK= 0.00E+00
   3125 T=   264. E= -.10486075E+04 F= -.10560917E+04 E0= -.10560917E+04  EK= 0.74842E+01 SP= 0.00E+00 SK= 0.00E+00
   3126 T=   263. E= -.10486012E+04 F= -.10560362E+04 E0= -.10560362E+04  EK= 0.74350E+01 SP= 0.00E+00 SK= 0.00E+00
   3127 T=   261. E= -.10486318E+04 F= -.10560299E+04 E0= -.10560299E+04  EK= 0.73981E+01 SP= 0.00E+00 SK= 0.00E+00
   3128 T=   262. E= -.10486849E+04 F= -.10561024E+04 E0= -.10561024E+04  EK= 0.74174E+01 SP= 0.00E+00 SK= 0.00E+00
   3129 T=   262. E= -.10487696E+04 F= -.10561924E+04 E0= -.10561924E+04  EK= 0.74227E+01 SP= 0.00E+00 SK= 0.00E+00
   3130 T=   264. E= -.10487841E+04 F= -.10562567E+04 E0= -.10562567E+04  EK= 0.74726E+01 SP= 0.00E+00 SK= 0.00E+00
   3131 T=   266. E= -.10487786E+04 F= -.10563021E+04 E0= -.10563021E+04  EK= 0.75235E+01 SP= 0.00E+00 SK= 0.00E+00
   3132 T=   262. E= -.10488977E+04 F= -.10563232E+04 E0= -.10563232E+04  EK= 0.74255E+01 SP= 0.00E+00 SK= 0.00E+00
   3133 T=   258. E= -.10490308E+04 F= -.10563432E+04 E0= -.10563432E+04  EK= 0.73124E+01 SP= 0.00E+00 SK= 0.00E+00
   3134 T=   257. E= -.10491046E+04 F= -.10563826E+04 E0= -.10563826E+04  EK= 0.72780E+01 SP= 0.00E+00 SK= 0.00E+00
   3135 T=   263. E= -.10490485E+04 F= -.10564830E+04 E0= -.10564830E+04  EK= 0.74345E+01 SP= 0.00E+00 SK= 0.00E+00
   3136 T=   269. E= -.10489216E+04 F= -.10565289E+04 E0= -.10565289E+04  EK= 0.76073E+01 SP= 0.00E+00 SK= 0.00E+00
   3137 T=   270. E= -.10488022E+04 F= -.10564580E+04 E0= -.10564580E+04  EK= 0.76558E+01 SP= 0.00E+00 SK= 0.00E+00
   3138 T=   267. E= -.10487117E+04 F= -.10562834E+04 E0= -.10562834E+04  EK= 0.75718E+01 SP= 0.00E+00 SK= 0.00E+00
   3139 T=   260. E= -.10487370E+04 F= -.10561064E+04 E0= -.10561064E+04  EK= 0.73694E+01 SP= 0.00E+00 SK= 0.00E+00
   3140 T=   257. E= -.10487230E+04 F= -.10560050E+04 E0= -.10560050E+04  EK= 0.72820E+01 SP= 0.00E+00 SK= 0.00E+00
   3141 T=   259. E= -.10486030E+04 F= -.10559439E+04 E0= -.10559439E+04  EK= 0.73409E+01 SP= 0.00E+00 SK= 0.00E+00
   3142 T=   261. E= -.10485135E+04 F= -.10558974E+04 E0= -.10558974E+04  EK= 0.73839E+01 SP= 0.00E+00 SK= 0.00E+00
   3143 T=   261. E= -.10485053E+04 F= -.10558992E+04 E0= -.10558992E+04  EK= 0.73939E+01 SP= 0.00E+00 SK= 0.00E+00
   3144 T=   262. E= -.10485513E+04 F= -.10559662E+04 E0= -.10559662E+04  EK= 0.74148E+01 SP= 0.00E+00 SK= 0.00E+00
   3145 T=   263. E= -.10486101E+04 F= -.10560496E+04 E0= -.10560496E+04  EK= 0.74395E+01 SP= 0.00E+00 SK= 0.00E+00
   3146 T=   264. E= -.10486088E+04 F= -.10560826E+04 E0= -.10560826E+04  EK= 0.74738E+01 SP= 0.00E+00 SK= 0.00E+00
   3147 T=   264. E= -.10485890E+04 F= -.10560756E+04 E0= -.10560756E+04  EK= 0.74867E+01 SP= 0.00E+00 SK= 0.00E+00
   3148 T=   263. E= -.10485666E+04 F= -.10560170E+04 E0= -.10560170E+04  EK= 0.74504E+01 SP= 0.00E+00 SK= 0.00E+00
   3149 T=   261. E= -.10485712E+04 F= -.10559637E+04 E0= -.10559637E+04  EK= 0.73925E+01 SP= 0.00E+00 SK= 0.00E+00
   3150 T=   264. E= -.10485376E+04 F= -.10560178E+04 E0= -.10560178E+04  EK= 0.74803E+01 SP= 0.00E+00 SK= 0.00E+00
   3151 T=   270. E= -.10485113E+04 F= -.10561490E+04 E0= -.10561490E+04  EK= 0.76377E+01 SP= 0.00E+00 SK= 0.00E+00
   3152 T=   275. E= -.10484792E+04 F= -.10562698E+04 E0= -.10562698E+04  EK= 0.77907E+01 SP= 0.00E+00 SK= 0.00E+00
   3153 T=   281. E= -.10483954E+04 F= -.10563426E+04 E0= -.10563426E+04  EK= 0.79472E+01 SP= 0.00E+00 SK= 0.00E+00
   3154 T=   280. E= -.10483826E+04 F= -.10563048E+04 E0= -.10563048E+04  EK= 0.79223E+01 SP= 0.00E+00 SK= 0.00E+00
   3155 T=   276. E= -.10483483E+04 F= -.10561671E+04 E0= -.10561671E+04  EK= 0.78189E+01 SP= 0.00E+00 SK= 0.00E+00
   3156 T=   267. E= -.10484197E+04 F= -.10559914E+04 E0= -.10559914E+04  EK= 0.75717E+01 SP= 0.00E+00 SK= 0.00E+00
   3157 T=   259. E= -.10485248E+04 F= -.10558537E+04 E0= -.10558537E+04  EK= 0.73289E+01 SP= 0.00E+00 SK= 0.00E+00
   3158 T=   256. E= -.10485486E+04 F= -.10558053E+04 E0= -.10558053E+04  EK= 0.72567E+01 SP= 0.00E+00 SK= 0.00E+00
   3159 T=   257. E= -.10485466E+04 F= -.10558341E+04 E0= -.10558341E+04  EK= 0.72874E+01 SP= 0.00E+00 SK= 0.00E+00
   3160 T=   262. E= -.10485818E+04 F= -.10559896E+04 E0= -.10559896E+04  EK= 0.74078E+01 SP= 0.00E+00 SK= 0.00E+00
   3161 T=   266. E= -.10486364E+04 F= -.10561665E+04 E0= -.10561665E+04  EK= 0.75301E+01 SP= 0.00E+00 SK= 0.00E+00
   3162 T=   268. E= -.10486311E+04 F= -.10562183E+04 E0= -.10562183E+04  EK= 0.75872E+01 SP= 0.00E+00 SK= 0.00E+00
   3163 T=   263. E= -.10486347E+04 F= -.10560823E+04 E0= -.10560823E+04  EK= 0.74476E+01 SP= 0.00E+00 SK= 0.00E+00
   3164 T=   256. E= -.10486512E+04 F= -.10559046E+04 E0= -.10559046E+04  EK= 0.72534E+01 SP= 0.00E+00 SK= 0.00E+00
   3165 T=   255. E= -.10486718E+04 F= -.10558772E+04 E0= -.10558772E+04  EK= 0.72054E+01 SP= 0.00E+00 SK= 0.00E+00
   3166 T=   258. E= -.10487082E+04 F= -.10560245E+04 E0= -.10560245E+04  EK= 0.73163E+01 SP= 0.00E+00 SK= 0.00E+00
   3167 T=   262. E= -.10487493E+04 F= -.10561665E+04 E0= -.10561665E+04  EK= 0.74172E+01 SP= 0.00E+00 SK= 0.00E+00
   3168 T=   264. E= -.10486774E+04 F= -.10561556E+04 E0= -.10561556E+04  EK= 0.74782E+01 SP= 0.00E+00 SK= 0.00E+00
   3169 T=   258. E= -.10486911E+04 F= -.10559858E+04 E0= -.10559858E+04  EK= 0.72947E+01 SP= 0.00E+00 SK= 0.00E+00
   3170 T=   250. E= -.10487591E+04 F= -.10558486E+04 E0= -.10558486E+04  EK= 0.70894E+01 SP= 0.00E+00 SK= 0.00E+00
   3171 T=   253. E= -.10486317E+04 F= -.10557893E+04 E0= -.10557893E+04  EK= 0.71576E+01 SP= 0.00E+00 SK= 0.00E+00
   3172 T=   255. E= -.10485422E+04 F= -.10557724E+04 E0= -.10557724E+04  EK= 0.72303E+01 SP= 0.00E+00 SK= 0.00E+00
   3173 T=   252. E= -.10486323E+04 F= -.10557666E+04 E0= -.10557666E+04  EK= 0.71343E+01 SP= 0.00E+00 SK= 0.00E+00
   3174 T=   250. E= -.10487141E+04 F= -.10557871E+04 E0= -.10557871E+04  EK= 0.70731E+01 SP= 0.00E+00 SK= 0.00E+00
   3175 T=   249. E= -.10488073E+04 F= -.10558483E+04 E0= -.10558483E+04  EK= 0.70410E+01 SP= 0.00E+00 SK= 0.00E+00
   3176 T=   247. E= -.10489352E+04 F= -.10559400E+04 E0= -.10559400E+04  EK= 0.70048E+01 SP= 0.00E+00 SK= 0.00E+00
   3177 T=   246. E= -.10490330E+04 F= -.10559873E+04 E0= -.10559873E+04  EK= 0.69543E+01 SP= 0.00E+00 SK= 0.00E+00
   3178 T=   241. E= -.10491311E+04 F= -.10559466E+04 E0= -.10559466E+04  EK= 0.68155E+01 SP= 0.00E+00 SK= 0.00E+00
   3179 T=   236. E= -.10491759E+04 F= -.10558674E+04 E0= -.10558674E+04  EK= 0.66915E+01 SP= 0.00E+00 SK= 0.00E+00
   3180 T=   239. E= -.10491423E+04 F= -.10558991E+04 E0= -.10558991E+04  EK= 0.67568E+01 SP= 0.00E+00 SK= 0.00E+00
   3181 T=   247. E= -.10490757E+04 F= -.10560555E+04 E0= -.10560555E+04  EK= 0.69798E+01 SP= 0.00E+00 SK= 0.00E+00
   3182 T=   257. E= -.10490457E+04 F= -.10563310E+04 E0= -.10563310E+04  EK= 0.72853E+01 SP= 0.00E+00 SK= 0.00E+00
   3183 T=   264. E= -.10490461E+04 F= -.10565098E+04 E0= -.10565098E+04  EK= 0.74637E+01 SP= 0.00E+00 SK= 0.00E+00
   3184 T=   264. E= -.10490434E+04 F= -.10565245E+04 E0= -.10565245E+04  EK= 0.74811E+01 SP= 0.00E+00 SK= 0.00E+00
   3185 T=   265. E= -.10489245E+04 F= -.10564137E+04 E0= -.10564137E+04  EK= 0.74892E+01 SP= 0.00E+00 SK= 0.00E+00
   3186 T=   263. E= -.10488967E+04 F= -.10563396E+04 E0= -.10563396E+04  EK= 0.74429E+01 SP= 0.00E+00 SK= 0.00E+00
   3187 T=   260. E= -.10489941E+04 F= -.10563579E+04 E0= -.10563579E+04  EK= 0.73638E+01 SP= 0.00E+00 SK= 0.00E+00
   3188 T=   259. E= -.10490872E+04 F= -.10564234E+04 E0= -.10564234E+04  EK= 0.73361E+01 SP= 0.00E+00 SK= 0.00E+00
   3189 T=   259. E= -.10491395E+04 F= -.10564670E+04 E0= -.10564670E+04  EK= 0.73274E+01 SP= 0.00E+00 SK= 0.00E+00
   3190 T=   260. E= -.10491148E+04 F= -.10564780E+04 E0= -.10564780E+04  EK= 0.73633E+01 SP= 0.00E+00 SK= 0.00E+00
   3191 T=   260. E= -.10490701E+04 F= -.10564303E+04 E0= -.10564303E+04  EK= 0.73602E+01 SP= 0.00E+00 SK= 0.00E+00
   3192 T=   256. E= -.10490747E+04 F= -.10563207E+04 E0= -.10563207E+04  EK= 0.72460E+01 SP= 0.00E+00 SK= 0.00E+00
   3193 T=   248. E= -.10491619E+04 F= -.10561746E+04 E0= -.10561746E+04  EK= 0.70127E+01 SP= 0.00E+00 SK= 0.00E+00
   3194 T=   240. E= -.10492470E+04 F= -.10560443E+04 E0= -.10560443E+04  EK= 0.67973E+01 SP= 0.00E+00 SK= 0.00E+00
   3195 T=   239. E= -.10492246E+04 F= -.10559926E+04 E0= -.10559926E+04  EK= 0.67680E+01 SP= 0.00E+00 SK= 0.00E+00
   3196 T=   240. E= -.10492392E+04 F= -.10560369E+04 E0= -.10560369E+04  EK= 0.67977E+01 SP= 0.00E+00 SK= 0.00E+00
   3197 T=   244. E= -.10493070E+04 F= -.10562098E+04 E0= -.10562098E+04  EK= 0.69028E+01 SP= 0.00E+00 SK= 0.00E+00
   3198 T=   249. E= -.10493421E+04 F= -.10563777E+04 E0= -.10563777E+04  EK= 0.70356E+01 SP= 0.00E+00 SK= 0.00E+00
   3199 T=   252. E= -.10493250E+04 F= -.10564477E+04 E0= -.10564477E+04  EK= 0.71228E+01 SP= 0.00E+00 SK= 0.00E+00
   3200 T=   255. E= -.10491910E+04 F= -.10563982E+04 E0= -.10563982E+04  EK= 0.72072E+01 SP= 0.00E+00 SK= 0.00E+00
   3201 T=   256. E= -.10490661E+04 F= -.10563260E+04 E0= -.10563260E+04  EK= 0.72599E+01 SP= 0.00E+00 SK= 0.00E+00
   3202 T=   260. E= -.10489309E+04 F= -.10562772E+04 E0= -.10562772E+04  EK= 0.73462E+01 SP= 0.00E+00 SK= 0.00E+00
   3203 T=   267. E= -.10487841E+04 F= -.10563362E+04 E0= -.10563362E+04  EK= 0.75521E+01 SP= 0.00E+00 SK= 0.00E+00
   3204 T=   274. E= -.10486793E+04 F= -.10564418E+04 E0= -.10564418E+04  EK= 0.77624E+01 SP= 0.00E+00 SK= 0.00E+00
   3205 T=   279. E= -.10486258E+04 F= -.10565113E+04 E0= -.10565113E+04  EK= 0.78855E+01 SP= 0.00E+00 SK= 0.00E+00
   3206 T=   280. E= -.10485638E+04 F= -.10564905E+04 E0= -.10564905E+04  EK= 0.79268E+01 SP= 0.00E+00 SK= 0.00E+00
   3207 T=   276. E= -.10485143E+04 F= -.10563235E+04 E0= -.10563235E+04  EK= 0.78092E+01 SP= 0.00E+00 SK= 0.00E+00
   3208 T=   262. E= -.10485939E+04 F= -.10560153E+04 E0= -.10560153E+04  EK= 0.74214E+01 SP= 0.00E+00 SK= 0.00E+00
   3209 T=   248. E= -.10486675E+04 F= -.10556933E+04 E0= -.10556933E+04  EK= 0.70258E+01 SP= 0.00E+00 SK= 0.00E+00
   3210 T=   241. E= -.10486563E+04 F= -.10554838E+04 E0= -.10554838E+04  EK= 0.68274E+01 SP= 0.00E+00 SK= 0.00E+00
   3211 T=   241. E= -.10486621E+04 F= -.10554956E+04 E0= -.10554956E+04  EK= 0.68335E+01 SP= 0.00E+00 SK= 0.00E+00
   3212 T=   249. E= -.10486769E+04 F= -.10557241E+04 E0= -.10557241E+04  EK= 0.70472E+01 SP= 0.00E+00 SK= 0.00E+00
   3213 T=   255. E= -.10487251E+04 F= -.10559461E+04 E0= -.10559461E+04  EK= 0.72210E+01 SP= 0.00E+00 SK= 0.00E+00
   3214 T=   258. E= -.10487369E+04 F= -.10560352E+04 E0= -.10560352E+04  EK= 0.72983E+01 SP= 0.00E+00 SK= 0.00E+00
   3215 T=   252. E= -.10487596E+04 F= -.10559006E+04 E0= -.10559006E+04  EK= 0.71409E+01 SP= 0.00E+00 SK= 0.00E+00
   3216 T=   240. E= -.10488255E+04 F= -.10556231E+04 E0= -.10556231E+04  EK= 0.67976E+01 SP= 0.00E+00 SK= 0.00E+00
   3217 T=   231. E= -.10488687E+04 F= -.10554206E+04 E0= -.10554206E+04  EK= 0.65519E+01 SP= 0.00E+00 SK= 0.00E+00
   3218 T=   232. E= -.10489065E+04 F= -.10554633E+04 E0= -.10554633E+04  EK= 0.65567E+01 SP= 0.00E+00 SK= 0.00E+00
   3219 T=   238. E= -.10489762E+04 F= -.10557230E+04 E0= -.10557230E+04  EK= 0.67469E+01 SP= 0.00E+00 SK= 0.00E+00
   3220 T=   250. E= -.10489735E+04 F= -.10560503E+04 E0= -.10560503E+04  EK= 0.70768E+01 SP= 0.00E+00 SK= 0.00E+00
   3221 T=   261. E= -.10488555E+04 F= -.10562433E+04 E0= -.10562433E+04  EK= 0.73878E+01 SP= 0.00E+00 SK= 0.00E+00
   3222 T=   258. E= -.10488038E+04 F= -.10561071E+04 E0= -.10561071E+04  EK= 0.73033E+01 SP= 0.00E+00 SK= 0.00E+00
   3223 T=   246. E= -.10488152E+04 F= -.10557789E+04 E0= -.10557789E+04  EK= 0.69636E+01 SP= 0.00E+00 SK= 0.00E+00
   3224 T=   231. E= -.10488481E+04 F= -.10553989E+04 E0= -.10553989E+04  EK= 0.65507E+01 SP= 0.00E+00 SK= 0.00E+00
   3225 T=   227. E= -.10487848E+04 F= -.10552159E+04 E0= -.10552159E+04  EK= 0.64311E+01 SP= 0.00E+00 SK= 0.00E+00
   3226 T=   235. E= -.10487139E+04 F= -.10553559E+04 E0= -.10553559E+04  EK= 0.66420E+01 SP= 0.00E+00 SK= 0.00E+00
   3227 T=   245. E= -.10487254E+04 F= -.10556732E+04 E0= -.10556732E+04  EK= 0.69478E+01 SP= 0.00E+00 SK= 0.00E+00
   3228 T=   256. E= -.10487247E+04 F= -.10559715E+04 E0= -.10559715E+04  EK= 0.72468E+01 SP= 0.00E+00 SK= 0.00E+00
   3229 T=   260. E= -.10487824E+04 F= -.10561335E+04 E0= -.10561335E+04  EK= 0.73511E+01 SP= 0.00E+00 SK= 0.00E+00
   3230 T=   259. E= -.10488039E+04 F= -.10561234E+04 E0= -.10561234E+04  EK= 0.73196E+01 SP= 0.00E+00 SK= 0.00E+00
   3231 T=   257. E= -.10487454E+04 F= -.10560273E+04 E0= -.10560273E+04  EK= 0.72819E+01 SP= 0.00E+00 SK= 0.00E+00
   3232 T=   258. E= -.10486546E+04 F= -.10559584E+04 E0= -.10559584E+04  EK= 0.73039E+01 SP= 0.00E+00 SK= 0.00E+00
   3233 T=   262. E= -.10486049E+04 F= -.10560128E+04 E0= -.10560128E+04  EK= 0.74079E+01 SP= 0.00E+00 SK= 0.00E+00
   3234 T=   273. E= -.10485330E+04 F= -.10562617E+04 E0= -.10562617E+04  EK= 0.77287E+01 SP= 0.00E+00 SK= 0.00E+00
   3235 T=   286. E= -.10484528E+04 F= -.10565494E+04 E0= -.10565494E+04  EK= 0.80966E+01 SP= 0.00E+00 SK= 0.00E+00
   3236 T=   292. E= -.10483962E+04 F= -.10566658E+04 E0= -.10566658E+04  EK= 0.82696E+01 SP= 0.00E+00 SK= 0.00E+00
   3237 T=   289. E= -.10484102E+04 F= -.10565961E+04 E0= -.10565961E+04  EK= 0.81859E+01 SP= 0.00E+00 SK= 0.00E+00
   3238 T=   278. E= -.10485793E+04 F= -.10564426E+04 E0= -.10564426E+04  EK= 0.78633E+01 SP= 0.00E+00 SK= 0.00E+00
   3239 T=   271. E= -.10487011E+04 F= -.10563666E+04 E0= -.10563666E+04  EK= 0.76655E+01 SP= 0.00E+00 SK= 0.00E+00
   3240 T=   266. E= -.10488065E+04 F= -.10563296E+04 E0= -.10563296E+04  EK= 0.75231E+01 SP= 0.00E+00 SK= 0.00E+00
   3241 T=   262. E= -.10488345E+04 F= -.10562598E+04 E0= -.10562598E+04  EK= 0.74253E+01 SP= 0.00E+00 SK= 0.00E+00
   3242 T=   262. E= -.10487666E+04 F= -.10561695E+04 E0= -.10561695E+04  EK= 0.74029E+01 SP= 0.00E+00 SK= 0.00E+00
   3243 T=   262. E= -.10487162E+04 F= -.10561237E+04 E0= -.10561237E+04  EK= 0.74075E+01 SP= 0.00E+00 SK= 0.00E+00
   3244 T=   261. E= -.10488026E+04 F= -.10561975E+04 E0= -.10561975E+04  EK= 0.73948E+01 SP= 0.00E+00 SK= 0.00E+00
   3245 T=   257. E= -.10490010E+04 F= -.10562859E+04 E0= -.10562859E+04  EK= 0.72849E+01 SP= 0.00E+00 SK= 0.00E+00
   3246 T=   254. E= -.10491510E+04 F= -.10563395E+04 E0= -.10563395E+04  EK= 0.71884E+01 SP= 0.00E+00 SK= 0.00E+00
   3247 T=   254. E= -.10491561E+04 F= -.10563477E+04 E0= -.10563477E+04  EK= 0.71916E+01 SP= 0.00E+00 SK= 0.00E+00
   3248 T=   254. E= -.10491395E+04 F= -.10563248E+04 E0= -.10563248E+04  EK= 0.71853E+01 SP= 0.00E+00 SK= 0.00E+00
   3249 T=   252. E= -.10491874E+04 F= -.10563275E+04 E0= -.10563275E+04  EK= 0.71401E+01 SP= 0.00E+00 SK= 0.00E+00
   3250 T=   250. E= -.10492460E+04 F= -.10563095E+04 E0= -.10563095E+04  EK= 0.70635E+01 SP= 0.00E+00 SK= 0.00E+00
   3251 T=   247. E= -.10492517E+04 F= -.10562409E+04 E0= -.10562409E+04  EK= 0.69893E+01 SP= 0.00E+00 SK= 0.00E+00
   3252 T=   247. E= -.10491643E+04 F= -.10561426E+04 E0= -.10561426E+04  EK= 0.69783E+01 SP= 0.00E+00 SK= 0.00E+00
   3253 T=   251. E= -.10490155E+04 F= -.10561073E+04 E0= -.10561073E+04  EK= 0.70919E+01 SP= 0.00E+00 SK= 0.00E+00
   3254 T=   253. E= -.10489735E+04 F= -.10561372E+04 E0= -.10561372E+04  EK= 0.71637E+01 SP= 0.00E+00 SK= 0.00E+00
   3255 T=   251. E= -.10490580E+04 F= -.10561574E+04 E0= -.10561574E+04  EK= 0.70995E+01 SP= 0.00E+00 SK= 0.00E+00
   3256 T=   244. E= -.10491984E+04 F= -.10560952E+04 E0= -.10560952E+04  EK= 0.68968E+01 SP= 0.00E+00 SK= 0.00E+00
   3257 T=   237. E= -.10492647E+04 F= -.10559851E+04 E0= -.10559851E+04  EK= 0.67204E+01 SP= 0.00E+00 SK= 0.00E+00
   3258 T=   237. E= -.10491945E+04 F= -.10558989E+04 E0= -.10558989E+04  EK= 0.67044E+01 SP= 0.00E+00 SK= 0.00E+00
   3259 T=   238. E= -.10491770E+04 F= -.10559164E+04 E0= -.10559164E+04  EK= 0.67395E+01 SP= 0.00E+00 SK= 0.00E+00
   3260 T=   241. E= -.10492061E+04 F= -.10560195E+04 E0= -.10560195E+04  EK= 0.68134E+01 SP= 0.00E+00 SK= 0.00E+00
   3261 T=   244. E= -.10491869E+04 F= -.10561037E+04 E0= -.10561037E+04  EK= 0.69169E+01 SP= 0.00E+00 SK= 0.00E+00
   3262 T=   247. E= -.10491177E+04 F= -.10561223E+04 E0= -.10561223E+04  EK= 0.70046E+01 SP= 0.00E+00 SK= 0.00E+00
   3263 T=   250. E= -.10490390E+04 F= -.10561026E+04 E0= -.10561026E+04  EK= 0.70636E+01 SP= 0.00E+00 SK= 0.00E+00
   3264 T=   255. E= -.10489094E+04 F= -.10561414E+04 E0= -.10561414E+04  EK= 0.72320E+01 SP= 0.00E+00 SK= 0.00E+00
   3265 T=   260. E= -.10489009E+04 F= -.10562589E+04 E0= -.10562589E+04  EK= 0.73580E+01 SP= 0.00E+00 SK= 0.00E+00
   3266 T=   265. E= -.10489535E+04 F= -.10564446E+04 E0= -.10564446E+04  EK= 0.74912E+01 SP= 0.00E+00 SK= 0.00E+00
   3267 T=   273. E= -.10488339E+04 F= -.10565632E+04 E0= -.10565632E+04  EK= 0.77293E+01 SP= 0.00E+00 SK= 0.00E+00
   3268 T=   279. E= -.10487322E+04 F= -.10566277E+04 E0= -.10566277E+04  EK= 0.78955E+01 SP= 0.00E+00 SK= 0.00E+00
   3269 T=   278. E= -.10487969E+04 F= -.10566763E+04 E0= -.10566763E+04  EK= 0.78794E+01 SP= 0.00E+00 SK= 0.00E+00
   3270 T=   275. E= -.10489064E+04 F= -.10566979E+04 E0= -.10566979E+04  EK= 0.77915E+01 SP= 0.00E+00 SK= 0.00E+00
   3271 T=   273. E= -.10489111E+04 F= -.10566427E+04 E0= -.10566427E+04  EK= 0.77316E+01 SP= 0.00E+00 SK= 0.00E+00
   3272 T=   270. E= -.10488520E+04 F= -.10565056E+04 E0= -.10565056E+04  EK= 0.76536E+01 SP= 0.00E+00 SK= 0.00E+00
   3273 T=   267. E= -.10488699E+04 F= -.10564236E+04 E0= -.10564236E+04  EK= 0.75537E+01 SP= 0.00E+00 SK= 0.00E+00
   3274 T=   265. E= -.10489780E+04 F= -.10564696E+04 E0= -.10564696E+04  EK= 0.74916E+01 SP= 0.00E+00 SK= 0.00E+00
   3275 T=   268. E= -.10490221E+04 F= -.10565950E+04 E0= -.10565950E+04  EK= 0.75728E+01 SP= 0.00E+00 SK= 0.00E+00
   3276 T=   271. E= -.10490720E+04 F= -.10567313E+04 E0= -.10567313E+04  EK= 0.76594E+01 SP= 0.00E+00 SK= 0.00E+00
   3277 T=   269. E= -.10491068E+04 F= -.10567217E+04 E0= -.10567217E+04  EK= 0.76149E+01 SP= 0.00E+00 SK= 0.00E+00
   3278 T=   268. E= -.10490445E+04 F= -.10566339E+04 E0= -.10566339E+04  EK= 0.75894E+01 SP= 0.00E+00 SK= 0.00E+00
   3279 T=   269. E= -.10489732E+04 F= -.10565795E+04 E0= -.10565795E+04  EK= 0.76063E+01 SP= 0.00E+00 SK= 0.00E+00
   3280 T=   272. E= -.10488967E+04 F= -.10565962E+04 E0= -.10565962E+04  EK= 0.76995E+01 SP= 0.00E+00 SK= 0.00E+00
   3281 T=   274. E= -.10488531E+04 F= -.10566120E+04 E0= -.10566120E+04  EK= 0.77589E+01 SP= 0.00E+00 SK= 0.00E+00
   3282 T=   273. E= -.10488644E+04 F= -.10565958E+04 E0= -.10565958E+04  EK= 0.77314E+01 SP= 0.00E+00 SK= 0.00E+00
   3283 T=   273. E= -.10488620E+04 F= -.10565901E+04 E0= -.10565901E+04  EK= 0.77281E+01 SP= 0.00E+00 SK= 0.00E+00
   3284 T=   271. E= -.10488967E+04 F= -.10565799E+04 E0= -.10565799E+04  EK= 0.76832E+01 SP= 0.00E+00 SK= 0.00E+00
   3285 T=   268. E= -.10489807E+04 F= -.10565558E+04 E0= -.10565558E+04  EK= 0.75751E+01 SP= 0.00E+00 SK= 0.00E+00
   3286 T=   263. E= -.10490527E+04 F= -.10565073E+04 E0= -.10565073E+04  EK= 0.74546E+01 SP= 0.00E+00 SK= 0.00E+00
   3287 T=   258. E= -.10490951E+04 F= -.10564102E+04 E0= -.10564102E+04  EK= 0.73151E+01 SP= 0.00E+00 SK= 0.00E+00
   3288 T=   258. E= -.10490620E+04 F= -.10563534E+04 E0= -.10563534E+04  EK= 0.72915E+01 SP= 0.00E+00 SK= 0.00E+00
   3289 T=   257. E= -.10490827E+04 F= -.10563491E+04 E0= -.10563491E+04  EK= 0.72664E+01 SP= 0.00E+00 SK= 0.00E+00
   3290 T=   255. E= -.10492232E+04 F= -.10564484E+04 E0= -.10564484E+04  EK= 0.72252E+01 SP= 0.00E+00 SK= 0.00E+00
   3291 T=   259. E= -.10492534E+04 F= -.10565721E+04 E0= -.10565721E+04  EK= 0.73187E+01 SP= 0.00E+00 SK= 0.00E+00
   3292 T=   260. E= -.10492253E+04 F= -.10565844E+04 E0= -.10565844E+04  EK= 0.73591E+01 SP= 0.00E+00 SK= 0.00E+00
   3293 T=   256. E= -.10492308E+04 F= -.10564841E+04 E0= -.10564841E+04  EK= 0.72533E+01 SP= 0.00E+00 SK= 0.00E+00
   3294 T=   254. E= -.10491168E+04 F= -.10563108E+04 E0= -.10563108E+04  EK= 0.71940E+01 SP= 0.00E+00 SK= 0.00E+00
   3295 T=   254. E= -.10490551E+04 F= -.10562359E+04 E0= -.10562359E+04  EK= 0.71809E+01 SP= 0.00E+00 SK= 0.00E+00
   3296 T=   254. E= -.10491557E+04 F= -.10563552E+04 E0= -.10563552E+04  EK= 0.71995E+01 SP= 0.00E+00 SK= 0.00E+00
   3297 T=   258. E= -.10492451E+04 F= -.10565555E+04 E0= -.10565555E+04  EK= 0.73104E+01 SP= 0.00E+00 SK= 0.00E+00
   3298 T=   265. E= -.10492183E+04 F= -.10567305E+04 E0= -.10567305E+04  EK= 0.75121E+01 SP= 0.00E+00 SK= 0.00E+00
   3299 T=   266. E= -.10492683E+04 F= -.10568081E+04 E0= -.10568081E+04  EK= 0.75399E+01 SP= 0.00E+00 SK= 0.00E+00
   3300 T=   259. E= -.10493981E+04 F= -.10567248E+04 E0= -.10567248E+04  EK= 0.73266E+01 SP= 0.00E+00 SK= 0.00E+00
   3301 T=   250. E= -.10494629E+04 F= -.10565262E+04 E0= -.10565262E+04  EK= 0.70632E+01 SP= 0.00E+00 SK= 0.00E+00
   3302 T=   243. E= -.10494570E+04 F= -.10563433E+04 E0= -.10563433E+04  EK= 0.68863E+01 SP= 0.00E+00 SK= 0.00E+00
   3303 T=   241. E= -.10494668E+04 F= -.10562947E+04 E0= -.10562947E+04  EK= 0.68279E+01 SP= 0.00E+00 SK= 0.00E+00
   3304 T=   246. E= -.10494147E+04 F= -.10563862E+04 E0= -.10563862E+04  EK= 0.69715E+01 SP= 0.00E+00 SK= 0.00E+00
   3305 T=   258. E= -.10492618E+04 F= -.10565720E+04 E0= -.10565720E+04  EK= 0.73102E+01 SP= 0.00E+00 SK= 0.00E+00
   3306 T=   269. E= -.10492006E+04 F= -.10568162E+04 E0= -.10568162E+04  EK= 0.76156E+01 SP= 0.00E+00 SK= 0.00E+00
   3307 T=   274. E= -.10492021E+04 F= -.10569473E+04 E0= -.10569473E+04  EK= 0.77452E+01 SP= 0.00E+00 SK= 0.00E+00
   3308 T=   274. E= -.10490881E+04 F= -.10568528E+04 E0= -.10568528E+04  EK= 0.77646E+01 SP= 0.00E+00 SK= 0.00E+00
   3309 T=   268. E= -.10489888E+04 F= -.10565687E+04 E0= -.10565687E+04  EK= 0.75799E+01 SP= 0.00E+00 SK= 0.00E+00
   3310 T=   261. E= -.10489740E+04 F= -.10563701E+04 E0= -.10563701E+04  EK= 0.73961E+01 SP= 0.00E+00 SK= 0.00E+00
   3311 T=   264. E= -.10489117E+04 F= -.10563785E+04 E0= -.10563785E+04  EK= 0.74668E+01 SP= 0.00E+00 SK= 0.00E+00
   3312 T=   269. E= -.10489370E+04 F= -.10565525E+04 E0= -.10565525E+04  EK= 0.76155E+01 SP= 0.00E+00 SK= 0.00E+00
   3313 T=   272. E= -.10490665E+04 F= -.10567565E+04 E0= -.10567565E+04  EK= 0.76899E+01 SP= 0.00E+00 SK= 0.00E+00
   3314 T=   273. E= -.10491317E+04 F= -.10568621E+04 E0= -.10568621E+04  EK= 0.77304E+01 SP= 0.00E+00 SK= 0.00E+00
   3315 T=   273. E= -.10491253E+04 F= -.10568608E+04 E0= -.10568608E+04  EK= 0.77355E+01 SP= 0.00E+00 SK= 0.00E+00
   3316 T=   274. E= -.10489775E+04 F= -.10567433E+04 E0= -.10567433E+04  EK= 0.77658E+01 SP= 0.00E+00 SK= 0.00E+00
   3317 T=   271. E= -.10488467E+04 F= -.10565162E+04 E0= -.10565162E+04  EK= 0.76695E+01 SP= 0.00E+00 SK= 0.00E+00
   3318 T=   263. E= -.10488057E+04 F= -.10562579E+04 E0= -.10562579E+04  EK= 0.74522E+01 SP= 0.00E+00 SK= 0.00E+00
   3319 T=   257. E= -.10487716E+04 F= -.10560560E+04 E0= -.10560560E+04  EK= 0.72843E+01 SP= 0.00E+00 SK= 0.00E+00
   3320 T=   259. E= -.10487186E+04 F= -.10560609E+04 E0= -.10560609E+04  EK= 0.73423E+01 SP= 0.00E+00 SK= 0.00E+00
   3321 T=   267. E= -.10487065E+04 F= -.10562780E+04 E0= -.10562780E+04  EK= 0.75715E+01 SP= 0.00E+00 SK= 0.00E+00
   3322 T=   274. E= -.10488009E+04 F= -.10565551E+04 E0= -.10565551E+04  EK= 0.77543E+01 SP= 0.00E+00 SK= 0.00E+00
   3323 T=   279. E= -.10488825E+04 F= -.10567777E+04 E0= -.10567777E+04  EK= 0.78952E+01 SP= 0.00E+00 SK= 0.00E+00
   3324 T=   279. E= -.10489208E+04 F= -.10568237E+04 E0= -.10568237E+04  EK= 0.79029E+01 SP= 0.00E+00 SK= 0.00E+00
   3325 T=   276. E= -.10488925E+04 F= -.10566980E+04 E0= -.10566980E+04  EK= 0.78055E+01 SP= 0.00E+00 SK= 0.00E+00
   3326 T=   268. E= -.10488235E+04 F= -.10564242E+04 E0= -.10564242E+04  EK= 0.76007E+01 SP= 0.00E+00 SK= 0.00E+00
   3327 T=   265. E= -.10487558E+04 F= -.10562704E+04 E0= -.10562704E+04  EK= 0.75146E+01 SP= 0.00E+00 SK= 0.00E+00
   3328 T=   267. E= -.10487044E+04 F= -.10562610E+04 E0= -.10562610E+04  EK= 0.75566E+01 SP= 0.00E+00 SK= 0.00E+00
   3329 T=   272. E= -.10486312E+04 F= -.10563251E+04 E0= -.10563251E+04  EK= 0.76939E+01 SP= 0.00E+00 SK= 0.00E+00
   3330 T=   272. E= -.10486711E+04 F= -.10563683E+04 E0= -.10563683E+04  EK= 0.76972E+01 SP= 0.00E+00 SK= 0.00E+00
   3331 T=   272. E= -.10486947E+04 F= -.10563953E+04 E0= -.10563953E+04  EK= 0.77006E+01 SP= 0.00E+00 SK= 0.00E+00
   3332 T=   273. E= -.10486413E+04 F= -.10563820E+04 E0= -.10563820E+04  EK= 0.77406E+01 SP= 0.00E+00 SK= 0.00E+00
   3333 T=   268. E= -.10486466E+04 F= -.10562422E+04 E0= -.10562422E+04  EK= 0.75956E+01 SP= 0.00E+00 SK= 0.00E+00
   3334 T=   257. E= -.10487306E+04 F= -.10560020E+04 E0= -.10560020E+04  EK= 0.72713E+01 SP= 0.00E+00 SK= 0.00E+00
   3335 T=   244. E= -.10488374E+04 F= -.10557531E+04 E0= -.10557531E+04  EK= 0.69157E+01 SP= 0.00E+00 SK= 0.00E+00
   3336 T=   239. E= -.10488748E+04 F= -.10556450E+04 E0= -.10556450E+04  EK= 0.67702E+01 SP= 0.00E+00 SK= 0.00E+00
   3337 T=   246. E= -.10487841E+04 F= -.10557588E+04 E0= -.10557588E+04  EK= 0.69747E+01 SP= 0.00E+00 SK= 0.00E+00
   3338 T=   257. E= -.10487381E+04 F= -.10560076E+04 E0= -.10560076E+04  EK= 0.72695E+01 SP= 0.00E+00 SK= 0.00E+00
   3339 T=   263. E= -.10488200E+04 F= -.10562588E+04 E0= -.10562588E+04  EK= 0.74388E+01 SP= 0.00E+00 SK= 0.00E+00
   3340 T=   266. E= -.10488764E+04 F= -.10563961E+04 E0= -.10563961E+04  EK= 0.75197E+01 SP= 0.00E+00 SK= 0.00E+00
   3341 T=   267. E= -.10488170E+04 F= -.10563807E+04 E0= -.10563807E+04  EK= 0.75636E+01 SP= 0.00E+00 SK= 0.00E+00
   3342 T=   266. E= -.10487179E+04 F= -.10562589E+04 E0= -.10562589E+04  EK= 0.75410E+01 SP= 0.00E+00 SK= 0.00E+00
   3343 T=   258. E= -.10487909E+04 F= -.10560885E+04 E0= -.10560885E+04  EK= 0.72976E+01 SP= 0.00E+00 SK= 0.00E+00
   3344 T=   249. E= -.10489127E+04 F= -.10559668E+04 E0= -.10559668E+04  EK= 0.70541E+01 SP= 0.00E+00 SK= 0.00E+00
   3345 T=   250. E= -.10489229E+04 F= -.10559977E+04 E0= -.10559977E+04  EK= 0.70749E+01 SP= 0.00E+00 SK= 0.00E+00
   3346 T=   253. E= -.10489276E+04 F= -.10560764E+04 E0= -.10560764E+04  EK= 0.71488E+01 SP= 0.00E+00 SK= 0.00E+00
   3347 T=   258. E= -.10488463E+04 F= -.10561357E+04 E0= -.10561357E+04  EK= 0.72894E+01 SP= 0.00E+00 SK= 0.00E+00
   3348 T=   259. E= -.10487473E+04 F= -.10560828E+04 E0= -.10560828E+04  EK= 0.73355E+01 SP= 0.00E+00 SK= 0.00E+00
   3349 T=   254. E= -.10487187E+04 F= -.10559218E+04 E0= -.10559218E+04  EK= 0.72032E+01 SP= 0.00E+00 SK= 0.00E+00
   3350 T=   248. E= -.10486674E+04 F= -.10557011E+04 E0= -.10557011E+04  EK= 0.70336E+01 SP= 0.00E+00 SK= 0.00E+00
   3351 T=   240. E= -.10486737E+04 F= -.10554591E+04 E0= -.10554591E+04  EK= 0.67854E+01 SP= 0.00E+00 SK= 0.00E+00
   3352 T=   235. E= -.10486683E+04 F= -.10553084E+04 E0= -.10553084E+04  EK= 0.66402E+01 SP= 0.00E+00 SK= 0.00E+00
       N       E                     dE             d eps       ncg     rms          rms(c)
DAV:   1    -0.351854273456E+03    0.68916E+03   -0.58271E+04 20852   0.409E+02
DAV:   2    -0.103561010942E+04   -0.68376E+03   -0.66825E+03 24500   0.124E+02
DAV:   3    -0.105614590198E+04   -0.20536E+02   -0.20498E+02 25280   0.235E+01
DAV:   4    -0.105643312806E+04   -0.28723E+00   -0.28708E+00 24752   0.271E+00    0.401E+01
DAV:   5    -0.103908881749E+04    0.17344E+02   -0.36187E+01 25088   0.127E+01    0.222E+01
DAV:   6    -0.103900682426E+04    0.81993E-01   -0.20279E+01 24768   0.915E+00    0.781E+00
DAV:   7    -0.104006015238E+04   -0.10533E+01   -0.38630E+00 23728   0.429E+00    0.248E+00
DAV:   8    -0.104011595016E+04   -0.55798E-01   -0.34520E-01 24240   0.139E+00    0.110E+00
DAV:   9    -0.104012440912E+04   -0.84590E-02   -0.10968E-01 23912   0.718E-01    0.427E-01
DAV:  10    -0.104012326925E+04    0.11399E-02   -0.15332E-02 25240   0.337E-01    0.168E-01
DAV:  11    -0.104012290259E+04    0.36666E-03   -0.66513E-03 23832   0.175E-01    0.116E-01
DAV:  12    -0.104012217346E+04    0.72913E-03   -0.83553E-04 24640   0.121E-01    0.488E-02
DAV:  13    -0.104012174207E+04    0.43138E-03   -0.12411E-03 23920   0.133E-01    0.613E-02
DAV:  14    -0.104012160607E+04    0.13600E-03   -0.76075E-04 24624   0.777E-02    0.298E-02
DAV:  15    -0.104012159454E+04    0.11533E-04   -0.14156E-04 16240   0.249E-02
   3353 T=   238. E= -.10486731E+04 F= -.10554020E+04 E0= -.10554020E+04  EK= 0.67290E+01 SP= 0.00E+00 SK= 0.00E+00
   3354 T=   245. E= -.10486150E+04 F= -.10555511E+04 E0= -.10555511E+04  EK= 0.69360E+01 SP= 0.00E+00 SK= 0.00E+00
   3355 T=   255. E= -.10486109E+04 F= -.10558335E+04 E0= -.10558335E+04  EK= 0.72225E+01 SP= 0.00E+00 SK= 0.00E+00
   3356 T=   263. E= -.10485416E+04 F= -.10559909E+04 E0= -.10559909E+04  EK= 0.74494E+01 SP= 0.00E+00 SK= 0.00E+00
   3357 T=   267. E= -.10484367E+04 F= -.10559887E+04 E0= -.10559887E+04  EK= 0.75520E+01 SP= 0.00E+00 SK= 0.00E+00
   3358 T=   266. E= -.10483567E+04 F= -.10559007E+04 E0= -.10559007E+04  EK= 0.75440E+01 SP= 0.00E+00 SK= 0.00E+00
   3359 T=   266. E= -.10482689E+04 F= -.10558017E+04 E0= -.10558017E+04  EK= 0.75329E+01 SP= 0.00E+00 SK= 0.00E+00
   3360 T=   262. E= -.10482825E+04 F= -.10556973E+04 E0= -.10556973E+04  EK= 0.74148E+01 SP= 0.00E+00 SK= 0.00E+00
   3361 T=   257. E= -.10483074E+04 F= -.10555964E+04 E0= -.10555964E+04  EK= 0.72890E+01 SP= 0.00E+00 SK= 0.00E+00
   3362 T=   257. E= -.10483559E+04 F= -.10556272E+04 E0= -.10556272E+04  EK= 0.72713E+01 SP= 0.00E+00 SK= 0.00E+00
   3363 T=   254. E= -.10485404E+04 F= -.10557170E+04 E0= -.10557170E+04  EK= 0.71766E+01 SP= 0.00E+00 SK= 0.00E+00
   3364 T=   253. E= -.10486873E+04 F= -.10558410E+04 E0= -.10558410E+04  EK= 0.71537E+01 SP= 0.00E+00 SK= 0.00E+00
   3365 T=   254. E= -.10486550E+04 F= -.10558359E+04 E0= -.10558359E+04  EK= 0.71809E+01 SP= 0.00E+00 SK= 0.00E+00
   3366 T=   254. E= -.10485322E+04 F= -.10557268E+04 E0= -.10557268E+04  EK= 0.71946E+01 SP= 0.00E+00 SK= 0.00E+00
   3367 T=   248. E= -.10485021E+04 F= -.10555318E+04 E0= -.10555318E+04  EK= 0.70296E+01 SP= 0.00E+00 SK= 0.00E+00
   3368 T=   243. E= -.10485125E+04 F= -.10553954E+04 E0= -.10553954E+04  EK= 0.68830E+01 SP= 0.00E+00 SK= 0.00E+00
   3369 T=   242. E= -.10485513E+04 F= -.10554131E+04 E0= -.10554131E+04  EK= 0.68619E+01 SP= 0.00E+00 SK= 0.00E+00
   3370 T=   249. E= -.10485485E+04 F= -.10555921E+04 E0= -.10555921E+04  EK= 0.70436E+01 SP= 0.00E+00 SK= 0.00E+00
   3371 T=   262. E= -.10484196E+04 F= -.10558325E+04 E0= -.10558325E+04  EK= 0.74129E+01 SP= 0.00E+00 SK= 0.00E+00
   3372 T=   274. E= -.10482758E+04 F= -.10560196E+04 E0= -.10560196E+04  EK= 0.77437E+01 SP= 0.00E+00 SK= 0.00E+00
       N       E                     dE             d eps       ncg     rms          rms(c)
DAV:   1    -0.100783853850E+04    0.32283E+02   -0.90351E+03 20644   0.173E+02
DAV:   2    -0.104254474571E+04   -0.34706E+02   -0.34687E+02 24880   0.296E+01
DAV:   3    -0.104287753309E+04   -0.33279E+00   -0.33273E+00 25024   0.320E+00
DAV:   4    -0.104288380218E+04   -0.62691E-02   -0.62684E-02 25008   0.429E-01    0.181E+01
DAV:   5    -0.104072329281E+04    0.21605E+01   -0.37380E+00 24824   0.466E+00    0.104E+01
DAV:   6    -0.104076445503E+04   -0.41162E-01   -0.45419E+00 25192   0.456E+00    0.224E+00
DAV:   7    -0.104084168952E+04   -0.77234E-01   -0.79110E-01 24352   0.209E+00    0.976E-01
DAV:   8    -0.104084100294E+04    0.68658E-03   -0.82791E-02 23864   0.581E-01    0.567E-01
DAV:   9    -0.104083718931E+04    0.38136E-02   -0.36075E-02 24120   0.480E-01    0.316E-01
DAV:  10    -0.104083340547E+04    0.37838E-02   -0.73466E-03 26728   0.319E-01    0.135E-01
DAV:  11    -0.104083252152E+04    0.88394E-03   -0.78072E-03 24448   0.222E-01    0.111E-01
DAV:  12    -0.104083142337E+04    0.10981E-02   -0.14990E-03 24040   0.145E-01    0.393E-02
DAV:  13    -0.104083104675E+04    0.37663E-03   -0.83100E-04 23720   0.119E-01    0.547E-02
DAV:  14    -0.104083095716E+04    0.89585E-04   -0.69188E-04 24896   0.803E-02
   3373 T=   274. E= -.10483079E+04 F= -.10560538E+04 E0= -.10560538E+04  EK= 0.77459E+01 SP= 0.00E+00 SK= 0.00E+00
   3374 T=   269. E= -.10483473E+04 F= -.10559615E+04 E0= -.10559615E+04  EK= 0.76142E+01 SP= 0.00E+00 SK= 0.00E+00
   3375 T=   264. E= -.10483222E+04 F= -.10558069E+04 E0= -.10558069E+04  EK= 0.74846E+01 SP= 0.00E+00 SK= 0.00E+00
   3376 T=   266. E= -.10481954E+04 F= -.10557330E+04 E0= -.10557330E+04  EK= 0.75376E+01 SP= 0.00E+00 SK= 0.00E+00
   3377 T=   269. E= -.10481078E+04 F= -.10557349E+04 E0= -.10557349E+04  EK= 0.76271E+01 SP= 0.00E+00 SK= 0.00E+00
   3378 T=   270. E= -.10481492E+04 F= -.10557912E+04 E0= -.10557912E+04  EK= 0.76420E+01 SP= 0.00E+00 SK= 0.00E+00
   3379 T=   270. E= -.10481743E+04 F= -.10558313E+04 E0= -.10558313E+04  EK= 0.76570E+01 SP= 0.00E+00 SK= 0.00E+00
   3380 T=   269. E= -.10481579E+04 F= -.10557839E+04 E0= -.10557839E+04  EK= 0.76260E+01 SP= 0.00E+00 SK= 0.00E+00
   3381 T=   264. E= -.10481459E+04 F= -.10556069E+04 E0= -.10556069E+04  EK= 0.74609E+01 SP= 0.00E+00 SK= 0.00E+00
   3382 T=   252. E= -.10482539E+04 F= -.10553826E+04 E0= -.10553826E+04  EK= 0.71288E+01 SP= 0.00E+00 SK= 0.00E+00
       N       E                     dE             d eps       ncg     rms          rms(c)
DAV:   1    -0.103207833683E+04    0.87527E+01   -0.34180E+03 20644   0.108E+02
DAV:   2    -0.104109190572E+04   -0.90136E+01   -0.90108E+01 24992   0.159E+01
DAV:   3    -0.104117692527E+04   -0.85020E-01   -0.85012E-01 25064   0.161E+00
DAV:   4    -0.104117873028E+04   -0.18050E-02   -0.18049E-02 25016   0.227E-01    0.119E+01
DAV:   5    -0.103999634225E+04    0.11824E+01   -0.21582E+00 25640   0.381E+00    0.652E+00
DAV:   6    -0.103997990979E+04    0.16432E-01   -0.19071E+00 25216   0.299E+00    0.181E+00
DAV:   7    -0.104001585521E+04   -0.35945E-01   -0.34922E-01 24552   0.145E+00    0.668E-01
DAV:   8    -0.104001439520E+04    0.14600E-02   -0.34895E-02 23696   0.448E-01    0.359E-01
DAV:   9    -0.104001309848E+04    0.12967E-02   -0.19247E-02 23896   0.323E-01    0.219E-01
DAV:  10    -0.104001149367E+04    0.16048E-02   -0.41370E-03 28728   0.215E-01    0.675E-02
DAV:  11    -0.104001118998E+04    0.30369E-03   -0.19690E-03 23792   0.105E-01    0.566E-02
DAV:  12    -0.104001082672E+04    0.36326E-03   -0.26370E-04 19216   0.809E-02    0.256E-02
DAV:  13    -0.104001070180E+04    0.12492E-03   -0.43487E-04 22328   0.691E-02    0.305E-02
DAV:  14    -0.104001067800E+04    0.23798E-04   -0.16391E-04 17856   0.360E-02
   3383 T=   246. E= -.10482346E+04 F= -.10552058E+04 E0= -.10552058E+04  EK= 0.69712E+01 SP= 0.00E+00 SK= 0.00E+00
   3384 T=   248. E= -.10481517E+04 F= -.10551675E+04 E0= -.10551675E+04  EK= 0.70158E+01 SP= 0.00E+00 SK= 0.00E+00
   3385 T=   249. E= -.10481808E+04 F= -.10552273E+04 E0= -.10552273E+04  EK= 0.70465E+01 SP= 0.00E+00 SK= 0.00E+00
   3386 T=   249. E= -.10483300E+04 F= -.10553654E+04 E0= -.10553654E+04  EK= 0.70354E+01 SP= 0.00E+00 SK= 0.00E+00
   3387 T=   249. E= -.10484415E+04 F= -.10554826E+04 E0= -.10554826E+04  EK= 0.70411E+01 SP= 0.00E+00 SK= 0.00E+00
   3388 T=   247. E= -.10485430E+04 F= -.10555303E+04 E0= -.10555303E+04  EK= 0.69873E+01 SP= 0.00E+00 SK= 0.00E+00
   3389 T=   242. E= -.10486911E+04 F= -.10555306E+04 E0= -.10555306E+04  EK= 0.68395E+01 SP= 0.00E+00 SK= 0.00E+00
   3390 T=   240. E= -.10487407E+04 F= -.10555281E+04 E0= -.10555281E+04  EK= 0.67873E+01 SP= 0.00E+00 SK= 0.00E+00
   3391 T=   240. E= -.10487519E+04 F= -.10555404E+04 E0= -.10555404E+04  EK= 0.67885E+01 SP= 0.00E+00 SK= 0.00E+00
   3392 T=   241. E= -.10487972E+04 F= -.10556297E+04 E0= -.10556297E+04  EK= 0.68325E+01 SP= 0.00E+00 SK= 0.00E+00
       N       E                     dE             d eps       ncg     rms          rms(c)
DAV:   1    -0.103484316377E+04    0.51675E+01   -0.25817E+03 20644   0.943E+01
DAV:   2    -0.104135884464E+04   -0.65157E+01   -0.65139E+01 25000   0.136E+01
DAV:   3    -0.104141970025E+04   -0.60856E-01   -0.60850E-01 25016   0.136E+00
DAV:   4    -0.104142099951E+04   -0.12993E-02   -0.12992E-02 24976   0.194E-01    0.112E+01
DAV:   5    -0.104045194469E+04    0.96905E+00   -0.21380E+00 25648   0.372E+00    0.607E+00
DAV:   6    -0.104047870749E+04   -0.26763E-01   -0.14098E+00 24976   0.252E+00    0.189E+00
DAV:   7    -0.104052160008E+04   -0.42893E-01   -0.27038E-01 25192   0.127E+00    0.614E-01
DAV:   8    -0.104052146601E+04    0.13408E-03   -0.29217E-02 23472   0.423E-01    0.316E-01
DAV:   9    -0.104052169388E+04   -0.22787E-03   -0.15534E-02 23632   0.260E-01    0.180E-01
DAV:  10    -0.104052086439E+04    0.82949E-03   -0.29302E-03 29096   0.178E-01    0.480E-02
DAV:  11    -0.104052079313E+04    0.71256E-04   -0.11499E-03 23288   0.741E-02    0.473E-02
DAV:  12    -0.104052063914E+04    0.15399E-03   -0.14413E-04 16856   0.496E-02    0.171E-02
DAV:  13    -0.104052059077E+04    0.48368E-04   -0.23432E-04 18264   0.456E-02
   3393 T=   249. E= -.10486522E+04 F= -.10557076E+04 E0= -.10557076E+04  EK= 0.70554E+01 SP= 0.00E+00 SK= 0.00E+00
   3394 T=   259. E= -.10485593E+04 F= -.10558975E+04 E0= -.10558975E+04  EK= 0.73383E+01 SP= 0.00E+00 SK= 0.00E+00
   3395 T=   264. E= -.10484369E+04 F= -.10559166E+04 E0= -.10559166E+04  EK= 0.74797E+01 SP= 0.00E+00 SK= 0.00E+00
   3396 T=   260. E= -.10483989E+04 F= -.10557725E+04 E0= -.10557725E+04  EK= 0.73736E+01 SP= 0.00E+00 SK= 0.00E+00
   3397 T=   252. E= -.10484255E+04 F= -.10555588E+04 E0= -.10555588E+04  EK= 0.71333E+01 SP= 0.00E+00 SK= 0.00E+00
   3398 T=   246. E= -.10485530E+04 F= -.10555155E+04 E0= -.10555155E+04  EK= 0.69625E+01 SP= 0.00E+00 SK= 0.00E+00
   3399 T=   251. E= -.10485691E+04 F= -.10556774E+04 E0= -.10556774E+04  EK= 0.71083E+01 SP= 0.00E+00 SK= 0.00E+00
   3400 T=   264. E= -.10484571E+04 F= -.10559349E+04 E0= -.10559349E+04  EK= 0.74778E+01 SP= 0.00E+00 SK= 0.00E+00
   3401 T=   269. E= -.10484515E+04 F= -.10560703E+04 E0= -.10560703E+04  EK= 0.76188E+01 SP= 0.00E+00 SK= 0.00E+00
   3402 T=   266. E= -.10484205E+04 F= -.10559577E+04 E0= -.10559577E+04  EK= 0.75372E+01 SP= 0.00E+00 SK= 0.00E+00
   3403 T=   261. E= -.10483387E+04 F= -.10557182E+04 E0= -.10557182E+04  EK= 0.73795E+01 SP= 0.00E+00 SK= 0.00E+00
   3404 T=   251. E= -.10483788E+04 F= -.10554929E+04 E0= -.10554929E+04  EK= 0.71141E+01 SP= 0.00E+00 SK= 0.00E+00
   3405 T=   247. E= -.10484848E+04 F= -.10554706E+04 E0= -.10554706E+04  EK= 0.69858E+01 SP= 0.00E+00 SK= 0.00E+00
   3406 T=   247. E= -.10486297E+04 F= -.10556280E+04 E0= -.10556280E+04  EK= 0.69983E+01 SP= 0.00E+00 SK= 0.00E+00
   3407 T=   251. E= -.10487524E+04 F= -.10558703E+04 E0= -.10558703E+04  EK= 0.71178E+01 SP= 0.00E+00 SK= 0.00E+00
   3408 T=   259. E= -.10487231E+04 F= -.10560618E+04 E0= -.10560618E+04  EK= 0.73387E+01 SP= 0.00E+00 SK= 0.00E+00
   3409 T=   261. E= -.10487093E+04 F= -.10560927E+04 E0= -.10560927E+04  EK= 0.73834E+01 SP= 0.00E+00 SK= 0.00E+00
   3410 T=   256. E= -.10487361E+04 F= -.10559833E+04 E0= -.10559833E+04  EK= 0.72471E+01 SP= 0.00E+00 SK= 0.00E+00
   3411 T=   251. E= -.10487188E+04 F= -.10558134E+04 E0= -.10558134E+04  EK= 0.70946E+01 SP= 0.00E+00 SK= 0.00E+00
   3412 T=   245. E= -.10487576E+04 F= -.10556845E+04 E0= -.10556845E+04  EK= 0.69269E+01 SP= 0.00E+00 SK= 0.00E+00
   3413 T=   247. E= -.10487441E+04 F= -.10557245E+04 E0= -.10557245E+04  EK= 0.69803E+01 SP= 0.00E+00 SK= 0.00E+00
   3414 T=   256. E= -.10486895E+04 F= -.10559330E+04 E0= -.10559330E+04  EK= 0.72435E+01 SP= 0.00E+00 SK= 0.00E+00
   3415 T=   263. E= -.10487150E+04 F= -.10561537E+04 E0= -.10561537E+04  EK= 0.74387E+01 SP= 0.00E+00 SK= 0.00E+00
   3416 T=   259. E= -.10488833E+04 F= -.10562106E+04 E0= -.10562106E+04  EK= 0.73274E+01 SP= 0.00E+00 SK= 0.00E+00
   3417 T=   255. E= -.10488804E+04 F= -.10560999E+04 E0= -.10560999E+04  EK= 0.72195E+01 SP= 0.00E+00 SK= 0.00E+00
   3418 T=   252. E= -.10487666E+04 F= -.10558955E+04 E0= -.10558955E+04  EK= 0.71289E+01 SP= 0.00E+00 SK= 0.00E+00
   3419 T=   248. E= -.10487109E+04 F= -.10557412E+04 E0= -.10557412E+04  EK= 0.70303E+01 SP= 0.00E+00 SK= 0.00E+00
   3420 T=   252. E= -.10486556E+04 F= -.10557847E+04 E0= -.10557847E+04  EK= 0.71291E+01 SP= 0.00E+00 SK= 0.00E+00
   3421 T=   256. E= -.10487014E+04 F= -.10559512E+04 E0= -.10559512E+04  EK= 0.72499E+01 SP= 0.00E+00 SK= 0.00E+00
   3422 T=   265. E= -.10486616E+04 F= -.10561594E+04 E0= -.10561594E+04  EK= 0.74979E+01 SP= 0.00E+00 SK= 0.00E+00
   3423 T=   274. E= -.10485093E+04 F= -.10562693E+04 E0= -.10562693E+04  EK= 0.77599E+01 SP= 0.00E+00 SK= 0.00E+00
   3424 T=   276. E= -.10484371E+04 F= -.10562503E+04 E0= -.10562503E+04  EK= 0.78132E+01 SP= 0.00E+00 SK= 0.00E+00
       N       E                     dE             d eps       ncg     rms          rms(c)
DAV:   1    -0.949809216572E+03    0.90711E+02   -0.17276E+04 20644   0.237E+02
DAV:   2    -0.104399011076E+04   -0.94181E+02   -0.94042E+02 24832   0.486E+01
DAV:   3    -0.104502922520E+04   -0.10391E+01   -0.10389E+01 25000   0.565E+00
DAV:   4    -0.104504676970E+04   -0.17545E-01   -0.17542E-01 24760   0.727E-01    0.241E+01
DAV:   5    -0.104091640588E+04    0.41304E+01   -0.65066E+00 25264   0.615E+00    0.138E+01
DAV:   6    -0.104076878807E+04    0.14762E+00   -0.88578E+00 25144   0.631E+00    0.283E+00
DAV:   7    -0.104090139284E+04   -0.13260E+00   -0.14268E+00 24168   0.257E+00    0.129E+00
DAV:   8    -0.104090634879E+04   -0.49559E-02   -0.12378E-01 24360   0.687E-01    0.718E-01
DAV:   9    -0.104090409525E+04    0.22535E-02   -0.53387E-02 24224   0.616E-01    0.411E-01
DAV:  10    -0.104090095033E+04    0.31449E-02   -0.12488E-02 23832   0.327E-01    0.169E-01
DAV:  11    -0.104090042499E+04    0.52535E-03   -0.84245E-03 24696   0.202E-01    0.914E-02
DAV:  12    -0.104089984145E+04    0.58354E-03   -0.81072E-04 23320   0.895E-02    0.483E-02
DAV:  13    -0.104089950580E+04    0.33565E-03   -0.67761E-04 22920   0.880E-02    0.345E-02
DAV:  14    -0.104089938542E+04    0.12037E-03   -0.22084E-04 17560   0.634E-02    0.230E-02
DAV:  15    -0.104089938363E+04    0.17926E-05   -0.23831E-04 19368   0.344E-02
   3425 T=   274. E= -.10483374E+04 F= -.10561004E+04 E0= -.10561004E+04  EK= 0.77631E+01 SP= 0.00E+00 SK= 0.00E+00
   3426 T=   269. E= -.10484860E+04 F= -.10560913E+04 E0= -.10560913E+04  EK= 0.76054E+01 SP= 0.00E+00 SK= 0.00E+00
   3427 T=   263. E= -.10485537E+04 F= -.10559998E+04 E0= -.10559998E+04  EK= 0.74461E+01 SP= 0.00E+00 SK= 0.00E+00
   3428 T=   263. E= -.10485334E+04 F= -.10559717E+04 E0= -.10559717E+04  EK= 0.74383E+01 SP= 0.00E+00 SK= 0.00E+00
   3429 T=   265. E= -.10485006E+04 F= -.10560008E+04 E0= -.10560008E+04  EK= 0.75002E+01 SP= 0.00E+00 SK= 0.00E+00
   3430 T=   269. E= -.10484567E+04 F= -.10560836E+04 E0= -.10560836E+04  EK= 0.76270E+01 SP= 0.00E+00 SK= 0.00E+00
   3431 T=   267. E= -.10485277E+04 F= -.10560936E+04 E0= -.10560936E+04  EK= 0.75660E+01 SP= 0.00E+00 SK= 0.00E+00
   3432 T=   263. E= -.10484838E+04 F= -.10559298E+04 E0= -.10559298E+04  EK= 0.74460E+01 SP= 0.00E+00 SK= 0.00E+00
   3433 T=   261. E= -.10483370E+04 F= -.10557315E+04 E0= -.10557315E+04  EK= 0.73946E+01 SP= 0.00E+00 SK= 0.00E+00
   3434 T=   256. E= -.10483471E+04 F= -.10555951E+04 E0= -.10555951E+04  EK= 0.72480E+01 SP= 0.00E+00 SK= 0.00E+00
   3435 T=   257. E= -.10483254E+04 F= -.10556058E+04 E0= -.10556058E+04  EK= 0.72804E+01 SP= 0.00E+00 SK= 0.00E+00
   3436 T=   261. E= -.10482928E+04 F= -.10556700E+04 E0= -.10556700E+04  EK= 0.73773E+01 SP= 0.00E+00 SK= 0.00E+00
   3437 T=   264. E= -.10482952E+04 F= -.10557757E+04 E0= -.10557757E+04  EK= 0.74805E+01 SP= 0.00E+00 SK= 0.00E+00
   3438 T=   264. E= -.10483181E+04 F= -.10558044E+04 E0= -.10558044E+04  EK= 0.74863E+01 SP= 0.00E+00 SK= 0.00E+00
   3439 T=   264. E= -.10482521E+04 F= -.10557379E+04 E0= -.10557379E+04  EK= 0.74858E+01 SP= 0.00E+00 SK= 0.00E+00
   3440 T=   267. E= -.10481497E+04 F= -.10557051E+04 E0= -.10557051E+04  EK= 0.75554E+01 SP= 0.00E+00 SK= 0.00E+00
   3441 T=   273. E= -.10480391E+04 F= -.10557604E+04 E0= -.10557604E+04  EK= 0.77214E+01 SP= 0.00E+00 SK= 0.00E+00
   3442 T=   278. E= -.10479705E+04 F= -.10558287E+04 E0= -.10558287E+04  EK= 0.78582E+01 SP= 0.00E+00 SK= 0.00E+00
   3443 T=   281. E= -.10479335E+04 F= -.10558771E+04 E0= -.10558771E+04  EK= 0.79436E+01 SP= 0.00E+00 SK= 0.00E+00
   3444 T=   286. E= -.10478357E+04 F= -.10559336E+04 E0= -.10559336E+04  EK= 0.80979E+01 SP= 0.00E+00 SK= 0.00E+00
   3445 T=   292. E= -.10477490E+04 F= -.10560030E+04 E0= -.10560030E+04  EK= 0.82540E+01 SP= 0.00E+00 SK= 0.00E+00
   3446 T=   294. E= -.10476859E+04 F= -.10560181E+04 E0= -.10560181E+04  EK= 0.83322E+01 SP= 0.00E+00 SK= 0.00E+00
   3447 T=   291. E= -.10477180E+04 F= -.10559590E+04 E0= -.10559590E+04  EK= 0.82409E+01 SP= 0.00E+00 SK= 0.00E+00
   3448 T=   287. E= -.10477556E+04 F= -.10558755E+04 E0= -.10558755E+04  EK= 0.81199E+01 SP= 0.00E+00 SK= 0.00E+00
   3449 T=   284. E= -.10478739E+04 F= -.10559207E+04 E0= -.10559207E+04  EK= 0.80468E+01 SP= 0.00E+00 SK= 0.00E+00
   3450 T=   281. E= -.10480677E+04 F= -.10560144E+04 E0= -.10560144E+04  EK= 0.79467E+01 SP= 0.00E+00 SK= 0.00E+00
   3451 T=   279. E= -.10481824E+04 F= -.10560914E+04 E0= -.10560914E+04  EK= 0.79091E+01 SP= 0.00E+00 SK= 0.00E+00
   3452 T=   277. E= -.10481774E+04 F= -.10560217E+04 E0= -.10560217E+04  EK= 0.78443E+01 SP= 0.00E+00 SK= 0.00E+00
   3453 T=   271. E= -.10481460E+04 F= -.10558185E+04 E0= -.10558185E+04  EK= 0.76725E+01 SP= 0.00E+00 SK= 0.00E+00
   3454 T=   265. E= -.10480884E+04 F= -.10555992E+04 E0= -.10555992E+04  EK= 0.75108E+01 SP= 0.00E+00 SK= 0.00E+00
   3455 T=   268. E= -.10479410E+04 F= -.10555352E+04 E0= -.10555352E+04  EK= 0.75943E+01 SP= 0.00E+00 SK= 0.00E+00
   3456 T=   273. E= -.10479082E+04 F= -.10556433E+04 E0= -.10556433E+04  EK= 0.77350E+01 SP= 0.00E+00 SK= 0.00E+00
   3457 T=   279. E= -.10479299E+04 F= -.10558245E+04 E0= -.10558245E+04  EK= 0.78945E+01 SP= 0.00E+00 SK= 0.00E+00
   3458 T=   279. E= -.10479549E+04 F= -.10558470E+04 E0= -.10558470E+04  EK= 0.78921E+01 SP= 0.00E+00 SK= 0.00E+00
   3459 T=   267. E= -.10481192E+04 F= -.10556776E+04 E0= -.10556776E+04  EK= 0.75584E+01 SP= 0.00E+00 SK= 0.00E+00
   3460 T=   253. E= -.10482430E+04 F= -.10553991E+04 E0= -.10553991E+04  EK= 0.71561E+01 SP= 0.00E+00 SK= 0.00E+00
   3461 T=   244. E= -.10482264E+04 F= -.10551217E+04 E0= -.10551217E+04  EK= 0.68953E+01 SP= 0.00E+00 SK= 0.00E+00
   3462 T=   241. E= -.10481739E+04 F= -.10549926E+04 E0= -.10549926E+04  EK= 0.68187E+01 SP= 0.00E+00 SK= 0.00E+00
   3463 T=   248. E= -.10480898E+04 F= -.10551118E+04 E0= -.10551118E+04  EK= 0.70220E+01 SP= 0.00E+00 SK= 0.00E+00
   3464 T=   260. E= -.10479834E+04 F= -.10553332E+04 E0= -.10553332E+04  EK= 0.73497E+01 SP= 0.00E+00 SK= 0.00E+00
   3465 T=   269. E= -.10478824E+04 F= -.10554974E+04 E0= -.10554974E+04  EK= 0.76151E+01 SP= 0.00E+00 SK= 0.00E+00
   3466 T=   271. E= -.10478254E+04 F= -.10554953E+04 E0= -.10554953E+04  EK= 0.76699E+01 SP= 0.00E+00 SK= 0.00E+00
   3467 T=   262. E= -.10478900E+04 F= -.10553150E+04 E0= -.10553150E+04  EK= 0.74250E+01 SP= 0.00E+00 SK= 0.00E+00
   3468 T=   256. E= -.10478630E+04 F= -.10551216E+04 E0= -.10551216E+04  EK= 0.72586E+01 SP= 0.00E+00 SK= 0.00E+00
   3469 T=   257. E= -.10477851E+04 F= -.10550545E+04 E0= -.10550545E+04  EK= 0.72694E+01 SP= 0.00E+00 SK= 0.00E+00
   3470 T=   264. E= -.10477902E+04 F= -.10552500E+04 E0= -.10552500E+04  EK= 0.74598E+01 SP= 0.00E+00 SK= 0.00E+00
   3471 T=   277. E= -.10477559E+04 F= -.10555874E+04 E0= -.10555874E+04  EK= 0.78315E+01 SP= 0.00E+00 SK= 0.00E+00
   3472 T=   291. E= -.10477239E+04 F= -.10559610E+04 E0= -.10559610E+04  EK= 0.82371E+01 SP= 0.00E+00 SK= 0.00E+00
   3473 T=   295. E= -.10477914E+04 F= -.10561559E+04 E0= -.10561559E+04  EK= 0.83645E+01 SP= 0.00E+00 SK= 0.00E+00
   3474 T=   290. E= -.10478449E+04 F= -.10560632E+04 E0= -.10560632E+04  EK= 0.82183E+01 SP= 0.00E+00 SK= 0.00E+00
   3475 T=   281. E= -.10478740E+04 F= -.10558339E+04 E0= -.10558339E+04  EK= 0.79600E+01 SP= 0.00E+00 SK= 0.00E+00
   3476 T=   273. E= -.10478963E+04 F= -.10556332E+04 E0= -.10556332E+04  EK= 0.77369E+01 SP= 0.00E+00 SK= 0.00E+00
   3477 T=   273. E= -.10479062E+04 F= -.10556294E+04 E0= -.10556294E+04  EK= 0.77232E+01 SP= 0.00E+00 SK= 0.00E+00
   3478 T=   278. E= -.10479113E+04 F= -.10557930E+04 E0= -.10557930E+04  EK= 0.78817E+01 SP= 0.00E+00 SK= 0.00E+00
   3479 T=   287. E= -.10479002E+04 F= -.10560192E+04 E0= -.10560192E+04  EK= 0.81190E+01 SP= 0.00E+00 SK= 0.00E+00
   3480 T=   291. E= -.10478848E+04 F= -.10561219E+04 E0= -.10561219E+04  EK= 0.82371E+01 SP= 0.00E+00 SK= 0.00E+00
   3481 T=   288. E= -.10479470E+04 F= -.10560859E+04 E0= -.10560859E+04  EK= 0.81389E+01 SP= 0.00E+00 SK= 0.00E+00
   3482 T=   277. E= -.10480911E+04 F= -.10559217E+04 E0= -.10559217E+04  EK= 0.78305E+01 SP= 0.00E+00 SK= 0.00E+00
   3483 T=   271. E= -.10480681E+04 F= -.10557415E+04 E0= -.10557415E+04  EK= 0.76734E+01 SP= 0.00E+00 SK= 0.00E+00
   3484 T=   269. E= -.10480183E+04 F= -.10556339E+04 E0= -.10556339E+04  EK= 0.76156E+01 SP= 0.00E+00 SK= 0.00E+00
   3485 T=   273. E= -.10479432E+04 F= -.10556582E+04 E0= -.10556582E+04  EK= 0.77149E+01 SP= 0.00E+00 SK= 0.00E+00
   3486 T=   282. E= -.10478225E+04 F= -.10558121E+04 E0= -.10558121E+04  EK= 0.79896E+01 SP= 0.00E+00 SK= 0.00E+00
   3487 T=   288. E= -.10478217E+04 F= -.10559656E+04 E0= -.10559656E+04  EK= 0.81439E+01 SP= 0.00E+00 SK= 0.00E+00
   3488 T=   287. E= -.10478806E+04 F= -.10560127E+04 E0= -.10560127E+04  EK= 0.81320E+01 SP= 0.00E+00 SK= 0.00E+00
   3489 T=   281. E= -.10479474E+04 F= -.10558946E+04 E0= -.10558946E+04  EK= 0.79472E+01 SP= 0.00E+00 SK= 0.00E+00
   3490 T=   276. E= -.10478345E+04 F= -.10556543E+04 E0= -.10556543E+04  EK= 0.78197E+01 SP= 0.00E+00 SK= 0.00E+00
   3491 T=   267. E= -.10477815E+04 F= -.10553359E+04 E0= -.10553359E+04  EK= 0.75544E+01 SP= 0.00E+00 SK= 0.00E+00
   3492 T=   258. E= -.10478086E+04 F= -.10551223E+04 E0= -.10551223E+04  EK= 0.73138E+01 SP= 0.00E+00 SK= 0.00E+00
   3493 T=   260. E= -.10477045E+04 F= -.10550662E+04 E0= -.10550662E+04  EK= 0.73618E+01 SP= 0.00E+00 SK= 0.00E+00
   3494 T=   262. E= -.10476617E+04 F= -.10550848E+04 E0= -.10550848E+04  EK= 0.74232E+01 SP= 0.00E+00 SK= 0.00E+00
   3495 T=   262. E= -.10477215E+04 F= -.10551408E+04 E0= -.10551408E+04  EK= 0.74193E+01 SP= 0.00E+00 SK= 0.00E+00
   3496 T=   265. E= -.10477153E+04 F= -.10552125E+04 E0= -.10552125E+04  EK= 0.74972E+01 SP= 0.00E+00 SK= 0.00E+00
   3497 T=   270. E= -.10476040E+04 F= -.10552390E+04 E0= -.10552390E+04  EK= 0.76350E+01 SP= 0.00E+00 SK= 0.00E+00
   3498 T=   272. E= -.10475178E+04 F= -.10552300E+04 E0= -.10552300E+04  EK= 0.77123E+01 SP= 0.00E+00 SK= 0.00E+00
   3499 T=   271. E= -.10475005E+04 F= -.10551774E+04 E0= -.10551774E+04  EK= 0.76769E+01 SP= 0.00E+00 SK= 0.00E+00
   3500 T=   266. E= -.10475939E+04 F= -.10551183E+04 E0= -.10551183E+04  EK= 0.75244E+01 SP= 0.00E+00 SK= 0.00E+00
   3501 T=   263. E= -.10476600E+04 F= -.10550916E+04 E0= -.10550916E+04  EK= 0.74316E+01 SP= 0.00E+00 SK= 0.00E+00
   3502 T=   266. E= -.10476366E+04 F= -.10551659E+04 E0= -.10551659E+04  EK= 0.75293E+01 SP= 0.00E+00 SK= 0.00E+00
   3503 T=   271. E= -.10476037E+04 F= -.10552682E+04 E0= -.10552682E+04  EK= 0.76645E+01 SP= 0.00E+00 SK= 0.00E+00
   3504 T=   276. E= -.10475636E+04 F= -.10553867E+04 E0= -.10553867E+04  EK= 0.78232E+01 SP= 0.00E+00 SK= 0.00E+00
   3505 T=   277. E= -.10476268E+04 F= -.10554649E+04 E0= -.10554649E+04  EK= 0.78381E+01 SP= 0.00E+00 SK= 0.00E+00
   3506 T=   273. E= -.10477135E+04 F= -.10554518E+04 E0= -.10554518E+04  EK= 0.77382E+01 SP= 0.00E+00 SK= 0.00E+00
   3507 T=   271. E= -.10477509E+04 F= -.10554136E+04 E0= -.10554136E+04  EK= 0.76627E+01 SP= 0.00E+00 SK= 0.00E+00
   3508 T=   269. E= -.10477004E+04 F= -.10553286E+04 E0= -.10553286E+04  EK= 0.76282E+01 SP= 0.00E+00 SK= 0.00E+00
   3509 T=   268. E= -.10476471E+04 F= -.10552462E+04 E0= -.10552462E+04  EK= 0.75991E+01 SP= 0.00E+00 SK= 0.00E+00
   3510 T=   264. E= -.10477439E+04 F= -.10552077E+04 E0= -.10552077E+04  EK= 0.74638E+01 SP= 0.00E+00 SK= 0.00E+00
   3511 T=   262. E= -.10478243E+04 F= -.10552522E+04 E0= -.10552522E+04  EK= 0.74279E+01 SP= 0.00E+00 SK= 0.00E+00
   3512 T=   267. E= -.10477986E+04 F= -.10553447E+04 E0= -.10553447E+04  EK= 0.75461E+01 SP= 0.00E+00 SK= 0.00E+00
   3513 T=   273. E= -.10477633E+04 F= -.10554895E+04 E0= -.10554895E+04  EK= 0.77262E+01 SP= 0.00E+00 SK= 0.00E+00
   3514 T=   278. E= -.10477932E+04 F= -.10556672E+04 E0= -.10556672E+04  EK= 0.78739E+01 SP= 0.00E+00 SK= 0.00E+00
   3515 T=   277. E= -.10479034E+04 F= -.10557585E+04 E0= -.10557585E+04  EK= 0.78551E+01 SP= 0.00E+00 SK= 0.00E+00
   3516 T=   274. E= -.10479843E+04 F= -.10557299E+04 E0= -.10557299E+04  EK= 0.77456E+01 SP= 0.00E+00 SK= 0.00E+00
   3517 T=   272. E= -.10479933E+04 F= -.10556947E+04 E0= -.10556947E+04  EK= 0.77014E+01 SP= 0.00E+00 SK= 0.00E+00
   3518 T=   271. E= -.10480445E+04 F= -.10557261E+04 E0= -.10557261E+04  EK= 0.76816E+01 SP= 0.00E+00 SK= 0.00E+00
   3519 T=   278. E= -.10480425E+04 F= -.10559094E+04 E0= -.10559094E+04  EK= 0.78670E+01 SP= 0.00E+00 SK= 0.00E+00
   3520 T=   289. E= -.10479925E+04 F= -.10561832E+04 E0= -.10561832E+04  EK= 0.81908E+01 SP= 0.00E+00 SK= 0.00E+00
   3521 T=   299. E= -.10479183E+04 F= -.10563806E+04 E0= -.10563806E+04  EK= 0.84623E+01 SP= 0.00E+00 SK= 0.00E+00
   3522 T=   301. E= -.10478671E+04 F= -.10563822E+04 E0= -.10563822E+04  EK= 0.85151E+01 SP= 0.00E+00 SK= 0.00E+00
   3523 T=   296. E= -.10478373E+04 F= -.10562123E+04 E0= -.10562123E+04  EK= 0.83750E+01 SP= 0.00E+00 SK= 0.00E+00
   3524 T=   290. E= -.10477866E+04 F= -.10560056E+04 E0= -.10560056E+04  EK= 0.82190E+01 SP= 0.00E+00 SK= 0.00E+00
   3525 T=   280. E= -.10479376E+04 F= -.10558773E+04 E0= -.10558773E+04  EK= 0.79397E+01 SP= 0.00E+00 SK= 0.00E+00
   3526 T=   273. E= -.10482176E+04 F= -.10559495E+04 E0= -.10559495E+04  EK= 0.77319E+01 SP= 0.00E+00 SK= 0.00E+00
   3527 T=   271. E= -.10484451E+04 F= -.10561294E+04 E0= -.10561294E+04  EK= 0.76842E+01 SP= 0.00E+00 SK= 0.00E+00
   3528 T=   273. E= -.10485304E+04 F= -.10562686E+04 E0= -.10562686E+04  EK= 0.77381E+01 SP= 0.00E+00 SK= 0.00E+00
   3529 T=   272. E= -.10486041E+04 F= -.10562924E+04 E0= -.10562924E+04  EK= 0.76883E+01 SP= 0.00E+00 SK= 0.00E+00
   3530 T=   269. E= -.10486070E+04 F= -.10562185E+04 E0= -.10562185E+04  EK= 0.76115E+01 SP= 0.00E+00 SK= 0.00E+00
   3531 T=   265. E= -.10485524E+04 F= -.10560667E+04 E0= -.10560667E+04  EK= 0.75143E+01 SP= 0.00E+00 SK= 0.00E+00
   3532 T=   257. E= -.10486581E+04 F= -.10559314E+04 E0= -.10559314E+04  EK= 0.72733E+01 SP= 0.00E+00 SK= 0.00E+00
   3533 T=   255. E= -.10486836E+04 F= -.10558890E+04 E0= -.10558890E+04  EK= 0.72054E+01 SP= 0.00E+00 SK= 0.00E+00
   3534 T=   258. E= -.10486461E+04 F= -.10559559E+04 E0= -.10559559E+04  EK= 0.73098E+01 SP= 0.00E+00 SK= 0.00E+00
   3535 T=   264. E= -.10485740E+04 F= -.10560593E+04 E0= -.10560593E+04  EK= 0.74853E+01 SP= 0.00E+00 SK= 0.00E+00
   3536 T=   269. E= -.10484347E+04 F= -.10560631E+04 E0= -.10560631E+04  EK= 0.76284E+01 SP= 0.00E+00 SK= 0.00E+00
   3537 T=   265. E= -.10484107E+04 F= -.10559195E+04 E0= -.10559195E+04  EK= 0.75088E+01 SP= 0.00E+00 SK= 0.00E+00
   3538 T=   258. E= -.10484538E+04 F= -.10557601E+04 E0= -.10557601E+04  EK= 0.73063E+01 SP= 0.00E+00 SK= 0.00E+00
   3539 T=   258. E= -.10483871E+04 F= -.10556834E+04 E0= -.10556834E+04  EK= 0.72963E+01 SP= 0.00E+00 SK= 0.00E+00
   3540 T=   262. E= -.10482683E+04 F= -.10556710E+04 E0= -.10556710E+04  EK= 0.74027E+01 SP= 0.00E+00 SK= 0.00E+00
   3541 T=   268. E= -.10481009E+04 F= -.10556844E+04 E0= -.10556844E+04  EK= 0.75835E+01 SP= 0.00E+00 SK= 0.00E+00
   3542 T=   274. E= -.10479607E+04 F= -.10557132E+04 E0= -.10557132E+04  EK= 0.77526E+01 SP= 0.00E+00 SK= 0.00E+00
   3543 T=   271. E= -.10480114E+04 F= -.10556855E+04 E0= -.10556855E+04  EK= 0.76741E+01 SP= 0.00E+00 SK= 0.00E+00
   3544 T=   266. E= -.10481146E+04 F= -.10556478E+04 E0= -.10556478E+04  EK= 0.75332E+01 SP= 0.00E+00 SK= 0.00E+00
   3545 T=   266. E= -.10481536E+04 F= -.10556742E+04 E0= -.10556742E+04  EK= 0.75206E+01 SP= 0.00E+00 SK= 0.00E+00
   3546 T=   266. E= -.10481852E+04 F= -.10557215E+04 E0= -.10557215E+04  EK= 0.75363E+01 SP= 0.00E+00 SK= 0.00E+00
   3547 T=   265. E= -.10483033E+04 F= -.10557985E+04 E0= -.10557985E+04  EK= 0.74952E+01 SP= 0.00E+00 SK= 0.00E+00
   3548 T=   262. E= -.10483741E+04 F= -.10558017E+04 E0= -.10558017E+04  EK= 0.74276E+01 SP= 0.00E+00 SK= 0.00E+00
   3549 T=   263. E= -.10483511E+04 F= -.10557911E+04 E0= -.10557911E+04  EK= 0.74400E+01 SP= 0.00E+00 SK= 0.00E+00
   3550 T=   266. E= -.10482491E+04 F= -.10557733E+04 E0= -.10557733E+04  EK= 0.75242E+01 SP= 0.00E+00 SK= 0.00E+00
   3551 T=   265. E= -.10481828E+04 F= -.10556735E+04 E0= -.10556735E+04  EK= 0.74907E+01 SP= 0.00E+00 SK= 0.00E+00
   3552 T=   262. E= -.10482012E+04 F= -.10556168E+04 E0= -.10556168E+04  EK= 0.74156E+01 SP= 0.00E+00 SK= 0.00E+00
   3553 T=   258. E= -.10483407E+04 F= -.10556466E+04 E0= -.10556466E+04  EK= 0.73059E+01 SP= 0.00E+00 SK= 0.00E+00
   3554 T=   259. E= -.10484544E+04 F= -.10557943E+04 E0= -.10557943E+04  EK= 0.73399E+01 SP= 0.00E+00 SK= 0.00E+00
   3555 T=   262. E= -.10485563E+04 F= -.10559629E+04 E0= -.10559629E+04  EK= 0.74066E+01 SP= 0.00E+00 SK= 0.00E+00
   3556 T=   262. E= -.10486664E+04 F= -.10560743E+04 E0= -.10560743E+04  EK= 0.74080E+01 SP= 0.00E+00 SK= 0.00E+00
   3557 T=   260. E= -.10486686E+04 F= -.10560230E+04 E0= -.10560230E+04  EK= 0.73544E+01 SP= 0.00E+00 SK= 0.00E+00
   3558 T=   254. E= -.10486544E+04 F= -.10558548E+04 E0= -.10558548E+04  EK= 0.72004E+01 SP= 0.00E+00 SK= 0.00E+00
   3559 T=   247. E= -.10486747E+04 F= -.10556615E+04 E0= -.10556615E+04  EK= 0.69867E+01 SP= 0.00E+00 SK= 0.00E+00
   3560 T=   244. E= -.10486863E+04 F= -.10555831E+04 E0= -.10555831E+04  EK= 0.68968E+01 SP= 0.00E+00 SK= 0.00E+00
   3561 T=   246. E= -.10486562E+04 F= -.10556320E+04 E0= -.10556320E+04  EK= 0.69758E+01 SP= 0.00E+00 SK= 0.00E+00
   3562 T=   250. E= -.10486942E+04 F= -.10557842E+04 E0= -.10557842E+04  EK= 0.70900E+01 SP= 0.00E+00 SK= 0.00E+00
   3563 T=   255. E= -.10487268E+04 F= -.10559501E+04 E0= -.10559501E+04  EK= 0.72233E+01 SP= 0.00E+00 SK= 0.00E+00
   3564 T=   258. E= -.10487567E+04 F= -.10560556E+04 E0= -.10560556E+04  EK= 0.72989E+01 SP= 0.00E+00 SK= 0.00E+00
   3565 T=   254. E= -.10488379E+04 F= -.10560169E+04 E0= -.10560169E+04  EK= 0.71790E+01 SP= 0.00E+00 SK= 0.00E+00
   3566 T=   248. E= -.10488567E+04 F= -.10558678E+04 E0= -.10558678E+04  EK= 0.70111E+01 SP= 0.00E+00 SK= 0.00E+00
   3567 T=   242. E= -.10488839E+04 F= -.10557301E+04 E0= -.10557301E+04  EK= 0.68462E+01 SP= 0.00E+00 SK= 0.00E+00
   3568 T=   239. E= -.10489868E+04 F= -.10557566E+04 E0= -.10557566E+04  EK= 0.67698E+01 SP= 0.00E+00 SK= 0.00E+00
   3569 T=   248. E= -.10489531E+04 F= -.10559699E+04 E0= -.10559699E+04  EK= 0.70168E+01 SP= 0.00E+00 SK= 0.00E+00
   3570 T=   259. E= -.10488557E+04 F= -.10561960E+04 E0= -.10561960E+04  EK= 0.73404E+01 SP= 0.00E+00 SK= 0.00E+00
   3571 T=   262. E= -.10489705E+04 F= -.10563942E+04 E0= -.10563942E+04  EK= 0.74237E+01 SP= 0.00E+00 SK= 0.00E+00
   3572 T=   258. E= -.10491502E+04 F= -.10564580E+04 E0= -.10564580E+04  EK= 0.73078E+01 SP= 0.00E+00 SK= 0.00E+00
   3573 T=   253. E= -.10491827E+04 F= -.10563401E+04 E0= -.10563401E+04  EK= 0.71574E+01 SP= 0.00E+00 SK= 0.00E+00
   3574 T=   249. E= -.10491053E+04 F= -.10561608E+04 E0= -.10561608E+04  EK= 0.70555E+01 SP= 0.00E+00 SK= 0.00E+00
   3575 T=   248. E= -.10490241E+04 F= -.10560370E+04 E0= -.10560370E+04  EK= 0.70130E+01 SP= 0.00E+00 SK= 0.00E+00
   3576 T=   251. E= -.10490232E+04 F= -.10561246E+04 E0= -.10561246E+04  EK= 0.71014E+01 SP= 0.00E+00 SK= 0.00E+00
   3577 T=   258. E= -.10490458E+04 F= -.10563511E+04 E0= -.10563511E+04  EK= 0.73053E+01 SP= 0.00E+00 SK= 0.00E+00
   3578 T=   262. E= -.10491575E+04 F= -.10565688E+04 E0= -.10565688E+04  EK= 0.74113E+01 SP= 0.00E+00 SK= 0.00E+00
   3579 T=   260. E= -.10493295E+04 F= -.10566796E+04 E0= -.10566796E+04  EK= 0.73502E+01 SP= 0.00E+00 SK= 0.00E+00
   3580 T=   256. E= -.10493499E+04 F= -.10565827E+04 E0= -.10565827E+04  EK= 0.72327E+01 SP= 0.00E+00 SK= 0.00E+00
   3581 T=   251. E= -.10493248E+04 F= -.10564185E+04 E0= -.10564185E+04  EK= 0.70937E+01 SP= 0.00E+00 SK= 0.00E+00
   3582 T=   247. E= -.10493269E+04 F= -.10563176E+04 E0= -.10563176E+04  EK= 0.69907E+01 SP= 0.00E+00 SK= 0.00E+00
   3583 T=   248. E= -.10493049E+04 F= -.10563267E+04 E0= -.10563267E+04  EK= 0.70219E+01 SP= 0.00E+00 SK= 0.00E+00
   3584 T=   250. E= -.10493336E+04 F= -.10564060E+04 E0= -.10564060E+04  EK= 0.70724E+01 SP= 0.00E+00 SK= 0.00E+00
   3585 T=   253. E= -.10493708E+04 F= -.10565408E+04 E0= -.10565408E+04  EK= 0.71700E+01 SP= 0.00E+00 SK= 0.00E+00
   3586 T=   252. E= -.10495221E+04 F= -.10566529E+04 E0= -.10566529E+04  EK= 0.71307E+01 SP= 0.00E+00 SK= 0.00E+00
   3587 T=   248. E= -.10496665E+04 F= -.10566822E+04 E0= -.10566822E+04  EK= 0.70158E+01 SP= 0.00E+00 SK= 0.00E+00
   3588 T=   246. E= -.10496694E+04 F= -.10566454E+04 E0= -.10566454E+04  EK= 0.69759E+01 SP= 0.00E+00 SK= 0.00E+00
   3589 T=   240. E= -.10497393E+04 F= -.10565453E+04 E0= -.10565453E+04  EK= 0.68060E+01 SP= 0.00E+00 SK= 0.00E+00
   3590 T=   231. E= -.10499136E+04 F= -.10564467E+04 E0= -.10564467E+04  EK= 0.65331E+01 SP= 0.00E+00 SK= 0.00E+00
   3591 T=   224. E= -.10500598E+04 F= -.10564024E+04 E0= -.10564024E+04  EK= 0.63426E+01 SP= 0.00E+00 SK= 0.00E+00
   3592 T=   221. E= -.10501569E+04 F= -.10564144E+04 E0= -.10564144E+04  EK= 0.62575E+01 SP= 0.00E+00 SK= 0.00E+00
   3593 T=   224. E= -.10501700E+04 F= -.10565082E+04 E0= -.10565082E+04  EK= 0.63381E+01 SP= 0.00E+00 SK= 0.00E+00
   3594 T=   225. E= -.10502075E+04 F= -.10565832E+04 E0= -.10565832E+04  EK= 0.63757E+01 SP= 0.00E+00 SK= 0.00E+00
   3595 T=   227. E= -.10502204E+04 F= -.10566450E+04 E0= -.10566450E+04  EK= 0.64245E+01 SP= 0.00E+00 SK= 0.00E+00
   3596 T=   235. E= -.10500373E+04 F= -.10566882E+04 E0= -.10566882E+04  EK= 0.66509E+01 SP= 0.00E+00 SK= 0.00E+00
   3597 T=   239. E= -.10499070E+04 F= -.10566643E+04 E0= -.10566643E+04  EK= 0.67573E+01 SP= 0.00E+00 SK= 0.00E+00
   3598 T=   235. E= -.10499578E+04 F= -.10565969E+04 E0= -.10565969E+04  EK= 0.66390E+01 SP= 0.00E+00 SK= 0.00E+00
   3599 T=   231. E= -.10499759E+04 F= -.10565285E+04 E0= -.10565285E+04  EK= 0.65526E+01 SP= 0.00E+00 SK= 0.00E+00
   3600 T=   232. E= -.10499649E+04 F= -.10565274E+04 E0= -.10565274E+04  EK= 0.65625E+01 SP= 0.00E+00 SK= 0.00E+00
   3601 T=   234. E= -.10500094E+04 F= -.10566265E+04 E0= -.10566265E+04  EK= 0.66172E+01 SP= 0.00E+00 SK= 0.00E+00
   3602 T=   239. E= -.10500626E+04 F= -.10568219E+04 E0= -.10568219E+04  EK= 0.67593E+01 SP= 0.00E+00 SK= 0.00E+00
   3603 T=   248. E= -.10499588E+04 F= -.10569653E+04 E0= -.10569653E+04  EK= 0.70065E+01 SP= 0.00E+00 SK= 0.00E+00
   3604 T=   251. E= -.10498716E+04 F= -.10569791E+04 E0= -.10569791E+04  EK= 0.71075E+01 SP= 0.00E+00 SK= 0.00E+00
   3605 T=   246. E= -.10498523E+04 F= -.10568155E+04 E0= -.10568155E+04  EK= 0.69632E+01 SP= 0.00E+00 SK= 0.00E+00
   3606 T=   241. E= -.10498157E+04 F= -.10566338E+04 E0= -.10566338E+04  EK= 0.68181E+01 SP= 0.00E+00 SK= 0.00E+00
   3607 T=   236. E= -.10498854E+04 F= -.10565745E+04 E0= -.10565745E+04  EK= 0.66891E+01 SP= 0.00E+00 SK= 0.00E+00
   3608 T=   239. E= -.10498506E+04 F= -.10566287E+04 E0= -.10566287E+04  EK= 0.67781E+01 SP= 0.00E+00 SK= 0.00E+00
   3609 T=   249. E= -.10496902E+04 F= -.10567529E+04 E0= -.10567529E+04  EK= 0.70628E+01 SP= 0.00E+00 SK= 0.00E+00
   3610 T=   255. E= -.10496564E+04 F= -.10568726E+04 E0= -.10568726E+04  EK= 0.72162E+01 SP= 0.00E+00 SK= 0.00E+00
   3611 T=   254. E= -.10497527E+04 F= -.10569499E+04 E0= -.10569499E+04  EK= 0.71972E+01 SP= 0.00E+00 SK= 0.00E+00
   3612 T=   253. E= -.10497665E+04 F= -.10569424E+04 E0= -.10569424E+04  EK= 0.71759E+01 SP= 0.00E+00 SK= 0.00E+00
   3613 T=   249. E= -.10498244E+04 F= -.10568734E+04 E0= -.10568734E+04  EK= 0.70489E+01 SP= 0.00E+00 SK= 0.00E+00
   3614 T=   243. E= -.10499403E+04 F= -.10568261E+04 E0= -.10568261E+04  EK= 0.68858E+01 SP= 0.00E+00 SK= 0.00E+00
   3615 T=   245. E= -.10499801E+04 F= -.10569217E+04 E0= -.10569217E+04  EK= 0.69416E+01 SP= 0.00E+00 SK= 0.00E+00
   3616 T=   254. E= -.10499440E+04 F= -.10571442E+04 E0= -.10571442E+04  EK= 0.72002E+01 SP= 0.00E+00 SK= 0.00E+00
   3617 T=   262. E= -.10498635E+04 F= -.10572867E+04 E0= -.10572867E+04  EK= 0.74232E+01 SP= 0.00E+00 SK= 0.00E+00
   3618 T=   263. E= -.10497885E+04 F= -.10572206E+04 E0= -.10572206E+04  EK= 0.74322E+01 SP= 0.00E+00 SK= 0.00E+00
   3619 T=   253. E= -.10497964E+04 F= -.10569652E+04 E0= -.10569652E+04  EK= 0.71688E+01 SP= 0.00E+00 SK= 0.00E+00
   3620 T=   247. E= -.10497251E+04 F= -.10567098E+04 E0= -.10567098E+04  EK= 0.69847E+01 SP= 0.00E+00 SK= 0.00E+00
   3621 T=   246. E= -.10496301E+04 F= -.10565894E+04 E0= -.10565894E+04  EK= 0.69593E+01 SP= 0.00E+00 SK= 0.00E+00
   3622 T=   248. E= -.10496638E+04 F= -.10566731E+04 E0= -.10566731E+04  EK= 0.70093E+01 SP= 0.00E+00 SK= 0.00E+00
   3623 T=   250. E= -.10497880E+04 F= -.10568754E+04 E0= -.10568754E+04  EK= 0.70874E+01 SP= 0.00E+00 SK= 0.00E+00
   3624 T=   253. E= -.10498134E+04 F= -.10569877E+04 E0= -.10569877E+04  EK= 0.71742E+01 SP= 0.00E+00 SK= 0.00E+00
   3625 T=   259. E= -.10497322E+04 F= -.10570638E+04 E0= -.10570638E+04  EK= 0.73315E+01 SP= 0.00E+00 SK= 0.00E+00
   3626 T=   264. E= -.10496092E+04 F= -.10570958E+04 E0= -.10570958E+04  EK= 0.74866E+01 SP= 0.00E+00 SK= 0.00E+00
   3627 T=   265. E= -.10495281E+04 F= -.10570422E+04 E0= -.10570422E+04  EK= 0.75141E+01 SP= 0.00E+00 SK= 0.00E+00
   3628 T=   261. E= -.10495298E+04 F= -.10569176E+04 E0= -.10569176E+04  EK= 0.73879E+01 SP= 0.00E+00 SK= 0.00E+00
   3629 T=   260. E= -.10494713E+04 F= -.10568447E+04 E0= -.10568447E+04  EK= 0.73734E+01 SP= 0.00E+00 SK= 0.00E+00
   3630 T=   263. E= -.10494479E+04 F= -.10569006E+04 E0= -.10569006E+04  EK= 0.74527E+01 SP= 0.00E+00 SK= 0.00E+00
   3631 T=   265. E= -.10495369E+04 F= -.10570456E+04 E0= -.10570456E+04  EK= 0.75087E+01 SP= 0.00E+00 SK= 0.00E+00
   3632 T=   263. E= -.10497079E+04 F= -.10571588E+04 E0= -.10571588E+04  EK= 0.74510E+01 SP= 0.00E+00 SK= 0.00E+00
   3633 T=   258. E= -.10498064E+04 F= -.10571165E+04 E0= -.10571165E+04  EK= 0.73101E+01 SP= 0.00E+00 SK= 0.00E+00
   3634 T=   252. E= -.10497915E+04 F= -.10569277E+04 E0= -.10569277E+04  EK= 0.71362E+01 SP= 0.00E+00 SK= 0.00E+00
   3635 T=   243. E= -.10498055E+04 F= -.10566973E+04 E0= -.10566973E+04  EK= 0.68918E+01 SP= 0.00E+00 SK= 0.00E+00
   3636 T=   236. E= -.10498744E+04 F= -.10565529E+04 E0= -.10565529E+04  EK= 0.66785E+01 SP= 0.00E+00 SK= 0.00E+00
   3637 T=   236. E= -.10498352E+04 F= -.10565237E+04 E0= -.10565237E+04  EK= 0.66885E+01 SP= 0.00E+00 SK= 0.00E+00
   3638 T=   237. E= -.10498320E+04 F= -.10565459E+04 E0= -.10565459E+04  EK= 0.67139E+01 SP= 0.00E+00 SK= 0.00E+00
   3639 T=   238. E= -.10498272E+04 F= -.10565568E+04 E0= -.10565568E+04  EK= 0.67296E+01 SP= 0.00E+00 SK= 0.00E+00
   3640 T=   239. E= -.10497225E+04 F= -.10565001E+04 E0= -.10565001E+04  EK= 0.67776E+01 SP= 0.00E+00 SK= 0.00E+00
   3641 T=   239. E= -.10496240E+04 F= -.10563940E+04 E0= -.10563940E+04  EK= 0.67699E+01 SP= 0.00E+00 SK= 0.00E+00
   3642 T=   238. E= -.10495595E+04 F= -.10562880E+04 E0= -.10562880E+04  EK= 0.67285E+01 SP= 0.00E+00 SK= 0.00E+00
   3643 T=   237. E= -.10494808E+04 F= -.10561895E+04 E0= -.10561895E+04  EK= 0.67087E+01 SP= 0.00E+00 SK= 0.00E+00
   3644 T=   231. E= -.10495714E+04 F= -.10561017E+04 E0= -.10561017E+04  EK= 0.65303E+01 SP= 0.00E+00 SK= 0.00E+00
   3645 T=   226. E= -.10497095E+04 F= -.10561058E+04 E0= -.10561058E+04  EK= 0.63963E+01 SP= 0.00E+00 SK= 0.00E+00
   3646 T=   227. E= -.10497663E+04 F= -.10561964E+04 E0= -.10561964E+04  EK= 0.64302E+01 SP= 0.00E+00 SK= 0.00E+00
   3647 T=   228. E= -.10498846E+04 F= -.10563432E+04 E0= -.10563432E+04  EK= 0.64586E+01 SP= 0.00E+00 SK= 0.00E+00
   3648 T=   229. E= -.10499488E+04 F= -.10564280E+04 E0= -.10564280E+04  EK= 0.64792E+01 SP= 0.00E+00 SK= 0.00E+00
   3649 T=   229. E= -.10499285E+04 F= -.10564144E+04 E0= -.10564144E+04  EK= 0.64859E+01 SP= 0.00E+00 SK= 0.00E+00
   3650 T=   229. E= -.10498549E+04 F= -.10563237E+04 E0= -.10563237E+04  EK= 0.64687E+01 SP= 0.00E+00 SK= 0.00E+00
   3651 T=   227. E= -.10497622E+04 F= -.10562001E+04 E0= -.10562001E+04  EK= 0.64379E+01 SP= 0.00E+00 SK= 0.00E+00
   3652 T=   226. E= -.10497007E+04 F= -.10560995E+04 E0= -.10560995E+04  EK= 0.63988E+01 SP= 0.00E+00 SK= 0.00E+00
   3653 T=   225. E= -.10496388E+04 F= -.10560122E+04 E0= -.10560122E+04  EK= 0.63734E+01 SP= 0.00E+00 SK= 0.00E+00
   3654 T=   224. E= -.10495770E+04 F= -.10559320E+04 E0= -.10559320E+04  EK= 0.63550E+01 SP= 0.00E+00 SK= 0.00E+00
   3655 T=   230. E= -.10494656E+04 F= -.10559761E+04 E0= -.10559761E+04  EK= 0.65105E+01 SP= 0.00E+00 SK= 0.00E+00
   3656 T=   236. E= -.10493714E+04 F= -.10560581E+04 E0= -.10560581E+04  EK= 0.66867E+01 SP= 0.00E+00 SK= 0.00E+00
   3657 T=   240. E= -.10493475E+04 F= -.10561344E+04 E0= -.10561344E+04  EK= 0.67869E+01 SP= 0.00E+00 SK= 0.00E+00
   3658 T=   241. E= -.10493392E+04 F= -.10561602E+04 E0= -.10561602E+04  EK= 0.68210E+01 SP= 0.00E+00 SK= 0.00E+00
   3659 T=   241. E= -.10493069E+04 F= -.10561224E+04 E0= -.10561224E+04  EK= 0.68155E+01 SP= 0.00E+00 SK= 0.00E+00
   3660 T=   241. E= -.10492505E+04 F= -.10560777E+04 E0= -.10560777E+04  EK= 0.68272E+01 SP= 0.00E+00 SK= 0.00E+00
   3661 T=   245. E= -.10491402E+04 F= -.10560883E+04 E0= -.10560883E+04  EK= 0.69482E+01 SP= 0.00E+00 SK= 0.00E+00
   3662 T=   251. E= -.10490782E+04 F= -.10561833E+04 E0= -.10561833E+04  EK= 0.71051E+01 SP= 0.00E+00 SK= 0.00E+00
   3663 T=   254. E= -.10491443E+04 F= -.10563401E+04 E0= -.10563401E+04  EK= 0.71957E+01 SP= 0.00E+00 SK= 0.00E+00
   3664 T=   258. E= -.10492320E+04 F= -.10565268E+04 E0= -.10565268E+04  EK= 0.72947E+01 SP= 0.00E+00 SK= 0.00E+00
   3665 T=   261. E= -.10491961E+04 F= -.10565863E+04 E0= -.10565863E+04  EK= 0.73902E+01 SP= 0.00E+00 SK= 0.00E+00
   3666 T=   257. E= -.10492394E+04 F= -.10565207E+04 E0= -.10565207E+04  EK= 0.72813E+01 SP= 0.00E+00 SK= 0.00E+00
   3667 T=   250. E= -.10493263E+04 F= -.10563962E+04 E0= -.10563962E+04  EK= 0.70699E+01 SP= 0.00E+00 SK= 0.00E+00
   3668 T=   247. E= -.10492600E+04 F= -.10562636E+04 E0= -.10562636E+04  EK= 0.70036E+01 SP= 0.00E+00 SK= 0.00E+00
   3669 T=   244. E= -.10492417E+04 F= -.10561388E+04 E0= -.10561388E+04  EK= 0.68971E+01 SP= 0.00E+00 SK= 0.00E+00
   3670 T=   240. E= -.10492716E+04 F= -.10560574E+04 E0= -.10560574E+04  EK= 0.67858E+01 SP= 0.00E+00 SK= 0.00E+00
   3671 T=   240. E= -.10492134E+04 F= -.10560067E+04 E0= -.10560067E+04  EK= 0.67933E+01 SP= 0.00E+00 SK= 0.00E+00
   3672 T=   243. E= -.10491200E+04 F= -.10560049E+04 E0= -.10560049E+04  EK= 0.68850E+01 SP= 0.00E+00 SK= 0.00E+00
   3673 T=   245. E= -.10490333E+04 F= -.10559745E+04 E0= -.10559745E+04  EK= 0.69412E+01 SP= 0.00E+00 SK= 0.00E+00
   3674 T=   246. E= -.10489558E+04 F= -.10559264E+04 E0= -.10559264E+04  EK= 0.69707E+01 SP= 0.00E+00 SK= 0.00E+00
   3675 T=   249. E= -.10488132E+04 F= -.10558521E+04 E0= -.10558521E+04  EK= 0.70389E+01 SP= 0.00E+00 SK= 0.00E+00
   3676 T=   249. E= -.10486664E+04 F= -.10557206E+04 E0= -.10557206E+04  EK= 0.70541E+01 SP= 0.00E+00 SK= 0.00E+00
   3677 T=   244. E= -.10486578E+04 F= -.10555614E+04 E0= -.10555614E+04  EK= 0.69035E+01 SP= 0.00E+00 SK= 0.00E+00
   3678 T=   242. E= -.10486541E+04 F= -.10554990E+04 E0= -.10554990E+04  EK= 0.68449E+01 SP= 0.00E+00 SK= 0.00E+00
   3679 T=   246. E= -.10485582E+04 F= -.10555170E+04 E0= -.10555170E+04  EK= 0.69588E+01 SP= 0.00E+00 SK= 0.00E+00
   3680 T=   250. E= -.10485609E+04 F= -.10556411E+04 E0= -.10556411E+04  EK= 0.70802E+01 SP= 0.00E+00 SK= 0.00E+00
   3681 T=   249. E= -.10486725E+04 F= -.10557251E+04 E0= -.10557251E+04  EK= 0.70526E+01 SP= 0.00E+00 SK= 0.00E+00
   3682 T=   251. E= -.10486584E+04 F= -.10557726E+04 E0= -.10557726E+04  EK= 0.71142E+01 SP= 0.00E+00 SK= 0.00E+00
   3683 T=   259. E= -.10485216E+04 F= -.10558398E+04 E0= -.10558398E+04  EK= 0.73182E+01 SP= 0.00E+00 SK= 0.00E+00
   3684 T=   262. E= -.10485047E+04 F= -.10559225E+04 E0= -.10559225E+04  EK= 0.74178E+01 SP= 0.00E+00 SK= 0.00E+00
   3685 T=   263. E= -.10485711E+04 F= -.10560271E+04 E0= -.10560271E+04  EK= 0.74560E+01 SP= 0.00E+00 SK= 0.00E+00
   3686 T=   267. E= -.10485821E+04 F= -.10561284E+04 E0= -.10561284E+04  EK= 0.75463E+01 SP= 0.00E+00 SK= 0.00E+00
   3687 T=   266. E= -.10485999E+04 F= -.10561354E+04 E0= -.10561354E+04  EK= 0.75354E+01 SP= 0.00E+00 SK= 0.00E+00
   3688 T=   262. E= -.10486191E+04 F= -.10560255E+04 E0= -.10560255E+04  EK= 0.74064E+01 SP= 0.00E+00 SK= 0.00E+00
   3689 T=   257. E= -.10486685E+04 F= -.10559519E+04 E0= -.10559519E+04  EK= 0.72835E+01 SP= 0.00E+00 SK= 0.00E+00
   3690 T=   257. E= -.10486829E+04 F= -.10559446E+04 E0= -.10559446E+04  EK= 0.72617E+01 SP= 0.00E+00 SK= 0.00E+00
   3691 T=   257. E= -.10486954E+04 F= -.10559713E+04 E0= -.10559713E+04  EK= 0.72759E+01 SP= 0.00E+00 SK= 0.00E+00
   3692 T=   262. E= -.10485774E+04 F= -.10559929E+04 E0= -.10559929E+04  EK= 0.74156E+01 SP= 0.00E+00 SK= 0.00E+00
   3693 T=   268. E= -.10484843E+04 F= -.10560792E+04 E0= -.10560792E+04  EK= 0.75948E+01 SP= 0.00E+00 SK= 0.00E+00
   3694 T=   271. E= -.10485357E+04 F= -.10562144E+04 E0= -.10562144E+04  EK= 0.76787E+01 SP= 0.00E+00 SK= 0.00E+00
   3695 T=   278. E= -.10484681E+04 F= -.10563490E+04 E0= -.10563490E+04  EK= 0.78810E+01 SP= 0.00E+00 SK= 0.00E+00
       N       E                     dE             d eps       ncg     rms          rms(c)
DAV:   1    -0.437430017872E+03    0.60347E+03   -0.54066E+04 20644   0.399E+02
DAV:   2    -0.103979676321E+04   -0.60237E+03   -0.59189E+03 24622   0.117E+02
DAV:   3    -0.105474063769E+04   -0.14944E+02   -0.14927E+02 25040   0.203E+01
DAV:   4    -0.105495538504E+04   -0.21475E+00   -0.21468E+00 24640   0.237E+00    0.386E+01
DAV:   5    -0.104040312229E+04    0.14552E+02   -0.25828E+01 24808   0.113E+01    0.217E+01
DAV:   6    -0.103980922697E+04    0.59390E+00   -0.21807E+01 24776   0.947E+00    0.610E+00
DAV:   7    -0.104048608073E+04   -0.67685E+00   -0.36663E+00 24048   0.425E+00    0.243E+00
DAV:   8    -0.104053099419E+04   -0.44913E-01   -0.32674E-01 24024   0.120E+00    0.116E+00
DAV:   9    -0.104053619750E+04   -0.52033E-02   -0.11319E-01 24160   0.808E-01    0.507E-01
DAV:  10    -0.104053382431E+04    0.23732E-02   -0.20861E-02 27168   0.427E-01    0.182E-01
DAV:  11    -0.104053345431E+04    0.37000E-03   -0.10081E-02 24232   0.217E-01    0.123E-01
DAV:  12    -0.104053237459E+04    0.10797E-02   -0.14949E-03 23888   0.157E-01    0.456E-02
DAV:  13    -0.104053199326E+04    0.38134E-03   -0.12869E-03 24192   0.119E-01    0.650E-02
DAV:  14    -0.104053180104E+04    0.19222E-03   -0.65632E-04 24224   0.813E-02    0.282E-02
DAV:  15    -0.104053179490E+04    0.61421E-05   -0.22363E-04 18856   0.349E-02
   3696 T=   282. E= -.10483271E+04 F= -.10562993E+04 E0= -.10562993E+04  EK= 0.79722E+01 SP= 0.00E+00 SK= 0.00E+00
   3697 T=   282. E= -.10483732E+04 F= -.10563476E+04 E0= -.10563476E+04  EK= 0.79744E+01 SP= 0.00E+00 SK= 0.00E+00
   3698 T=   283. E= -.10482368E+04 F= -.10562435E+04 E0= -.10562435E+04  EK= 0.80067E+01 SP= 0.00E+00 SK= 0.00E+00
   3699 T=   279. E= -.10481976E+04 F= -.10561093E+04 E0= -.10561093E+04  EK= 0.79117E+01 SP= 0.00E+00 SK= 0.00E+00
   3700 T=   275. E= -.10482284E+04 F= -.10560238E+04 E0= -.10560238E+04  EK= 0.77954E+01 SP= 0.00E+00 SK= 0.00E+00
   3701 T=   273. E= -.10482882E+04 F= -.10560262E+04 E0= -.10560262E+04  EK= 0.77381E+01 SP= 0.00E+00 SK= 0.00E+00
   3702 T=   269. E= -.10484373E+04 F= -.10560653E+04 E0= -.10560653E+04  EK= 0.76281E+01 SP= 0.00E+00 SK= 0.00E+00
   3703 T=   264. E= -.10485671E+04 F= -.10560464E+04 E0= -.10560464E+04  EK= 0.74792E+01 SP= 0.00E+00 SK= 0.00E+00
   3704 T=   262. E= -.10485498E+04 F= -.10559620E+04 E0= -.10559620E+04  EK= 0.74123E+01 SP= 0.00E+00 SK= 0.00E+00
   3705 T=   254. E= -.10485789E+04 F= -.10557621E+04 E0= -.10557621E+04  EK= 0.71831E+01 SP= 0.00E+00 SK= 0.00E+00
       N       E                     dE             d eps       ncg     rms          rms(c)
DAV:   1    -0.103208743746E+04    0.84444E+01   -0.32413E+03 20644   0.105E+02
DAV:   2    -0.104082141261E+04   -0.87340E+01   -0.87311E+01 25056   0.156E+01
DAV:   3    -0.104090140132E+04   -0.79989E-01   -0.79981E-01 25048   0.156E+00
DAV:   4    -0.104090306904E+04   -0.16677E-02   -0.16676E-02 25072   0.220E-01    0.116E+01
DAV:   5    -0.103985995628E+04    0.10431E+01   -0.23185E+00 25264   0.382E+00    0.627E+00
DAV:   6    -0.103988835090E+04   -0.28395E-01   -0.15878E+00 25000   0.266E+00    0.197E+00
DAV:   7    -0.103992563520E+04   -0.37284E-01   -0.31645E-01 25320   0.142E+00    0.658E-01
DAV:   8    -0.103992391497E+04    0.17202E-02   -0.39853E-02 24168   0.498E-01    0.331E-01
DAV:   9    -0.103992257804E+04    0.13369E-02   -0.16781E-02 24088   0.289E-01    0.184E-01
DAV:  10    -0.103992124302E+04    0.13350E-02   -0.34617E-03 28176   0.199E-01    0.665E-02
DAV:  11    -0.103992085908E+04    0.38394E-03   -0.17847E-03 23944   0.109E-01    0.617E-02
DAV:  12    -0.103992041576E+04    0.44332E-03   -0.22898E-04 19120   0.885E-02    0.269E-02
DAV:  13    -0.103992022459E+04    0.19118E-03   -0.53037E-04 22432   0.883E-02    0.308E-02
DAV:  14    -0.103992021337E+04    0.11211E-04   -0.32400E-04 22968   0.443E-02
   3706 T=   245. E= -.10486021E+04 F= -.10555364E+04 E0= -.10555364E+04  EK= 0.69343E+01 SP= 0.00E+00 SK= 0.00E+00
   3707 T=   237. E= -.10487013E+04 F= -.10554242E+04 E0= -.10554242E+04  EK= 0.67230E+01 SP= 0.00E+00 SK= 0.00E+00
   3708 T=   236. E= -.10486729E+04 F= -.10553438E+04 E0= -.10553438E+04  EK= 0.66709E+01 SP= 0.00E+00 SK= 0.00E+00
   3709 T=   240. E= -.10486062E+04 F= -.10553869E+04 E0= -.10553869E+04  EK= 0.67807E+01 SP= 0.00E+00 SK= 0.00E+00
   3710 T=   244. E= -.10486293E+04 F= -.10555407E+04 E0= -.10555407E+04  EK= 0.69114E+01 SP= 0.00E+00 SK= 0.00E+00
   3711 T=   249. E= -.10486794E+04 F= -.10557398E+04 E0= -.10557398E+04  EK= 0.70604E+01 SP= 0.00E+00 SK= 0.00E+00
   3712 T=   252. E= -.10487144E+04 F= -.10558528E+04 E0= -.10558528E+04  EK= 0.71384E+01 SP= 0.00E+00 SK= 0.00E+00
   3713 T=   251. E= -.10487452E+04 F= -.10558595E+04 E0= -.10558595E+04  EK= 0.71143E+01 SP= 0.00E+00 SK= 0.00E+00
   3714 T=   247. E= -.10487800E+04 F= -.10557856E+04 E0= -.10557856E+04  EK= 0.70056E+01 SP= 0.00E+00 SK= 0.00E+00
   3715 T=   245. E= -.10487678E+04 F= -.10557156E+04 E0= -.10557156E+04  EK= 0.69478E+01 SP= 0.00E+00 SK= 0.00E+00
   3716 T=   247. E= -.10487767E+04 F= -.10557745E+04 E0= -.10557745E+04  EK= 0.69978E+01 SP= 0.00E+00 SK= 0.00E+00
   3717 T=   252. E= -.10488069E+04 F= -.10559447E+04 E0= -.10559447E+04  EK= 0.71378E+01 SP= 0.00E+00 SK= 0.00E+00
   3718 T=   259. E= -.10487675E+04 F= -.10560980E+04 E0= -.10560980E+04  EK= 0.73305E+01 SP= 0.00E+00 SK= 0.00E+00
   3719 T=   262. E= -.10486997E+04 F= -.10561160E+04 E0= -.10561160E+04  EK= 0.74163E+01 SP= 0.00E+00 SK= 0.00E+00
   3720 T=   256. E= -.10486986E+04 F= -.10559508E+04 E0= -.10559508E+04  EK= 0.72522E+01 SP= 0.00E+00 SK= 0.00E+00
   3721 T=   245. E= -.10487045E+04 F= -.10556315E+04 E0= -.10556315E+04  EK= 0.69270E+01 SP= 0.00E+00 SK= 0.00E+00
   3722 T=   238. E= -.10486176E+04 F= -.10553476E+04 E0= -.10553476E+04  EK= 0.67300E+01 SP= 0.00E+00 SK= 0.00E+00
   3723 T=   234. E= -.10485890E+04 F= -.10552222E+04 E0= -.10552222E+04  EK= 0.66332E+01 SP= 0.00E+00 SK= 0.00E+00
   3724 T=   239. E= -.10485196E+04 F= -.10552854E+04 E0= -.10552854E+04  EK= 0.67658E+01 SP= 0.00E+00 SK= 0.00E+00
   3725 T=   252. E= -.10484317E+04 F= -.10555534E+04 E0= -.10555534E+04  EK= 0.71217E+01 SP= 0.00E+00 SK= 0.00E+00
   3726 T=   268. E= -.10482903E+04 F= -.10558653E+04 E0= -.10558653E+04  EK= 0.75750E+01 SP= 0.00E+00 SK= 0.00E+00
   3727 T=   278. E= -.10481630E+04 F= -.10560360E+04 E0= -.10560360E+04  EK= 0.78730E+01 SP= 0.00E+00 SK= 0.00E+00
   3728 T=   278. E= -.10481058E+04 F= -.10559745E+04 E0= -.10559745E+04  EK= 0.78687E+01 SP= 0.00E+00 SK= 0.00E+00
   3729 T=   272. E= -.10480547E+04 F= -.10557597E+04 E0= -.10557597E+04  EK= 0.77050E+01 SP= 0.00E+00 SK= 0.00E+00
   3730 T=   267. E= -.10480050E+04 F= -.10555658E+04 E0= -.10555658E+04  EK= 0.75608E+01 SP= 0.00E+00 SK= 0.00E+00
   3731 T=   268. E= -.10479823E+04 F= -.10555770E+04 E0= -.10555770E+04  EK= 0.75947E+01 SP= 0.00E+00 SK= 0.00E+00
   3732 T=   275. E= -.10480005E+04 F= -.10557981E+04 E0= -.10557981E+04  EK= 0.77976E+01 SP= 0.00E+00 SK= 0.00E+00
   3733 T=   284. E= -.10479488E+04 F= -.10560019E+04 E0= -.10560019E+04  EK= 0.80531E+01 SP= 0.00E+00 SK= 0.00E+00
   3734 T=   286. E= -.10479538E+04 F= -.10560386E+04 E0= -.10560386E+04  EK= 0.80847E+01 SP= 0.00E+00 SK= 0.00E+00
   3735 T=   279. E= -.10480005E+04 F= -.10558979E+04 E0= -.10558979E+04  EK= 0.78975E+01 SP= 0.00E+00 SK= 0.00E+00
   3736 T=   268. E= -.10480100E+04 F= -.10555913E+04 E0= -.10555913E+04  EK= 0.75813E+01 SP= 0.00E+00 SK= 0.00E+00
   3737 T=   255. E= -.10480931E+04 F= -.10553109E+04 E0= -.10553109E+04  EK= 0.72178E+01 SP= 0.00E+00 SK= 0.00E+00
   3738 T=   249. E= -.10481875E+04 F= -.10552279E+04 E0= -.10552279E+04  EK= 0.70404E+01 SP= 0.00E+00 SK= 0.00E+00
   3739 T=   250. E= -.10482233E+04 F= -.10552944E+04 E0= -.10552944E+04  EK= 0.70712E+01 SP= 0.00E+00 SK= 0.00E+00
   3740 T=   250. E= -.10483425E+04 F= -.10554121E+04 E0= -.10554121E+04  EK= 0.70696E+01 SP= 0.00E+00 SK= 0.00E+00
   3741 T=   253. E= -.10483794E+04 F= -.10555530E+04 E0= -.10555530E+04  EK= 0.71736E+01 SP= 0.00E+00 SK= 0.00E+00
   3742 T=   259. E= -.10483224E+04 F= -.10556655E+04 E0= -.10556655E+04  EK= 0.73430E+01 SP= 0.00E+00 SK= 0.00E+00
   3743 T=   259. E= -.10483620E+04 F= -.10556897E+04 E0= -.10556897E+04  EK= 0.73277E+01 SP= 0.00E+00 SK= 0.00E+00
   3744 T=   255. E= -.10484508E+04 F= -.10556758E+04 E0= -.10556758E+04  EK= 0.72250E+01 SP= 0.00E+00 SK= 0.00E+00
   3745 T=   255. E= -.10484711E+04 F= -.10556966E+04 E0= -.10556966E+04  EK= 0.72256E+01 SP= 0.00E+00 SK= 0.00E+00
   3746 T=   252. E= -.10486062E+04 F= -.10557325E+04 E0= -.10557325E+04  EK= 0.71263E+01 SP= 0.00E+00 SK= 0.00E+00
   3747 T=   251. E= -.10487375E+04 F= -.10558424E+04 E0= -.10558424E+04  EK= 0.71050E+01 SP= 0.00E+00 SK= 0.00E+00
   3748 T=   257. E= -.10487687E+04 F= -.10560360E+04 E0= -.10560360E+04  EK= 0.72673E+01 SP= 0.00E+00 SK= 0.00E+00
   3749 T=   261. E= -.10488287E+04 F= -.10562090E+04 E0= -.10562090E+04  EK= 0.73803E+01 SP= 0.00E+00 SK= 0.00E+00
   3750 T=   264. E= -.10488198E+04 F= -.10563031E+04 E0= -.10563031E+04  EK= 0.74832E+01 SP= 0.00E+00 SK= 0.00E+00
   3751 T=   265. E= -.10488355E+04 F= -.10563460E+04 E0= -.10563460E+04  EK= 0.75105E+01 SP= 0.00E+00 SK= 0.00E+00
   3752 T=   265. E= -.10488040E+04 F= -.10563191E+04 E0= -.10563191E+04  EK= 0.75151E+01 SP= 0.00E+00 SK= 0.00E+00
   3753 T=   267. E= -.10487187E+04 F= -.10562635E+04 E0= -.10562635E+04  EK= 0.75448E+01 SP= 0.00E+00 SK= 0.00E+00
   3754 T=   265. E= -.10487379E+04 F= -.10562431E+04 E0= -.10562431E+04  EK= 0.75052E+01 SP= 0.00E+00 SK= 0.00E+00
   3755 T=   266. E= -.10487401E+04 F= -.10562697E+04 E0= -.10562697E+04  EK= 0.75296E+01 SP= 0.00E+00 SK= 0.00E+00
   3756 T=   276. E= -.10486263E+04 F= -.10564335E+04 E0= -.10564335E+04  EK= 0.78072E+01 SP= 0.00E+00 SK= 0.00E+00
   3757 T=   282. E= -.10486375E+04 F= -.10566245E+04 E0= -.10566245E+04  EK= 0.79869E+01 SP= 0.00E+00 SK= 0.00E+00
   3758 T=   285. E= -.10486561E+04 F= -.10567238E+04 E0= -.10567238E+04  EK= 0.80677E+01 SP= 0.00E+00 SK= 0.00E+00
   3759 T=   285. E= -.10486349E+04 F= -.10566916E+04 E0= -.10566916E+04  EK= 0.80567E+01 SP= 0.00E+00 SK= 0.00E+00
   3760 T=   276. E= -.10486797E+04 F= -.10565036E+04 E0= -.10565036E+04  EK= 0.78240E+01 SP= 0.00E+00 SK= 0.00E+00
   3761 T=   270. E= -.10486443E+04 F= -.10562860E+04 E0= -.10562860E+04  EK= 0.76418E+01 SP= 0.00E+00 SK= 0.00E+00
   3762 T=   263. E= -.10486988E+04 F= -.10561432E+04 E0= -.10561432E+04  EK= 0.74444E+01 SP= 0.00E+00 SK= 0.00E+00
   3763 T=   261. E= -.10487627E+04 F= -.10561619E+04 E0= -.10561619E+04  EK= 0.73992E+01 SP= 0.00E+00 SK= 0.00E+00
   3764 T=   262. E= -.10488550E+04 F= -.10562749E+04 E0= -.10562749E+04  EK= 0.74199E+01 SP= 0.00E+00 SK= 0.00E+00
   3765 T=   264. E= -.10489211E+04 F= -.10564037E+04 E0= -.10564037E+04  EK= 0.74826E+01 SP= 0.00E+00 SK= 0.00E+00
   3766 T=   271. E= -.10488354E+04 F= -.10565027E+04 E0= -.10565027E+04  EK= 0.76673E+01 SP= 0.00E+00 SK= 0.00E+00
   3767 T=   270. E= -.10488099E+04 F= -.10564452E+04 E0= -.10564452E+04  EK= 0.76353E+01 SP= 0.00E+00 SK= 0.00E+00
   3768 T=   262. E= -.10488157E+04 F= -.10562289E+04 E0= -.10562289E+04  EK= 0.74133E+01 SP= 0.00E+00 SK= 0.00E+00
   3769 T=   253. E= -.10488024E+04 F= -.10559701E+04 E0= -.10559701E+04  EK= 0.71676E+01 SP= 0.00E+00 SK= 0.00E+00
   3770 T=   245. E= -.10488326E+04 F= -.10557717E+04 E0= -.10557717E+04  EK= 0.69391E+01 SP= 0.00E+00 SK= 0.00E+00
   3771 T=   244. E= -.10488952E+04 F= -.10558070E+04 E0= -.10558070E+04  EK= 0.69118E+01 SP= 0.00E+00 SK= 0.00E+00
   3772 T=   252. E= -.10489090E+04 F= -.10560309E+04 E0= -.10560309E+04  EK= 0.71219E+01 SP= 0.00E+00 SK= 0.00E+00
   3773 T=   259. E= -.10489394E+04 F= -.10562702E+04 E0= -.10562702E+04  EK= 0.73309E+01 SP= 0.00E+00 SK= 0.00E+00
   3774 T=   266. E= -.10488627E+04 F= -.10564018E+04 E0= -.10564018E+04  EK= 0.75392E+01 SP= 0.00E+00 SK= 0.00E+00
   3775 T=   266. E= -.10487674E+04 F= -.10562972E+04 E0= -.10562972E+04  EK= 0.75297E+01 SP= 0.00E+00 SK= 0.00E+00
   3776 T=   256. E= -.10487735E+04 F= -.10560105E+04 E0= -.10560105E+04  EK= 0.72370E+01 SP= 0.00E+00 SK= 0.00E+00
   3777 T=   251. E= -.10486757E+04 F= -.10557813E+04 E0= -.10557813E+04  EK= 0.71056E+01 SP= 0.00E+00 SK= 0.00E+00
   3778 T=   255. E= -.10485570E+04 F= -.10557674E+04 E0= -.10557674E+04  EK= 0.72105E+01 SP= 0.00E+00 SK= 0.00E+00
   3779 T=   265. E= -.10484963E+04 F= -.10560059E+04 E0= -.10560059E+04  EK= 0.75096E+01 SP= 0.00E+00 SK= 0.00E+00
   3780 T=   275. E= -.10485717E+04 F= -.10563543E+04 E0= -.10563543E+04  EK= 0.77826E+01 SP= 0.00E+00 SK= 0.00E+00
   3781 T=   278. E= -.10487358E+04 F= -.10566117E+04 E0= -.10566117E+04  EK= 0.78760E+01 SP= 0.00E+00 SK= 0.00E+00
   3782 T=   277. E= -.10488121E+04 F= -.10566478E+04 E0= -.10566478E+04  EK= 0.78356E+01 SP= 0.00E+00 SK= 0.00E+00
   3783 T=   269. E= -.10488496E+04 F= -.10564765E+04 E0= -.10564765E+04  EK= 0.76269E+01 SP= 0.00E+00 SK= 0.00E+00
   3784 T=   262. E= -.10488200E+04 F= -.10562304E+04 E0= -.10562304E+04  EK= 0.74104E+01 SP= 0.00E+00 SK= 0.00E+00
   3785 T=   255. E= -.10488123E+04 F= -.10560428E+04 E0= -.10560428E+04  EK= 0.72305E+01 SP= 0.00E+00 SK= 0.00E+00
   3786 T=   253. E= -.10488778E+04 F= -.10560267E+04 E0= -.10560267E+04  EK= 0.71489E+01 SP= 0.00E+00 SK= 0.00E+00
   3787 T=   259. E= -.10489071E+04 F= -.10562418E+04 E0= -.10562418E+04  EK= 0.73347E+01 SP= 0.00E+00 SK= 0.00E+00
   3788 T=   268. E= -.10489450E+04 F= -.10565259E+04 E0= -.10565259E+04  EK= 0.75808E+01 SP= 0.00E+00 SK= 0.00E+00
   3789 T=   277. E= -.10488951E+04 F= -.10567330E+04 E0= -.10567330E+04  EK= 0.78379E+01 SP= 0.00E+00 SK= 0.00E+00
   3790 T=   278. E= -.10488487E+04 F= -.10567285E+04 E0= -.10567285E+04  EK= 0.78798E+01 SP= 0.00E+00 SK= 0.00E+00
   3791 T=   274. E= -.10487813E+04 F= -.10565416E+04 E0= -.10565416E+04  EK= 0.77603E+01 SP= 0.00E+00 SK= 0.00E+00
   3792 T=   269. E= -.10487423E+04 F= -.10563473E+04 E0= -.10563473E+04  EK= 0.76050E+01 SP= 0.00E+00 SK= 0.00E+00
   3793 T=   262. E= -.10487972E+04 F= -.10562199E+04 E0= -.10562199E+04  EK= 0.74226E+01 SP= 0.00E+00 SK= 0.00E+00
   3794 T=   262. E= -.10488107E+04 F= -.10562306E+04 E0= -.10562306E+04  EK= 0.74198E+01 SP= 0.00E+00 SK= 0.00E+00
   3795 T=   267. E= -.10487994E+04 F= -.10563436E+04 E0= -.10563436E+04  EK= 0.75442E+01 SP= 0.00E+00 SK= 0.00E+00
   3796 T=   271. E= -.10487941E+04 F= -.10564712E+04 E0= -.10564712E+04  EK= 0.76770E+01 SP= 0.00E+00 SK= 0.00E+00
   3797 T=   274. E= -.10487487E+04 F= -.10564962E+04 E0= -.10564962E+04  EK= 0.77475E+01 SP= 0.00E+00 SK= 0.00E+00
   3798 T=   274. E= -.10486807E+04 F= -.10564443E+04 E0= -.10564443E+04  EK= 0.77636E+01 SP= 0.00E+00 SK= 0.00E+00
   3799 T=   270. E= -.10487125E+04 F= -.10563489E+04 E0= -.10563489E+04  EK= 0.76364E+01 SP= 0.00E+00 SK= 0.00E+00
   3800 T=   269. E= -.10486290E+04 F= -.10562500E+04 E0= -.10562500E+04  EK= 0.76211E+01 SP= 0.00E+00 SK= 0.00E+00
   3801 T=   274. E= -.10485103E+04 F= -.10562539E+04 E0= -.10562539E+04  EK= 0.77436E+01 SP= 0.00E+00 SK= 0.00E+00
   3802 T=   276. E= -.10484934E+04 F= -.10562992E+04 E0= -.10562992E+04  EK= 0.78058E+01 SP= 0.00E+00 SK= 0.00E+00
   3803 T=   279. E= -.10484539E+04 F= -.10563592E+04 E0= -.10563592E+04  EK= 0.79053E+01 SP= 0.00E+00 SK= 0.00E+00
   3804 T=   280. E= -.10484813E+04 F= -.10564136E+04 E0= -.10564136E+04  EK= 0.79322E+01 SP= 0.00E+00 SK= 0.00E+00
   3805 T=   282. E= -.10484494E+04 F= -.10564334E+04 E0= -.10564334E+04  EK= 0.79840E+01 SP= 0.00E+00 SK= 0.00E+00
       N       E                     dE             d eps       ncg     rms          rms(c)
DAV:   1    -0.493391379697E+03    0.54653E+03   -0.48746E+04 20644   0.379E+02
DAV:   2    -0.103924085222E+04   -0.54585E+03   -0.53752E+03 23972   0.113E+02
DAV:   3    -0.105201882681E+04   -0.12778E+02   -0.12766E+02 24736   0.191E+01
DAV:   4    -0.105221080343E+04   -0.19198E+00   -0.19192E+00 24728   0.225E+00    0.379E+01
DAV:   5    -0.103998374523E+04    0.12227E+02   -0.34328E+01 24808   0.111E+01    0.210E+01
DAV:   6    -0.104051865205E+04   -0.53491E+00   -0.12740E+01 24872   0.728E+00    0.783E+00
DAV:   7    -0.104133765417E+04   -0.81900E+00   -0.27111E+00 24096   0.360E+00    0.210E+00
DAV:   8    -0.104136018232E+04   -0.22528E-01   -0.24496E-01 24680   0.110E+00    0.993E-01
DAV:   9    -0.104136420152E+04   -0.40192E-02   -0.90493E-02 23936   0.662E-01    0.335E-01
DAV:  10    -0.104136178971E+04    0.24118E-02   -0.15349E-02 25248   0.350E-01    0.165E-01
DAV:  11    -0.104136112984E+04    0.65987E-03   -0.76736E-03 23584   0.197E-01    0.120E-01
DAV:  12    -0.104136012769E+04    0.10022E-02   -0.10068E-03 26608   0.133E-01    0.472E-02
DAV:  13    -0.104135945919E+04    0.66850E-03   -0.11075E-03 23096   0.152E-01    0.608E-02
DAV:  14    -0.104135933759E+04    0.12159E-03   -0.99662E-04 25008   0.907E-02    0.316E-02
DAV:  15    -0.104135933236E+04    0.52301E-05   -0.23393E-04 18888   0.308E-02
   3806 T=   279. E= -.10484845E+04 F= -.10563727E+04 E0= -.10563727E+04  EK= 0.78881E+01 SP= 0.00E+00 SK= 0.00E+00
   3807 T=   274. E= -.10484979E+04 F= -.10562615E+04 E0= -.10562615E+04  EK= 0.77636E+01 SP= 0.00E+00 SK= 0.00E+00
   3808 T=   274. E= -.10483987E+04 F= -.10561510E+04 E0= -.10561510E+04  EK= 0.77523E+01 SP= 0.00E+00 SK= 0.00E+00
   3809 T=   277. E= -.10482891E+04 F= -.10561317E+04 E0= -.10561317E+04  EK= 0.78426E+01 SP= 0.00E+00 SK= 0.00E+00
   3810 T=   280. E= -.10482875E+04 F= -.10562078E+04 E0= -.10562078E+04  EK= 0.79203E+01 SP= 0.00E+00 SK= 0.00E+00
   3811 T=   282. E= -.10483393E+04 F= -.10563108E+04 E0= -.10563108E+04  EK= 0.79714E+01 SP= 0.00E+00 SK= 0.00E+00
   3812 T=   282. E= -.10483054E+04 F= -.10562989E+04 E0= -.10562989E+04  EK= 0.79935E+01 SP= 0.00E+00 SK= 0.00E+00
   3813 T=   276. E= -.10482970E+04 F= -.10561111E+04 E0= -.10561111E+04  EK= 0.78141E+01 SP= 0.00E+00 SK= 0.00E+00
   3814 T=   264. E= -.10483322E+04 F= -.10558169E+04 E0= -.10558169E+04  EK= 0.74847E+01 SP= 0.00E+00 SK= 0.00E+00
   3815 T=   255. E= -.10483308E+04 F= -.10555504E+04 E0= -.10555504E+04  EK= 0.72196E+01 SP= 0.00E+00 SK= 0.00E+00
       N       E                     dE             d eps       ncg     rms          rms(c)
DAV:   1    -0.103332097623E+04    0.80384E+01   -0.30859E+03 20644   0.103E+02
DAV:   2    -0.104110639493E+04   -0.77854E+01   -0.77831E+01 24976   0.149E+01
DAV:   3    -0.104117829833E+04   -0.71903E-01   -0.71897E-01 25008   0.147E+00
DAV:   4    -0.104117980875E+04   -0.15104E-02   -0.15103E-02 24960   0.209E-01    0.115E+01
DAV:   5    -0.104029097211E+04    0.88884E+00   -0.17851E+00 25208   0.340E+00    0.641E+00
DAV:   6    -0.104031905361E+04   -0.28082E-01   -0.15522E+00 25144   0.272E+00    0.168E+00
DAV:   7    -0.104035486450E+04   -0.35811E-01   -0.30180E-01 24544   0.132E+00    0.655E-01
DAV:   8    -0.104035367453E+04    0.11900E-02   -0.32410E-02 23784   0.402E-01    0.340E-01
DAV:   9    -0.104035244943E+04    0.12251E-02   -0.13113E-02 24104   0.270E-01    0.170E-01
DAV:  10    -0.104035131083E+04    0.11386E-02   -0.27272E-03 28000   0.190E-01    0.610E-02
DAV:  11    -0.104035115211E+04    0.15872E-03   -0.17608E-03 24208   0.954E-02    0.616E-02
DAV:  12    -0.104035089904E+04    0.25307E-03   -0.43060E-04 21840   0.694E-02    0.247E-02
DAV:  13    -0.104035083378E+04    0.65262E-04   -0.19048E-04 17600   0.462E-02
   3816 T=   251. E= -.10483191E+04 F= -.10554355E+04 E0= -.10554355E+04  EK= 0.71164E+01 SP= 0.00E+00 SK= 0.00E+00
   3817 T=   255. E= -.10481702E+04 F= -.10553777E+04 E0= -.10553777E+04  EK= 0.72076E+01 SP= 0.00E+00 SK= 0.00E+00
   3818 T=   264. E= -.10480738E+04 F= -.10555409E+04 E0= -.10555409E+04  EK= 0.74671E+01 SP= 0.00E+00 SK= 0.00E+00
   3819 T=   274. E= -.10479709E+04 F= -.10557178E+04 E0= -.10557178E+04  EK= 0.77469E+01 SP= 0.00E+00 SK= 0.00E+00
   3820 T=   276. E= -.10479834E+04 F= -.10557865E+04 E0= -.10557865E+04  EK= 0.78031E+01 SP= 0.00E+00 SK= 0.00E+00
   3821 T=   271. E= -.10479727E+04 F= -.10556510E+04 E0= -.10556510E+04  EK= 0.76782E+01 SP= 0.00E+00 SK= 0.00E+00
   3822 T=   265. E= -.10478811E+04 F= -.10553719E+04 E0= -.10553719E+04  EK= 0.74908E+01 SP= 0.00E+00 SK= 0.00E+00
   3823 T=   258. E= -.10477937E+04 F= -.10551022E+04 E0= -.10551022E+04  EK= 0.73085E+01 SP= 0.00E+00 SK= 0.00E+00
   3824 T=   253. E= -.10478242E+04 F= -.10549892E+04 E0= -.10549892E+04  EK= 0.71650E+01 SP= 0.00E+00 SK= 0.00E+00
   3825 T=   257. E= -.10478830E+04 F= -.10551454E+04 E0= -.10551454E+04  EK= 0.72624E+01 SP= 0.00E+00 SK= 0.00E+00
   3826 T=   268. E= -.10478220E+04 F= -.10554201E+04 E0= -.10554201E+04  EK= 0.75981E+01 SP= 0.00E+00 SK= 0.00E+00
   3827 T=   277. E= -.10477671E+04 F= -.10556059E+04 E0= -.10556059E+04  EK= 0.78389E+01 SP= 0.00E+00 SK= 0.00E+00
   3828 T=   272. E= -.10479211E+04 F= -.10556318E+04 E0= -.10556318E+04  EK= 0.77107E+01 SP= 0.00E+00 SK= 0.00E+00
   3829 T=   264. E= -.10480353E+04 F= -.10555131E+04 E0= -.10555131E+04  EK= 0.74778E+01 SP= 0.00E+00 SK= 0.00E+00
   3830 T=   260. E= -.10480002E+04 F= -.10553660E+04 E0= -.10553660E+04  EK= 0.73658E+01 SP= 0.00E+00 SK= 0.00E+00
   3831 T=   257. E= -.10480579E+04 F= -.10553383E+04 E0= -.10553383E+04  EK= 0.72804E+01 SP= 0.00E+00 SK= 0.00E+00
   3832 T=   258. E= -.10481668E+04 F= -.10554672E+04 E0= -.10554672E+04  EK= 0.73004E+01 SP= 0.00E+00 SK= 0.00E+00
   3833 T=   264. E= -.10482839E+04 F= -.10557551E+04 E0= -.10557551E+04  EK= 0.74712E+01 SP= 0.00E+00 SK= 0.00E+00
   3834 T=   273. E= -.10483012E+04 F= -.10560358E+04 E0= -.10560358E+04  EK= 0.77345E+01 SP= 0.00E+00 SK= 0.00E+00
   3835 T=   279. E= -.10482824E+04 F= -.10561896E+04 E0= -.10561896E+04  EK= 0.79072E+01 SP= 0.00E+00 SK= 0.00E+00
   3836 T=   279. E= -.10483059E+04 F= -.10562038E+04 E0= -.10562038E+04  EK= 0.78979E+01 SP= 0.00E+00 SK= 0.00E+00
   3837 T=   275. E= -.10482933E+04 F= -.10560914E+04 E0= -.10560914E+04  EK= 0.77981E+01 SP= 0.00E+00 SK= 0.00E+00
   3838 T=   272. E= -.10482694E+04 F= -.10559554E+04 E0= -.10559554E+04  EK= 0.76860E+01 SP= 0.00E+00 SK= 0.00E+00
   3839 T=   269. E= -.10482396E+04 F= -.10558658E+04 E0= -.10558658E+04  EK= 0.76263E+01 SP= 0.00E+00 SK= 0.00E+00
   3840 T=   267. E= -.10483253E+04 F= -.10558959E+04 E0= -.10558959E+04  EK= 0.75706E+01 SP= 0.00E+00 SK= 0.00E+00
   3841 T=   267. E= -.10484049E+04 F= -.10559719E+04 E0= -.10559719E+04  EK= 0.75670E+01 SP= 0.00E+00 SK= 0.00E+00
   3842 T=   266. E= -.10485124E+04 F= -.10560355E+04 E0= -.10560355E+04  EK= 0.75232E+01 SP= 0.00E+00 SK= 0.00E+00
   3843 T=   257. E= -.10487414E+04 F= -.10560183E+04 E0= -.10560183E+04  EK= 0.72769E+01 SP= 0.00E+00 SK= 0.00E+00
   3844 T=   251. E= -.10488209E+04 F= -.10559404E+04 E0= -.10559404E+04  EK= 0.71194E+01 SP= 0.00E+00 SK= 0.00E+00
   3845 T=   253. E= -.10487230E+04 F= -.10558711E+04 E0= -.10558711E+04  EK= 0.71482E+01 SP= 0.00E+00 SK= 0.00E+00
   3846 T=   249. E= -.10487911E+04 F= -.10558485E+04 E0= -.10558485E+04  EK= 0.70573E+01 SP= 0.00E+00 SK= 0.00E+00
   3847 T=   245. E= -.10489681E+04 F= -.10558975E+04 E0= -.10558975E+04  EK= 0.69294E+01 SP= 0.00E+00 SK= 0.00E+00
   3848 T=   249. E= -.10489773E+04 F= -.10560119E+04 E0= -.10560119E+04  EK= 0.70346E+01 SP= 0.00E+00 SK= 0.00E+00
   3849 T=   255. E= -.10489042E+04 F= -.10561268E+04 E0= -.10561268E+04  EK= 0.72226E+01 SP= 0.00E+00 SK= 0.00E+00
   3850 T=   260. E= -.10488162E+04 F= -.10561851E+04 E0= -.10561851E+04  EK= 0.73688E+01 SP= 0.00E+00 SK= 0.00E+00
   3851 T=   263. E= -.10486999E+04 F= -.10561323E+04 E0= -.10561323E+04  EK= 0.74324E+01 SP= 0.00E+00 SK= 0.00E+00
   3852 T=   263. E= -.10486209E+04 F= -.10560528E+04 E0= -.10560528E+04  EK= 0.74319E+01 SP= 0.00E+00 SK= 0.00E+00
   3853 T=   260. E= -.10485895E+04 F= -.10559617E+04 E0= -.10559617E+04  EK= 0.73722E+01 SP= 0.00E+00 SK= 0.00E+00
   3854 T=   260. E= -.10485305E+04 F= -.10558846E+04 E0= -.10558846E+04  EK= 0.73541E+01 SP= 0.00E+00 SK= 0.00E+00
   3855 T=   262. E= -.10484726E+04 F= -.10558895E+04 E0= -.10558895E+04  EK= 0.74169E+01 SP= 0.00E+00 SK= 0.00E+00
   3856 T=   261. E= -.10485033E+04 F= -.10558860E+04 E0= -.10558860E+04  EK= 0.73827E+01 SP= 0.00E+00 SK= 0.00E+00
   3857 T=   259. E= -.10485316E+04 F= -.10558667E+04 E0= -.10558667E+04  EK= 0.73350E+01 SP= 0.00E+00 SK= 0.00E+00
   3858 T=   257. E= -.10485546E+04 F= -.10558241E+04 E0= -.10558241E+04  EK= 0.72694E+01 SP= 0.00E+00 SK= 0.00E+00
   3859 T=   260. E= -.10484912E+04 F= -.10558381E+04 E0= -.10558381E+04  EK= 0.73469E+01 SP= 0.00E+00 SK= 0.00E+00
   3860 T=   261. E= -.10484024E+04 F= -.10558029E+04 E0= -.10558029E+04  EK= 0.74005E+01 SP= 0.00E+00 SK= 0.00E+00
   3861 T=   258. E= -.10484367E+04 F= -.10557284E+04 E0= -.10557284E+04  EK= 0.72917E+01 SP= 0.00E+00 SK= 0.00E+00
   3862 T=   251. E= -.10485445E+04 F= -.10556518E+04 E0= -.10556518E+04  EK= 0.71072E+01 SP= 0.00E+00 SK= 0.00E+00
   3863 T=   248. E= -.10486042E+04 F= -.10556206E+04 E0= -.10556206E+04  EK= 0.70164E+01 SP= 0.00E+00 SK= 0.00E+00
   3864 T=   254. E= -.10484848E+04 F= -.10556636E+04 E0= -.10556636E+04  EK= 0.71788E+01 SP= 0.00E+00 SK= 0.00E+00
   3865 T=   262. E= -.10483338E+04 F= -.10557517E+04 E0= -.10557517E+04  EK= 0.74179E+01 SP= 0.00E+00 SK= 0.00E+00
   3866 T=   268. E= -.10482031E+04 F= -.10557973E+04 E0= -.10557973E+04  EK= 0.75942E+01 SP= 0.00E+00 SK= 0.00E+00
   3867 T=   273. E= -.10480545E+04 F= -.10557756E+04 E0= -.10557756E+04  EK= 0.77211E+01 SP= 0.00E+00 SK= 0.00E+00
   3868 T=   273. E= -.10479917E+04 F= -.10557258E+04 E0= -.10557258E+04  EK= 0.77341E+01 SP= 0.00E+00 SK= 0.00E+00
   3869 T=   272. E= -.10480205E+04 F= -.10557131E+04 E0= -.10557131E+04  EK= 0.76926E+01 SP= 0.00E+00 SK= 0.00E+00
   3870 T=   274. E= -.10480089E+04 F= -.10557793E+04 E0= -.10557793E+04  EK= 0.77705E+01 SP= 0.00E+00 SK= 0.00E+00
   3871 T=   274. E= -.10480705E+04 F= -.10558282E+04 E0= -.10558282E+04  EK= 0.77577E+01 SP= 0.00E+00 SK= 0.00E+00
   3872 T=   271. E= -.10481685E+04 F= -.10558416E+04 E0= -.10558416E+04  EK= 0.76731E+01 SP= 0.00E+00 SK= 0.00E+00
   3873 T=   271. E= -.10481410E+04 F= -.10558007E+04 E0= -.10558007E+04  EK= 0.76597E+01 SP= 0.00E+00 SK= 0.00E+00
   3874 T=   272. E= -.10481093E+04 F= -.10558188E+04 E0= -.10558188E+04  EK= 0.77095E+01 SP= 0.00E+00 SK= 0.00E+00
   3875 T=   276. E= -.10480459E+04 F= -.10558607E+04 E0= -.10558607E+04  EK= 0.78149E+01 SP= 0.00E+00 SK= 0.00E+00
   3876 T=   280. E= -.10479873E+04 F= -.10559016E+04 E0= -.10559016E+04  EK= 0.79143E+01 SP= 0.00E+00 SK= 0.00E+00
   3877 T=   281. E= -.10479276E+04 F= -.10558821E+04 E0= -.10558821E+04  EK= 0.79546E+01 SP= 0.00E+00 SK= 0.00E+00
   3878 T=   283. E= -.10478406E+04 F= -.10558416E+04 E0= -.10558416E+04  EK= 0.80010E+01 SP= 0.00E+00 SK= 0.00E+00
   3879 T=   280. E= -.10478655E+04 F= -.10557853E+04 E0= -.10557853E+04  EK= 0.79198E+01 SP= 0.00E+00 SK= 0.00E+00
   3880 T=   275. E= -.10479401E+04 F= -.10557131E+04 E0= -.10557131E+04  EK= 0.77731E+01 SP= 0.00E+00 SK= 0.00E+00
   3881 T=   272. E= -.10479288E+04 F= -.10556326E+04 E0= -.10556326E+04  EK= 0.77038E+01 SP= 0.00E+00 SK= 0.00E+00
   3882 T=   271. E= -.10479126E+04 F= -.10555833E+04 E0= -.10555833E+04  EK= 0.76707E+01 SP= 0.00E+00 SK= 0.00E+00
   3883 T=   270. E= -.10479475E+04 F= -.10555901E+04 E0= -.10555901E+04  EK= 0.76426E+01 SP= 0.00E+00 SK= 0.00E+00
   3884 T=   269. E= -.10480231E+04 F= -.10556255E+04 E0= -.10556255E+04  EK= 0.76024E+01 SP= 0.00E+00 SK= 0.00E+00
   3885 T=   268. E= -.10480485E+04 F= -.10556221E+04 E0= -.10556221E+04  EK= 0.75736E+01 SP= 0.00E+00 SK= 0.00E+00
   3886 T=   270. E= -.10479421E+04 F= -.10555793E+04 E0= -.10555793E+04  EK= 0.76372E+01 SP= 0.00E+00 SK= 0.00E+00
       N       E                     dE             d eps       ncg     rms          rms(c)
DAV:   1    -0.675704559902E+03    0.36465E+03   -0.40625E+04 20644   0.353E+02
DAV:   2    -0.104545698922E+04   -0.36975E+03   -0.36428E+03 24288   0.942E+01
DAV:   3    -0.105345024808E+04   -0.79933E+01   -0.79876E+01 24672   0.149E+01
DAV:   4    -0.105357432786E+04   -0.12408E+00   -0.12405E+00 24776   0.181E+00    0.355E+01
DAV:   5    -0.104064918378E+04    0.12925E+02   -0.20485E+01 24904   0.104E+01    0.198E+01
DAV:   6    -0.103936024267E+04    0.12889E+01   -0.20382E+01 24992   0.914E+00    0.506E+00
DAV:   7    -0.103983083455E+04   -0.47059E+00   -0.34693E+00 24192   0.409E+00    0.225E+00
DAV:   8    -0.103986895623E+04   -0.38122E-01   -0.27619E-01 23760   0.110E+00    0.117E+00
DAV:   9    -0.103987787561E+04   -0.89194E-02   -0.14383E-01 23912   0.968E-01    0.641E-01
DAV:  10    -0.103987172281E+04    0.61528E-02   -0.30532E-02 27256   0.515E-01    0.240E-01
DAV:  11    -0.103987159899E+04    0.12382E-03   -0.17127E-02 24040   0.272E-01    0.124E-01
DAV:  12    -0.103987096582E+04    0.63318E-03   -0.15957E-03 23840   0.125E-01    0.515E-02
DAV:  13    -0.103987071388E+04    0.25193E-03   -0.85676E-04 23600   0.831E-02    0.355E-02
DAV:  14    -0.103987056376E+04    0.15013E-03   -0.17089E-04 16616   0.575E-02    0.260E-02
DAV:  15    -0.103987055493E+04    0.88248E-05   -0.20492E-04 18272   0.328E-02
   3887 T=   270. E= -.10478521E+04 F= -.10554886E+04 E0= -.10554886E+04  EK= 0.76365E+01 SP= 0.00E+00 SK= 0.00E+00
   3888 T=   268. E= -.10478395E+04 F= -.10554162E+04 E0= -.10554162E+04  EK= 0.75767E+01 SP= 0.00E+00 SK= 0.00E+00
   3889 T=   272. E= -.10477748E+04 F= -.10554664E+04 E0= -.10554664E+04  EK= 0.76915E+01 SP= 0.00E+00 SK= 0.00E+00
   3890 T=   279. E= -.10476818E+04 F= -.10555724E+04 E0= -.10555724E+04  EK= 0.78906E+01 SP= 0.00E+00 SK= 0.00E+00
   3891 T=   279. E= -.10477315E+04 F= -.10556369E+04 E0= -.10556369E+04  EK= 0.79054E+01 SP= 0.00E+00 SK= 0.00E+00
   3892 T=   280. E= -.10477538E+04 F= -.10556698E+04 E0= -.10556698E+04  EK= 0.79160E+01 SP= 0.00E+00 SK= 0.00E+00
   3893 T=   283. E= -.10476742E+04 F= -.10556949E+04 E0= -.10556949E+04  EK= 0.80207E+01 SP= 0.00E+00 SK= 0.00E+00
   3894 T=   284. E= -.10476234E+04 F= -.10556505E+04 E0= -.10556505E+04  EK= 0.80272E+01 SP= 0.00E+00 SK= 0.00E+00
   3895 T=   278. E= -.10476342E+04 F= -.10554969E+04 E0= -.10554969E+04  EK= 0.78626E+01 SP= 0.00E+00 SK= 0.00E+00
   3896 T=   279. E= -.10474780E+04 F= -.10553696E+04 E0= -.10553696E+04  EK= 0.78915E+01 SP= 0.00E+00 SK= 0.00E+00
   3897 T=   282. E= -.10473061E+04 F= -.10552945E+04 E0= -.10552945E+04  EK= 0.79883E+01 SP= 0.00E+00 SK= 0.00E+00
   3898 T=   284. E= -.10472262E+04 F= -.10552762E+04 E0= -.10552762E+04  EK= 0.80500E+01 SP= 0.00E+00 SK= 0.00E+00
   3899 T=   285. E= -.10472682E+04 F= -.10553281E+04 E0= -.10553281E+04  EK= 0.80599E+01 SP= 0.00E+00 SK= 0.00E+00
   3900 T=   283. E= -.10473105E+04 F= -.10553142E+04 E0= -.10553142E+04  EK= 0.80037E+01 SP= 0.00E+00 SK= 0.00E+00
   3901 T=   278. E= -.10473260E+04 F= -.10552040E+04 E0= -.10552040E+04  EK= 0.78780E+01 SP= 0.00E+00 SK= 0.00E+00
   3902 T=   271. E= -.10474268E+04 F= -.10551003E+04 E0= -.10551003E+04  EK= 0.76735E+01 SP= 0.00E+00 SK= 0.00E+00
   3903 T=   268. E= -.10474663E+04 F= -.10550654E+04 E0= -.10550654E+04  EK= 0.75991E+01 SP= 0.00E+00 SK= 0.00E+00
   3904 T=   266. E= -.10475658E+04 F= -.10551080E+04 E0= -.10551080E+04  EK= 0.75422E+01 SP= 0.00E+00 SK= 0.00E+00
   3905 T=   265. E= -.10476889E+04 F= -.10551875E+04 E0= -.10551875E+04  EK= 0.74986E+01 SP= 0.00E+00 SK= 0.00E+00
   3906 T=   267. E= -.10476956E+04 F= -.10552662E+04 E0= -.10552662E+04  EK= 0.75706E+01 SP= 0.00E+00 SK= 0.00E+00
   3907 T=   271. E= -.10477256E+04 F= -.10553946E+04 E0= -.10553946E+04  EK= 0.76690E+01 SP= 0.00E+00 SK= 0.00E+00
   3908 T=   277. E= -.10477261E+04 F= -.10555602E+04 E0= -.10555602E+04  EK= 0.78341E+01 SP= 0.00E+00 SK= 0.00E+00
   3909 T=   281. E= -.10477173E+04 F= -.10556803E+04 E0= -.10556803E+04  EK= 0.79630E+01 SP= 0.00E+00 SK= 0.00E+00
   3910 T=   281. E= -.10477665E+04 F= -.10557325E+04 E0= -.10557325E+04  EK= 0.79660E+01 SP= 0.00E+00 SK= 0.00E+00
   3911 T=   276. E= -.10478838E+04 F= -.10557092E+04 E0= -.10557092E+04  EK= 0.78255E+01 SP= 0.00E+00 SK= 0.00E+00
   3912 T=   269. E= -.10479957E+04 F= -.10556207E+04 E0= -.10556207E+04  EK= 0.76250E+01 SP= 0.00E+00 SK= 0.00E+00
   3913 T=   265. E= -.10480768E+04 F= -.10555697E+04 E0= -.10555697E+04  EK= 0.74929E+01 SP= 0.00E+00 SK= 0.00E+00
   3914 T=   264. E= -.10480519E+04 F= -.10555372E+04 E0= -.10555372E+04  EK= 0.74852E+01 SP= 0.00E+00 SK= 0.00E+00
   3915 T=   267. E= -.10479448E+04 F= -.10554930E+04 E0= -.10554930E+04  EK= 0.75482E+01 SP= 0.00E+00 SK= 0.00E+00
   3916 T=   267. E= -.10478828E+04 F= -.10554528E+04 E0= -.10554528E+04  EK= 0.75699E+01 SP= 0.00E+00 SK= 0.00E+00
   3917 T=   272. E= -.10477818E+04 F= -.10554780E+04 E0= -.10554780E+04  EK= 0.76962E+01 SP= 0.00E+00 SK= 0.00E+00
   3918 T=   272. E= -.10477661E+04 F= -.10554693E+04 E0= -.10554693E+04  EK= 0.77032E+01 SP= 0.00E+00 SK= 0.00E+00
   3919 T=   265. E= -.10478416E+04 F= -.10553425E+04 E0= -.10553425E+04  EK= 0.75009E+01 SP= 0.00E+00 SK= 0.00E+00
   3920 T=   258. E= -.10478418E+04 F= -.10551579E+04 E0= -.10551579E+04  EK= 0.73160E+01 SP= 0.00E+00 SK= 0.00E+00
   3921 T=   257. E= -.10477406E+04 F= -.10550214E+04 E0= -.10550214E+04  EK= 0.72808E+01 SP= 0.00E+00 SK= 0.00E+00
   3922 T=   262. E= -.10476592E+04 F= -.10550647E+04 E0= -.10550647E+04  EK= 0.74055E+01 SP= 0.00E+00 SK= 0.00E+00
   3923 T=   270. E= -.10476692E+04 F= -.10553032E+04 E0= -.10553032E+04  EK= 0.76340E+01 SP= 0.00E+00 SK= 0.00E+00
   3924 T=   279. E= -.10477044E+04 F= -.10556015E+04 E0= -.10556015E+04  EK= 0.78971E+01 SP= 0.00E+00 SK= 0.00E+00
       N       E                     dE             d eps       ncg     rms          rms(c)
DAV:   1    -0.880559581469E+03    0.15931E+03   -0.24348E+04 20644   0.277E+02
DAV:   2    -0.104403683112E+04   -0.16348E+03   -0.16303E+03 24744   0.644E+01
DAV:   3    -0.104613374469E+04   -0.20969E+01   -0.20962E+01 24904   0.781E+00
DAV:   4    -0.104616706266E+04   -0.33318E-01   -0.33311E-01 24752   0.984E-01    0.281E+01
DAV:   5    -0.104021303309E+04    0.59540E+01   -0.11598E+01 25096   0.791E+00    0.158E+01
DAV:   6    -0.103983702654E+04    0.37601E+00   -0.10102E+01 25208   0.689E+00    0.409E+00
DAV:   7    -0.104008381454E+04   -0.24679E+00   -0.17334E+00 24544   0.290E+00    0.162E+00
DAV:   8    -0.104008194434E+04    0.18702E-02   -0.18127E-01 24184   0.877E-01    0.793E-01
DAV:   9    -0.104007299451E+04    0.89498E-02   -0.42713E-02 24424   0.578E-01    0.344E-01
DAV:  10    -0.104006768851E+04    0.53060E-02   -0.10561E-02 24352   0.355E-01    0.153E-01
DAV:  11    -0.104006554535E+04    0.21432E-02   -0.88037E-03 24328   0.258E-01    0.125E-01
DAV:  12    -0.104006385503E+04    0.16903E-02   -0.19923E-03 24984   0.165E-01    0.513E-02
DAV:  13    -0.104006293529E+04    0.91975E-03   -0.10203E-03 22704   0.162E-01    0.599E-02
DAV:  14    -0.104006287422E+04    0.61067E-04   -0.14350E-03 25072   0.100E-01    0.336E-02
DAV:  15    -0.104006288461E+04   -0.10387E-04   -0.28838E-04 19224   0.312E-02
   3925 T=   285. E= -.10476074E+04 F= -.10556853E+04 E0= -.10556853E+04  EK= 0.80779E+01 SP= 0.00E+00 SK= 0.00E+00
   3926 T=   286. E= -.10476518E+04 F= -.10557506E+04 E0= -.10557506E+04  EK= 0.80988E+01 SP= 0.00E+00 SK= 0.00E+00
   3927 T=   283. E= -.10475920E+04 F= -.10555939E+04 E0= -.10555939E+04  EK= 0.80019E+01 SP= 0.00E+00 SK= 0.00E+00
   3928 T=   280. E= -.10475392E+04 F= -.10554794E+04 E0= -.10554794E+04  EK= 0.79402E+01 SP= 0.00E+00 SK= 0.00E+00
   3929 T=   278. E= -.10475530E+04 F= -.10554324E+04 E0= -.10554324E+04  EK= 0.78795E+01 SP= 0.00E+00 SK= 0.00E+00
   3930 T=   280. E= -.10475137E+04 F= -.10554478E+04 E0= -.10554478E+04  EK= 0.79341E+01 SP= 0.00E+00 SK= 0.00E+00
   3931 T=   284. E= -.10474998E+04 F= -.10555429E+04 E0= -.10555429E+04  EK= 0.80431E+01 SP= 0.00E+00 SK= 0.00E+00
   3932 T=   288. E= -.10474995E+04 F= -.10556648E+04 E0= -.10556648E+04  EK= 0.81653E+01 SP= 0.00E+00 SK= 0.00E+00
   3933 T=   293. E= -.10474261E+04 F= -.10557159E+04 E0= -.10557159E+04  EK= 0.82898E+01 SP= 0.00E+00 SK= 0.00E+00
   3934 T=   289. E= -.10474392E+04 F= -.10556125E+04 E0= -.10556125E+04  EK= 0.81733E+01 SP= 0.00E+00 SK= 0.00E+00
       N       E                     dE             d eps       ncg     rms          rms(c)
DAV:   1    -0.103000941768E+04    0.10053E+02   -0.39223E+03 20644   0.115E+02
DAV:   2    -0.104099887225E+04   -0.10989E+02   -0.10986E+02 24816   0.173E+01
DAV:   3    -0.104109935951E+04   -0.10049E+00   -0.10048E+00 25056   0.173E+00
DAV:   4    -0.104110137275E+04   -0.20132E-02   -0.20131E-02 25032   0.241E-01    0.124E+01
DAV:   5    -0.103975053861E+04    0.13508E+01   -0.27564E+00 25448   0.398E+00    0.669E+00
DAV:   6    -0.103970157351E+04    0.48965E-01   -0.18256E+00 25136   0.294E+00    0.207E+00
DAV:   7    -0.103974096822E+04   -0.39395E-01   -0.33201E-01 24584   0.136E+00    0.698E-01
DAV:   8    -0.103973870019E+04    0.22680E-02   -0.35474E-02 23968   0.407E-01    0.345E-01
DAV:   9    -0.103973528404E+04    0.34161E-02   -0.10462E-02 24232   0.270E-01    0.143E-01
DAV:  10    -0.103973368335E+04    0.16007E-02   -0.25201E-03 26344   0.181E-01    0.796E-02
DAV:  11    -0.103973301482E+04    0.66853E-03   -0.22367E-03 24056   0.134E-01    0.682E-02
DAV:  12    -0.103973255302E+04    0.46180E-03   -0.59273E-04 23808   0.980E-02    0.291E-02
DAV:  13    -0.103973241920E+04    0.13382E-03   -0.36697E-04 22128   0.628E-02    0.363E-02
DAV:  14    -0.103973237942E+04    0.39775E-04   -0.20931E-04 18264   0.432E-02
   3935 T=   280. E= -.10473703E+04 F= -.10552833E+04 E0= -.10552833E+04  EK= 0.79130E+01 SP= 0.00E+00 SK= 0.00E+00
   3936 T=   273. E= -.10474247E+04 F= -.10551558E+04 E0= -.10551558E+04  EK= 0.77310E+01 SP= 0.00E+00 SK= 0.00E+00
   3937 T=   273. E= -.10473321E+04 F= -.10550721E+04 E0= -.10550721E+04  EK= 0.77400E+01 SP= 0.00E+00 SK= 0.00E+00
   3938 T=   275. E= -.10473214E+04 F= -.10550980E+04 E0= -.10550980E+04  EK= 0.77767E+01 SP= 0.00E+00 SK= 0.00E+00
   3939 T=   273. E= -.10474915E+04 F= -.10552172E+04 E0= -.10552172E+04  EK= 0.77257E+01 SP= 0.00E+00 SK= 0.00E+00
   3940 T=   277. E= -.10475635E+04 F= -.10554064E+04 E0= -.10554064E+04  EK= 0.78429E+01 SP= 0.00E+00 SK= 0.00E+00
   3941 T=   283. E= -.10475247E+04 F= -.10555422E+04 E0= -.10555422E+04  EK= 0.80174E+01 SP= 0.00E+00 SK= 0.00E+00
   3942 T=   284. E= -.10475456E+04 F= -.10555742E+04 E0= -.10555742E+04  EK= 0.80286E+01 SP= 0.00E+00 SK= 0.00E+00
   3943 T=   275. E= -.10477033E+04 F= -.10554825E+04 E0= -.10554825E+04  EK= 0.77792E+01 SP= 0.00E+00 SK= 0.00E+00
   3944 T=   266. E= -.10478671E+04 F= -.10553979E+04 E0= -.10553979E+04  EK= 0.75309E+01 SP= 0.00E+00 SK= 0.00E+00
   3945 T=   265. E= -.10479062E+04 F= -.10554173E+04 E0= -.10554173E+04  EK= 0.75110E+01 SP= 0.00E+00 SK= 0.00E+00
   3946 T=   267. E= -.10479854E+04 F= -.10555330E+04 E0= -.10555330E+04  EK= 0.75476E+01 SP= 0.00E+00 SK= 0.00E+00
   3947 T=   271. E= -.10480023E+04 F= -.10556626E+04 E0= -.10556626E+04  EK= 0.76603E+01 SP= 0.00E+00 SK= 0.00E+00
   3948 T=   277. E= -.10478864E+04 F= -.10557306E+04 E0= -.10557306E+04  EK= 0.78442E+01 SP= 0.00E+00 SK= 0.00E+00
   3949 T=   278. E= -.10478757E+04 F= -.10557563E+04 E0= -.10557563E+04  EK= 0.78806E+01 SP= 0.00E+00 SK= 0.00E+00
   3950 T=   275. E= -.10479667E+04 F= -.10557427E+04 E0= -.10557427E+04  EK= 0.77760E+01 SP= 0.00E+00 SK= 0.00E+00
   3951 T=   271. E= -.10480283E+04 F= -.10557105E+04 E0= -.10557105E+04  EK= 0.76822E+01 SP= 0.00E+00 SK= 0.00E+00
   3952 T=   269. E= -.10480289E+04 F= -.10556556E+04 E0= -.10556556E+04  EK= 0.76267E+01 SP= 0.00E+00 SK= 0.00E+00
   3953 T=   269. E= -.10480108E+04 F= -.10556147E+04 E0= -.10556147E+04  EK= 0.76039E+01 SP= 0.00E+00 SK= 0.00E+00
   3954 T=   265. E= -.10480637E+04 F= -.10555587E+04 E0= -.10555587E+04  EK= 0.74950E+01 SP= 0.00E+00 SK= 0.00E+00
   3955 T=   265. E= -.10480517E+04 F= -.10555459E+04 E0= -.10555459E+04  EK= 0.74942E+01 SP= 0.00E+00 SK= 0.00E+00
   3956 T=   269. E= -.10479572E+04 F= -.10555789E+04 E0= -.10555789E+04  EK= 0.76217E+01 SP= 0.00E+00 SK= 0.00E+00
   3957 T=   277. E= -.10478278E+04 F= -.10556572E+04 E0= -.10556572E+04  EK= 0.78294E+01 SP= 0.00E+00 SK= 0.00E+00
   3958 T=   281. E= -.10477259E+04 F= -.10556925E+04 E0= -.10556925E+04  EK= 0.79666E+01 SP= 0.00E+00 SK= 0.00E+00
   3959 T=   279. E= -.10477873E+04 F= -.10556988E+04 E0= -.10556988E+04  EK= 0.79115E+01 SP= 0.00E+00 SK= 0.00E+00
   3960 T=   283. E= -.10477445E+04 F= -.10557554E+04 E0= -.10557554E+04  EK= 0.80109E+01 SP= 0.00E+00 SK= 0.00E+00
   3961 T=   289. E= -.10476476E+04 F= -.10558218E+04 E0= -.10558218E+04  EK= 0.81743E+01 SP= 0.00E+00 SK= 0.00E+00
   3962 T=   286. E= -.10476996E+04 F= -.10558067E+04 E0= -.10558067E+04  EK= 0.81071E+01 SP= 0.00E+00 SK= 0.00E+00
   3963 T=   284. E= -.10476833E+04 F= -.10557262E+04 E0= -.10557262E+04  EK= 0.80430E+01 SP= 0.00E+00 SK= 0.00E+00
   3964 T=   285. E= -.10475577E+04 F= -.10556261E+04 E0= -.10556261E+04  EK= 0.80684E+01 SP= 0.00E+00 SK= 0.00E+00
   3965 T=   283. E= -.10475586E+04 F= -.10555779E+04 E0= -.10555779E+04  EK= 0.80193E+01 SP= 0.00E+00 SK= 0.00E+00
   3966 T=   281. E= -.10476415E+04 F= -.10555855E+04 E0= -.10555855E+04  EK= 0.79440E+01 SP= 0.00E+00 SK= 0.00E+00
   3967 T=   278. E= -.10477149E+04 F= -.10555832E+04 E0= -.10555832E+04  EK= 0.78683E+01 SP= 0.00E+00 SK= 0.00E+00
   3968 T=   277. E= -.10477553E+04 F= -.10556026E+04 E0= -.10556026E+04  EK= 0.78473E+01 SP= 0.00E+00 SK= 0.00E+00
   3969 T=   277. E= -.10477421E+04 F= -.10555859E+04 E0= -.10555859E+04  EK= 0.78438E+01 SP= 0.00E+00 SK= 0.00E+00
   3970 T=   275. E= -.10477154E+04 F= -.10555132E+04 E0= -.10555132E+04  EK= 0.77978E+01 SP= 0.00E+00 SK= 0.00E+00
   3971 T=   275. E= -.10476317E+04 F= -.10554181E+04 E0= -.10554181E+04  EK= 0.77864E+01 SP= 0.00E+00 SK= 0.00E+00
   3972 T=   274. E= -.10475977E+04 F= -.10553528E+04 E0= -.10553528E+04  EK= 0.77551E+01 SP= 0.00E+00 SK= 0.00E+00
   3973 T=   273. E= -.10475754E+04 F= -.10553155E+04 E0= -.10553155E+04  EK= 0.77401E+01 SP= 0.00E+00 SK= 0.00E+00
   3974 T=   275. E= -.10475627E+04 F= -.10553539E+04 E0= -.10553539E+04  EK= 0.77912E+01 SP= 0.00E+00 SK= 0.00E+00
   3975 T=   276. E= -.10476242E+04 F= -.10554320E+04 E0= -.10554320E+04  EK= 0.78077E+01 SP= 0.00E+00 SK= 0.00E+00
   3976 T=   280. E= -.10476063E+04 F= -.10555186E+04 E0= -.10555186E+04  EK= 0.79123E+01 SP= 0.00E+00 SK= 0.00E+00
   3977 T=   288. E= -.10474172E+04 F= -.10555769E+04 E0= -.10555769E+04  EK= 0.81596E+01 SP= 0.00E+00 SK= 0.00E+00
   3978 T=   293. E= -.10472500E+04 F= -.10555353E+04 E0= -.10555353E+04  EK= 0.82854E+01 SP= 0.00E+00 SK= 0.00E+00
   3979 T=   289. E= -.10472400E+04 F= -.10554297E+04 E0= -.10554297E+04  EK= 0.81896E+01 SP= 0.00E+00 SK= 0.00E+00
   3980 T=   287. E= -.10472333E+04 F= -.10553513E+04 E0= -.10553513E+04  EK= 0.81180E+01 SP= 0.00E+00 SK= 0.00E+00
   3981 T=   286. E= -.10472153E+04 F= -.10553154E+04 E0= -.10553154E+04  EK= 0.81002E+01 SP= 0.00E+00 SK= 0.00E+00
   3982 T=   286. E= -.10472029E+04 F= -.10552951E+04 E0= -.10552951E+04  EK= 0.80922E+01 SP= 0.00E+00 SK= 0.00E+00
   3983 T=   288. E= -.10471940E+04 F= -.10553509E+04 E0= -.10553509E+04  EK= 0.81570E+01 SP= 0.00E+00 SK= 0.00E+00
   3984 T=   287. E= -.10472644E+04 F= -.10553811E+04 E0= -.10553811E+04  EK= 0.81167E+01 SP= 0.00E+00 SK= 0.00E+00
   3985 T=   288. E= -.10472003E+04 F= -.10553453E+04 E0= -.10553453E+04  EK= 0.81450E+01 SP= 0.00E+00 SK= 0.00E+00
   3986 T=   293. E= -.10469539E+04 F= -.10552470E+04 E0= -.10552470E+04  EK= 0.82931E+01 SP= 0.00E+00 SK= 0.00E+00
   3987 T=   290. E= -.10469031E+04 F= -.10551079E+04 E0= -.10551079E+04  EK= 0.82047E+01 SP= 0.00E+00 SK= 0.00E+00
   3988 T=   283. E= -.10470095E+04 F= -.10550101E+04 E0= -.10550101E+04  EK= 0.80006E+01 SP= 0.00E+00 SK= 0.00E+00
   3989 T=   281. E= -.10470851E+04 F= -.10550274E+04 E0= -.10550274E+04  EK= 0.79423E+01 SP= 0.00E+00 SK= 0.00E+00
   3990 T=   282. E= -.10471472E+04 F= -.10551179E+04 E0= -.10551179E+04  EK= 0.79707E+01 SP= 0.00E+00 SK= 0.00E+00
   3991 T=   282. E= -.10472879E+04 F= -.10552662E+04 E0= -.10552662E+04  EK= 0.79783E+01 SP= 0.00E+00 SK= 0.00E+00
   3992 T=   279. E= -.10474777E+04 F= -.10553767E+04 E0= -.10553767E+04  EK= 0.78990E+01 SP= 0.00E+00 SK= 0.00E+00
   3993 T=   278. E= -.10475487E+04 F= -.10554063E+04 E0= -.10554063E+04  EK= 0.78576E+01 SP= 0.00E+00 SK= 0.00E+00
   3994 T=   282. E= -.10474175E+04 F= -.10553903E+04 E0= -.10553903E+04  EK= 0.79728E+01 SP= 0.00E+00 SK= 0.00E+00
   3995 T=   279. E= -.10474131E+04 F= -.10553187E+04 E0= -.10553187E+04  EK= 0.79056E+01 SP= 0.00E+00 SK= 0.00E+00
   3996 T=   273. E= -.10475264E+04 F= -.10552613E+04 E0= -.10552613E+04  EK= 0.77349E+01 SP= 0.00E+00 SK= 0.00E+00
   3997 T=   272. E= -.10475474E+04 F= -.10552459E+04 E0= -.10552459E+04  EK= 0.76985E+01 SP= 0.00E+00 SK= 0.00E+00
   3998 T=   278. E= -.10474404E+04 F= -.10553170E+04 E0= -.10553170E+04  EK= 0.78766E+01 SP= 0.00E+00 SK= 0.00E+00
   3999 T=   285. E= -.10473051E+04 F= -.10553593E+04 E0= -.10553593E+04  EK= 0.80542E+01 SP= 0.00E+00 SK= 0.00E+00
   4000 T=   284. E= -.10473482E+04 F= -.10553765E+04 E0= -.10553765E+04  EK= 0.80284E+01 SP= 0.00E+00 SK= 0.00E+00
   4001 T=   277. E= -.10474570E+04 F= -.10552852E+04 E0= -.10552852E+04  EK= 0.78281E+01 SP= 0.00E+00 SK= 0.00E+00
   4002 T=   271. E= -.10475464E+04 F= -.10552141E+04 E0= -.10552141E+04  EK= 0.76677E+01 SP= 0.00E+00 SK= 0.00E+00
   4003 T=   271. E= -.10475059E+04 F= -.10551826E+04 E0= -.10551826E+04  EK= 0.76766E+01 SP= 0.00E+00 SK= 0.00E+00
   4004 T=   270. E= -.10475124E+04 F= -.10551528E+04 E0= -.10551528E+04  EK= 0.76404E+01 SP= 0.00E+00 SK= 0.00E+00
   4005 T=   265. E= -.10476788E+04 F= -.10551873E+04 E0= -.10551873E+04  EK= 0.75085E+01 SP= 0.00E+00 SK= 0.00E+00
   4006 T=   264. E= -.10477836E+04 F= -.10552437E+04 E0= -.10552437E+04  EK= 0.74601E+01 SP= 0.00E+00 SK= 0.00E+00
   4007 T=   265. E= -.10477713E+04 F= -.10552636E+04 E0= -.10552636E+04  EK= 0.74923E+01 SP= 0.00E+00 SK= 0.00E+00
   4008 T=   266. E= -.10477453E+04 F= -.10552728E+04 E0= -.10552728E+04  EK= 0.75275E+01 SP= 0.00E+00 SK= 0.00E+00
   4009 T=   270. E= -.10476847E+04 F= -.10553212E+04 E0= -.10553212E+04  EK= 0.76365E+01 SP= 0.00E+00 SK= 0.00E+00
   4010 T=   273. E= -.10476363E+04 F= -.10553602E+04 E0= -.10553602E+04  EK= 0.77238E+01 SP= 0.00E+00 SK= 0.00E+00
       N       E                     dE             d eps       ncg     rms          rms(c)
DAV:   1    -0.581024142193E+03    0.45871E+03   -0.42272E+04 20644   0.356E+02
DAV:   2    -0.103845323803E+04   -0.45743E+03   -0.44819E+03 24019   0.102E+02
DAV:   3    -0.104963341712E+04   -0.11180E+02   -0.11167E+02 24760   0.175E+01
DAV:   4    -0.104980057765E+04   -0.16716E+00   -0.16711E+00 24936   0.209E+00    0.377E+01
DAV:   5    -0.103825974886E+04    0.11541E+02   -0.40487E+01 24752   0.112E+01    0.201E+01
DAV:   6    -0.103945382899E+04   -0.11941E+01   -0.86730E+00 24416   0.595E+00    0.853E+00
DAV:   7    -0.104034220948E+04   -0.88838E+00   -0.21424E+00 23576   0.326E+00    0.172E+00
DAV:   8    -0.104036156422E+04   -0.19355E-01   -0.21898E-01 24944   0.101E+00    0.896E-01
DAV:   9    -0.104036320086E+04   -0.16366E-02   -0.73869E-02 23576   0.605E-01    0.324E-01
DAV:  10    -0.104036085637E+04    0.23445E-02   -0.12455E-02 25368   0.314E-01    0.166E-01
DAV:  11    -0.104035965895E+04    0.11974E-02   -0.57845E-03 23560   0.190E-01    0.101E-01
DAV:  12    -0.104035848012E+04    0.11788E-02   -0.64382E-04 24064   0.143E-01    0.586E-02
DAV:  13    -0.104035764791E+04    0.83221E-03   -0.13112E-03 23576   0.178E-01    0.457E-02
DAV:  14    -0.104035757740E+04    0.70510E-04   -0.12567E-03 24920   0.990E-02    0.350E-02
DAV:  15    -0.104035757237E+04    0.50276E-05   -0.29998E-04 21032   0.329E-02
   4011 T=   273. E= -.10476490E+04 F= -.10553854E+04 E0= -.10553854E+04  EK= 0.77363E+01 SP= 0.00E+00 SK= 0.00E+00
   4012 T=   272. E= -.10475720E+04 F= -.10552696E+04 E0= -.10552696E+04  EK= 0.76976E+01 SP= 0.00E+00 SK= 0.00E+00
   4013 T=   270. E= -.10474694E+04 F= -.10551150E+04 E0= -.10551150E+04  EK= 0.76455E+01 SP= 0.00E+00 SK= 0.00E+00
   4014 T=   265. E= -.10474210E+04 F= -.10549263E+04 E0= -.10549263E+04  EK= 0.75053E+01 SP= 0.00E+00 SK= 0.00E+00
   4015 T=   262. E= -.10474143E+04 F= -.10548197E+04 E0= -.10548197E+04  EK= 0.74054E+01 SP= 0.00E+00 SK= 0.00E+00
   4016 T=   263. E= -.10473594E+04 F= -.10548124E+04 E0= -.10548124E+04  EK= 0.74530E+01 SP= 0.00E+00 SK= 0.00E+00
   4017 T=   266. E= -.10473262E+04 F= -.10548661E+04 E0= -.10548661E+04  EK= 0.75400E+01 SP= 0.00E+00 SK= 0.00E+00
   4018 T=   269. E= -.10472899E+04 F= -.10549135E+04 E0= -.10549135E+04  EK= 0.76236E+01 SP= 0.00E+00 SK= 0.00E+00
   4019 T=   271. E= -.10472848E+04 F= -.10549696E+04 E0= -.10549696E+04  EK= 0.76848E+01 SP= 0.00E+00 SK= 0.00E+00
   4020 T=   270. E= -.10473082E+04 F= -.10549432E+04 E0= -.10549432E+04  EK= 0.76350E+01 SP= 0.00E+00 SK= 0.00E+00
       N       E                     dE             d eps       ncg     rms          rms(c)
DAV:   1    -0.103360313900E+04    0.67544E+01   -0.29000E+03 20644   0.993E+01
DAV:   2    -0.104099481026E+04   -0.73917E+01   -0.73895E+01 24888   0.144E+01
DAV:   3    -0.104106440921E+04   -0.69599E-01   -0.69593E-01 25008   0.145E+00
DAV:   4    -0.104106586871E+04   -0.14595E-02   -0.14594E-02 25016   0.206E-01    0.116E+01
DAV:   5    -0.103998690175E+04    0.10790E+01   -0.23212E+00 25240   0.371E+00    0.634E+00
DAV:   6    -0.103999626980E+04   -0.93681E-02   -0.15368E+00 24840   0.259E+00    0.193E+00
DAV:   7    -0.104003310071E+04   -0.36831E-01   -0.28517E-01 25048   0.133E+00    0.638E-01
DAV:   8    -0.104003211132E+04    0.98939E-03   -0.35131E-02 23784   0.426E-01    0.344E-01
DAV:   9    -0.104002979676E+04    0.23146E-02   -0.15033E-02 23952   0.277E-01    0.176E-01
DAV:  10    -0.104002806674E+04    0.17300E-02   -0.28808E-03 28296   0.196E-01    0.660E-02
DAV:  11    -0.104002751155E+04    0.55518E-03   -0.19959E-03 23688   0.111E-01    0.638E-02
DAV:  12    -0.104002693762E+04    0.57393E-03   -0.37580E-04 20608   0.851E-02    0.216E-02
DAV:  13    -0.104002677992E+04    0.15770E-03   -0.45133E-04 22232   0.687E-02    0.346E-02
DAV:  14    -0.104002674917E+04    0.30753E-04   -0.22523E-04 18512   0.419E-02
   4021 T=   270. E= -.10473599E+04 F= -.10550069E+04 E0= -.10550069E+04  EK= 0.76469E+01 SP= 0.00E+00 SK= 0.00E+00
   4022 T=   269. E= -.10472691E+04 F= -.10548916E+04 E0= -.10548916E+04  EK= 0.76225E+01 SP= 0.00E+00 SK= 0.00E+00
   4023 T=   268. E= -.10473149E+04 F= -.10549049E+04 E0= -.10549049E+04  EK= 0.75900E+01 SP= 0.00E+00 SK= 0.00E+00
   4024 T=   273. E= -.10472280E+04 F= -.10549667E+04 E0= -.10549667E+04  EK= 0.77387E+01 SP= 0.00E+00 SK= 0.00E+00
   4025 T=   283. E= -.10470277E+04 F= -.10550276E+04 E0= -.10550276E+04  EK= 0.79999E+01 SP= 0.00E+00 SK= 0.00E+00
   4026 T=   288. E= -.10469182E+04 F= -.10550609E+04 E0= -.10550609E+04  EK= 0.81427E+01 SP= 0.00E+00 SK= 0.00E+00
   4027 T=   281. E= -.10470633E+04 F= -.10550155E+04 E0= -.10550155E+04  EK= 0.79522E+01 SP= 0.00E+00 SK= 0.00E+00
   4028 T=   274. E= -.10472172E+04 F= -.10549651E+04 E0= -.10549651E+04  EK= 0.77479E+01 SP= 0.00E+00 SK= 0.00E+00
   4029 T=   276. E= -.10471642E+04 F= -.10549641E+04 E0= -.10549641E+04  EK= 0.77999E+01 SP= 0.00E+00 SK= 0.00E+00
   4030 T=   276. E= -.10471356E+04 F= -.10549356E+04 E0= -.10549356E+04  EK= 0.78000E+01 SP= 0.00E+00 SK= 0.00E+00
       N       E                     dE             d eps       ncg     rms          rms(c)
DAV:   1    -0.103174379741E+04    0.82830E+01   -0.33906E+03 20644   0.107E+02
DAV:   2    -0.104115828765E+04   -0.94145E+01   -0.94116E+01 24992   0.161E+01
DAV:   3    -0.104124517400E+04   -0.86886E-01   -0.86877E-01 25040   0.163E+00
DAV:   4    -0.104124702210E+04   -0.18481E-02   -0.18480E-02 25000   0.230E-01    0.121E+01
DAV:   5    -0.103995453882E+04    0.12925E+01   -0.25635E+00 25720   0.408E+00    0.651E+00
DAV:   6    -0.103993130430E+04    0.23235E-01   -0.18654E+00 25184   0.294E+00    0.195E+00
DAV:   7    -0.103997438662E+04   -0.43082E-01   -0.33488E-01 24512   0.138E+00    0.666E-01
DAV:   8    -0.103997313673E+04    0.12499E-02   -0.32051E-02 24128   0.434E-01    0.338E-01
DAV:   9    -0.103997152041E+04    0.16163E-02   -0.15587E-02 24016   0.300E-01    0.186E-01
DAV:  10    -0.103997015128E+04    0.13691E-02   -0.38978E-03 29192   0.207E-01    0.612E-02
DAV:  11    -0.103996984242E+04    0.30886E-03   -0.15048E-03 23656   0.921E-02    0.570E-02
DAV:  12    -0.103996945095E+04    0.39148E-03   -0.26538E-04 19368   0.848E-02    0.207E-02
DAV:  13    -0.103996936501E+04    0.85936E-04   -0.44985E-04 22480   0.662E-02
   4031 T=   273. E= -.10471868E+04 F= -.10549248E+04 E0= -.10549248E+04  EK= 0.77380E+01 SP= 0.00E+00 SK= 0.00E+00
   4032 T=   275. E= -.10472037E+04 F= -.10549918E+04 E0= -.10549918E+04  EK= 0.77881E+01 SP= 0.00E+00 SK= 0.00E+00
   4033 T=   276. E= -.10471644E+04 F= -.10549837E+04 E0= -.10549837E+04  EK= 0.78193E+01 SP= 0.00E+00 SK= 0.00E+00
   4034 T=   275. E= -.10471783E+04 F= -.10549753E+04 E0= -.10549753E+04  EK= 0.77970E+01 SP= 0.00E+00 SK= 0.00E+00
   4035 T=   274. E= -.10472043E+04 F= -.10549479E+04 E0= -.10549479E+04  EK= 0.77436E+01 SP= 0.00E+00 SK= 0.00E+00
   4036 T=   274. E= -.10472351E+04 F= -.10550041E+04 E0= -.10550041E+04  EK= 0.77690E+01 SP= 0.00E+00 SK= 0.00E+00
   4037 T=   276. E= -.10473268E+04 F= -.10551517E+04 E0= -.10551517E+04  EK= 0.78248E+01 SP= 0.00E+00 SK= 0.00E+00
   4038 T=   280. E= -.10473871E+04 F= -.10553138E+04 E0= -.10553138E+04  EK= 0.79267E+01 SP= 0.00E+00 SK= 0.00E+00
   4039 T=   283. E= -.10474100E+04 F= -.10554147E+04 E0= -.10554147E+04  EK= 0.80046E+01 SP= 0.00E+00 SK= 0.00E+00
   4040 T=   284. E= -.10474115E+04 F= -.10554383E+04 E0= -.10554383E+04  EK= 0.80268E+01 SP= 0.00E+00 SK= 0.00E+00
   4041 T=   283. E= -.10474555E+04 F= -.10554637E+04 E0= -.10554637E+04  EK= 0.80082E+01 SP= 0.00E+00 SK= 0.00E+00
   4042 T=   282. E= -.10475590E+04 F= -.10555518E+04 E0= -.10555518E+04  EK= 0.79928E+01 SP= 0.00E+00 SK= 0.00E+00
   4043 T=   283. E= -.10476069E+04 F= -.10556156E+04 E0= -.10556156E+04  EK= 0.80087E+01 SP= 0.00E+00 SK= 0.00E+00
   4044 T=   283. E= -.10475706E+04 F= -.10555835E+04 E0= -.10555835E+04  EK= 0.80129E+01 SP= 0.00E+00 SK= 0.00E+00
   4045 T=   278. E= -.10475955E+04 F= -.10554691E+04 E0= -.10554691E+04  EK= 0.78735E+01 SP= 0.00E+00 SK= 0.00E+00
   4046 T=   269. E= -.10477098E+04 F= -.10553374E+04 E0= -.10553374E+04  EK= 0.76275E+01 SP= 0.00E+00 SK= 0.00E+00
   4047 T=   265. E= -.10478004E+04 F= -.10552946E+04 E0= -.10552946E+04  EK= 0.74942E+01 SP= 0.00E+00 SK= 0.00E+00
   4048 T=   267. E= -.10477588E+04 F= -.10553161E+04 E0= -.10553161E+04  EK= 0.75573E+01 SP= 0.00E+00 SK= 0.00E+00
       N       E                     dE             d eps       ncg     rms          rms(c)
DAV:   1    -0.101020028515E+04    0.29769E+02   -0.87467E+03 20644   0.171E+02
DAV:   2    -0.104217798108E+04   -0.31978E+02   -0.31962E+02 24632   0.289E+01
DAV:   3    -0.104247750580E+04   -0.29952E+00   -0.29947E+00 25032   0.306E+00
DAV:   4    -0.104248332189E+04   -0.58161E-02   -0.58154E-02 25008   0.414E-01    0.175E+01
DAV:   5    -0.104034495841E+04    0.21384E+01   -0.30797E+00 24752   0.421E+00    0.101E+01
DAV:   6    -0.104034391593E+04    0.10425E-02   -0.45898E+00 25168   0.461E+00    0.192E+00
DAV:   7    -0.104040408130E+04   -0.60165E-01   -0.78223E-01 23752   0.193E+00    0.923E-01
DAV:   8    -0.104040296838E+04    0.11129E-02   -0.64478E-02 24840   0.509E-01    0.505E-01
DAV:   9    -0.104040059275E+04    0.23756E-02   -0.28278E-02 23920   0.445E-01    0.290E-01
DAV:  10    -0.104039792374E+04    0.26690E-02   -0.72805E-03 26032   0.281E-01    0.109E-01
DAV:  11    -0.104039737555E+04    0.54819E-03   -0.51230E-03 24376   0.172E-01    0.889E-02
DAV:  12    -0.104039668411E+04    0.69143E-03   -0.77414E-04 23864   0.105E-01    0.369E-02
DAV:  13    -0.104039637158E+04    0.31253E-03   -0.61950E-04 22304   0.102E-01    0.442E-02
DAV:  14    -0.104039631224E+04    0.59340E-04   -0.47014E-04 24520   0.633E-02
   4049 T=   270. E= -.10476880E+04 F= -.10553446E+04 E0= -.10553446E+04  EK= 0.76567E+01 SP= 0.00E+00 SK= 0.00E+00
   4050 T=   271. E= -.10476095E+04 F= -.10552799E+04 E0= -.10552799E+04  EK= 0.76704E+01 SP= 0.00E+00 SK= 0.00E+00
   4051 T=   264. E= -.10476491E+04 F= -.10551177E+04 E0= -.10551177E+04  EK= 0.74686E+01 SP= 0.00E+00 SK= 0.00E+00
   4052 T=   255. E= -.10477315E+04 F= -.10549639E+04 E0= -.10549639E+04  EK= 0.72324E+01 SP= 0.00E+00 SK= 0.00E+00
   4053 T=   257. E= -.10476606E+04 F= -.10549269E+04 E0= -.10549269E+04  EK= 0.72663E+01 SP= 0.00E+00 SK= 0.00E+00
   4054 T=   261. E= -.10475925E+04 F= -.10549792E+04 E0= -.10549792E+04  EK= 0.73867E+01 SP= 0.00E+00 SK= 0.00E+00
   4055 T=   263. E= -.10475405E+04 F= -.10549979E+04 E0= -.10549979E+04  EK= 0.74574E+01 SP= 0.00E+00 SK= 0.00E+00
   4056 T=   261. E= -.10476041E+04 F= -.10549854E+04 E0= -.10549854E+04  EK= 0.73813E+01 SP= 0.00E+00 SK= 0.00E+00
   4057 T=   254. E= -.10477900E+04 F= -.10549664E+04 E0= -.10549664E+04  EK= 0.71764E+01 SP= 0.00E+00 SK= 0.00E+00
   4058 T=   255. E= -.10477738E+04 F= -.10549997E+04 E0= -.10549997E+04  EK= 0.72259E+01 SP= 0.00E+00 SK= 0.00E+00
       N       E                     dE             d eps       ncg     rms          rms(c)
DAV:   1    -0.103359632538E+04    0.68000E+01   -0.28514E+03 20644   0.986E+01
DAV:   2    -0.104088038236E+04   -0.72841E+01   -0.72818E+01 25032   0.144E+01
DAV:   3    -0.104094750314E+04   -0.67121E-01   -0.67115E-01 24960   0.142E+00
DAV:   4    -0.104094890722E+04   -0.14041E-02   -0.14040E-02 25032   0.201E-01    0.112E+01
DAV:   5    -0.103995560849E+04    0.99330E+00   -0.19597E+00 25568   0.352E+00    0.615E+00
DAV:   6    -0.103997393029E+04   -0.18322E-01   -0.16126E+00 24872   0.264E+00    0.172E+00
DAV:   7    -0.104001041284E+04   -0.36483E-01   -0.28955E-01 24696   0.134E+00    0.619E-01
DAV:   8    -0.104000989132E+04    0.52153E-03   -0.32966E-02 23720   0.424E-01    0.315E-01
DAV:   9    -0.104000920051E+04    0.69081E-03   -0.14385E-02 23872   0.258E-01    0.185E-01
DAV:  10    -0.104000799624E+04    0.12043E-02   -0.36476E-03 28984   0.203E-01    0.543E-02
DAV:  11    -0.104000777852E+04    0.21771E-03   -0.13705E-03 23712   0.830E-02    0.503E-02
DAV:  12    -0.104000743990E+04    0.33863E-03   -0.17650E-04 17896   0.681E-02    0.201E-02
DAV:  13    -0.104000732115E+04    0.11874E-03   -0.36505E-04 21832   0.659E-02    0.251E-02
DAV:  14    -0.104000731183E+04    0.93232E-05   -0.18034E-04 17632   0.355E-02
   4059 T=   263. E= -.10476061E+04 F= -.10550623E+04 E0= -.10550623E+04  EK= 0.74562E+01 SP= 0.00E+00 SK= 0.00E+00
   4060 T=   266. E= -.10475613E+04 F= -.10550775E+04 E0= -.10550775E+04  EK= 0.75162E+01 SP= 0.00E+00 SK= 0.00E+00
   4061 T=   263. E= -.10475440E+04 F= -.10549820E+04 E0= -.10549820E+04  EK= 0.74380E+01 SP= 0.00E+00 SK= 0.00E+00
   4062 T=   258. E= -.10475892E+04 F= -.10548878E+04 E0= -.10548878E+04  EK= 0.72986E+01 SP= 0.00E+00 SK= 0.00E+00
   4063 T=   253. E= -.10476652E+04 F= -.10548229E+04 E0= -.10548229E+04  EK= 0.71577E+01 SP= 0.00E+00 SK= 0.00E+00
   4064 T=   254. E= -.10476266E+04 F= -.10548058E+04 E0= -.10548058E+04  EK= 0.71791E+01 SP= 0.00E+00 SK= 0.00E+00
   4065 T=   255. E= -.10475976E+04 F= -.10548158E+04 E0= -.10548158E+04  EK= 0.72182E+01 SP= 0.00E+00 SK= 0.00E+00
   4066 T=   252. E= -.10477156E+04 F= -.10548397E+04 E0= -.10548397E+04  EK= 0.71241E+01 SP= 0.00E+00 SK= 0.00E+00
   4067 T=   252. E= -.10477054E+04 F= -.10548313E+04 E0= -.10548313E+04  EK= 0.71258E+01 SP= 0.00E+00 SK= 0.00E+00
   4068 T=   256. E= -.10476083E+04 F= -.10548481E+04 E0= -.10548481E+04  EK= 0.72398E+01 SP= 0.00E+00 SK= 0.00E+00
       N       E                     dE             d eps       ncg     rms          rms(c)
DAV:   1    -0.103389423641E+04    0.61131E+01   -0.26616E+03 20644   0.953E+01
DAV:   2    -0.104066845010E+04   -0.67742E+01   -0.67724E+01 25072   0.138E+01
DAV:   3    -0.104073218786E+04   -0.63738E-01   -0.63733E-01 24904   0.138E+00
DAV:   4    -0.104073355121E+04   -0.13634E-02   -0.13633E-02 25024   0.197E-01    0.115E+01
DAV:   5    -0.103963038424E+04    0.11032E+01   -0.24248E+00 25368   0.388E+00    0.615E+00
DAV:   6    -0.103963389613E+04   -0.35119E-02   -0.14903E+00 24944   0.265E+00    0.199E+00
DAV:   7    -0.103967379367E+04   -0.39898E-01   -0.28924E-01 24864   0.129E+00    0.657E-01
DAV:   8    -0.103967343172E+04    0.36195E-03   -0.29122E-02 24176   0.400E-01    0.351E-01
DAV:   9    -0.103967158894E+04    0.18428E-02   -0.14206E-02 24152   0.300E-01    0.172E-01
DAV:  10    -0.103967018533E+04    0.14036E-02   -0.32131E-03 28128   0.203E-01    0.665E-02
DAV:  11    -0.103966973527E+04    0.45006E-03   -0.18677E-03 23952   0.116E-01    0.623E-02
DAV:  12    -0.103966928788E+04    0.44739E-03   -0.35822E-04 21296   0.934E-02    0.238E-02
DAV:  13    -0.103966913251E+04    0.15537E-03   -0.41118E-04 22232   0.788E-02    0.326E-02
DAV:  14    -0.103966911487E+04    0.17638E-04   -0.31036E-04 23080   0.460E-02
   4069 T=   258. E= -.10474843E+04 F= -.10547940E+04 E0= -.10547940E+04  EK= 0.73097E+01 SP= 0.00E+00 SK= 0.00E+00
   4070 T=   261. E= -.10475629E+04 F= -.10549618E+04 E0= -.10549618E+04  EK= 0.73990E+01 SP= 0.00E+00 SK= 0.00E+00
   4071 T=   264. E= -.10475934E+04 F= -.10550725E+04 E0= -.10550725E+04  EK= 0.74791E+01 SP= 0.00E+00 SK= 0.00E+00
   4072 T=   268. E= -.10476208E+04 F= -.10552041E+04 E0= -.10552041E+04  EK= 0.75833E+01 SP= 0.00E+00 SK= 0.00E+00
   4073 T=   272. E= -.10476465E+04 F= -.10553521E+04 E0= -.10553521E+04  EK= 0.77056E+01 SP= 0.00E+00 SK= 0.00E+00
   4074 T=   276. E= -.10476566E+04 F= -.10554637E+04 E0= -.10554637E+04  EK= 0.78072E+01 SP= 0.00E+00 SK= 0.00E+00
   4075 T=   278. E= -.10476121E+04 F= -.10554882E+04 E0= -.10554882E+04  EK= 0.78761E+01 SP= 0.00E+00 SK= 0.00E+00
   4076 T=   277. E= -.10475846E+04 F= -.10554388E+04 E0= -.10554388E+04  EK= 0.78542E+01 SP= 0.00E+00 SK= 0.00E+00
   4077 T=   276. E= -.10475988E+04 F= -.10554037E+04 E0= -.10554037E+04  EK= 0.78050E+01 SP= 0.00E+00 SK= 0.00E+00
   4078 T=   278. E= -.10475691E+04 F= -.10554449E+04 E0= -.10554449E+04  EK= 0.78757E+01 SP= 0.00E+00 SK= 0.00E+00
   4079 T=   284. E= -.10475101E+04 F= -.10555545E+04 E0= -.10555545E+04  EK= 0.80444E+01 SP= 0.00E+00 SK= 0.00E+00
   4080 T=   289. E= -.10474628E+04 F= -.10556500E+04 E0= -.10556500E+04  EK= 0.81872E+01 SP= 0.00E+00 SK= 0.00E+00
   4081 T=   289. E= -.10474917E+04 F= -.10556851E+04 E0= -.10556851E+04  EK= 0.81934E+01 SP= 0.00E+00 SK= 0.00E+00
   4082 T=   284. E= -.10475913E+04 F= -.10556311E+04 E0= -.10556311E+04  EK= 0.80398E+01 SP= 0.00E+00 SK= 0.00E+00
   4083 T=   279. E= -.10476574E+04 F= -.10555503E+04 E0= -.10555503E+04  EK= 0.78929E+01 SP= 0.00E+00 SK= 0.00E+00
   4084 T=   273. E= -.10477883E+04 F= -.10555228E+04 E0= -.10555228E+04  EK= 0.77345E+01 SP= 0.00E+00 SK= 0.00E+00
   4085 T=   273. E= -.10478643E+04 F= -.10555878E+04 E0= -.10555878E+04  EK= 0.77235E+01 SP= 0.00E+00 SK= 0.00E+00
   4086 T=   277. E= -.10478831E+04 F= -.10557151E+04 E0= -.10557151E+04  EK= 0.78320E+01 SP= 0.00E+00 SK= 0.00E+00
   4087 T=   282. E= -.10478637E+04 F= -.10558448E+04 E0= -.10558448E+04  EK= 0.79812E+01 SP= 0.00E+00 SK= 0.00E+00
   4088 T=   288. E= -.10477477E+04 F= -.10558981E+04 E0= -.10558981E+04  EK= 0.81505E+01 SP= 0.00E+00 SK= 0.00E+00
   4089 T=   292. E= -.10476500E+04 F= -.10559296E+04 E0= -.10559296E+04  EK= 0.82795E+01 SP= 0.00E+00 SK= 0.00E+00
   4090 T=   293. E= -.10476376E+04 F= -.10559211E+04 E0= -.10559211E+04  EK= 0.82836E+01 SP= 0.00E+00 SK= 0.00E+00
   4091 T=   296. E= -.10475243E+04 F= -.10559151E+04 E0= -.10559151E+04  EK= 0.83907E+01 SP= 0.00E+00 SK= 0.00E+00
   4092 T=   299. E= -.10474581E+04 F= -.10559192E+04 E0= -.10559192E+04  EK= 0.84611E+01 SP= 0.00E+00 SK= 0.00E+00
   4093 T=   300. E= -.10474226E+04 F= -.10559192E+04 E0= -.10559192E+04  EK= 0.84966E+01 SP= 0.00E+00 SK= 0.00E+00
   4094 T=   306. E= -.10473360E+04 F= -.10559962E+04 E0= -.10559962E+04  EK= 0.86602E+01 SP= 0.00E+00 SK= 0.00E+00
   4095 T=   304. E= -.10474244E+04 F= -.10560291E+04 E0= -.10560291E+04  EK= 0.86047E+01 SP= 0.00E+00 SK= 0.00E+00
   4096 T=   298. E= -.10475159E+04 F= -.10559589E+04 E0= -.10559589E+04  EK= 0.84430E+01 SP= 0.00E+00 SK= 0.00E+00
   4097 T=   292. E= -.10474859E+04 F= -.10557517E+04 E0= -.10557517E+04  EK= 0.82658E+01 SP= 0.00E+00 SK= 0.00E+00
   4098 T=   282. E= -.10474523E+04 F= -.10554409E+04 E0= -.10554409E+04  EK= 0.79886E+01 SP= 0.00E+00 SK= 0.00E+00
   4099 T=   275. E= -.10474606E+04 F= -.10552427E+04 E0= -.10552427E+04  EK= 0.77821E+01 SP= 0.00E+00 SK= 0.00E+00
   4100 T=   275. E= -.10474419E+04 F= -.10552325E+04 E0= -.10552325E+04  EK= 0.77906E+01 SP= 0.00E+00 SK= 0.00E+00
   4101 T=   280. E= -.10474660E+04 F= -.10553784E+04 E0= -.10553784E+04  EK= 0.79124E+01 SP= 0.00E+00 SK= 0.00E+00
   4102 T=   281. E= -.10476213E+04 F= -.10555827E+04 E0= -.10555827E+04  EK= 0.79615E+01 SP= 0.00E+00 SK= 0.00E+00
   4103 T=   284. E= -.10477214E+04 F= -.10557565E+04 E0= -.10557565E+04  EK= 0.80351E+01 SP= 0.00E+00 SK= 0.00E+00
   4104 T=   284. E= -.10477251E+04 F= -.10557742E+04 E0= -.10557742E+04  EK= 0.80491E+01 SP= 0.00E+00 SK= 0.00E+00
   4105 T=   281. E= -.10477280E+04 F= -.10556841E+04 E0= -.10556841E+04  EK= 0.79561E+01 SP= 0.00E+00 SK= 0.00E+00
   4106 T=   277. E= -.10477056E+04 F= -.10555466E+04 E0= -.10555466E+04  EK= 0.78410E+01 SP= 0.00E+00 SK= 0.00E+00
   4107 T=   270. E= -.10478169E+04 F= -.10554496E+04 E0= -.10554496E+04  EK= 0.76327E+01 SP= 0.00E+00 SK= 0.00E+00
   4108 T=   268. E= -.10479083E+04 F= -.10555053E+04 E0= -.10555053E+04  EK= 0.75969E+01 SP= 0.00E+00 SK= 0.00E+00
   4109 T=   275. E= -.10478931E+04 F= -.10556816E+04 E0= -.10556816E+04  EK= 0.77885E+01 SP= 0.00E+00 SK= 0.00E+00
   4110 T=   284. E= -.10478911E+04 F= -.10559239E+04 E0= -.10559239E+04  EK= 0.80328E+01 SP= 0.00E+00 SK= 0.00E+00
   4111 T=   291. E= -.10477613E+04 F= -.10560129E+04 E0= -.10560129E+04  EK= 0.82516E+01 SP= 0.00E+00 SK= 0.00E+00
   4112 T=   290. E= -.10477127E+04 F= -.10559245E+04 E0= -.10559245E+04  EK= 0.82118E+01 SP= 0.00E+00 SK= 0.00E+00
   4113 T=   278. E= -.10478168E+04 F= -.10556739E+04 E0= -.10556739E+04  EK= 0.78571E+01 SP= 0.00E+00 SK= 0.00E+00
   4114 T=   271. E= -.10477296E+04 F= -.10554033E+04 E0= -.10554033E+04  EK= 0.76737E+01 SP= 0.00E+00 SK= 0.00E+00
   4115 T=   272. E= -.10474780E+04 F= -.10551906E+04 E0= -.10551906E+04  EK= 0.77126E+01 SP= 0.00E+00 SK= 0.00E+00
   4116 T=   274. E= -.10473579E+04 F= -.10551044E+04 E0= -.10551044E+04  EK= 0.77465E+01 SP= 0.00E+00 SK= 0.00E+00
   4117 T=   278. E= -.10472707E+04 F= -.10551463E+04 E0= -.10551463E+04  EK= 0.78756E+01 SP= 0.00E+00 SK= 0.00E+00
   4118 T=   284. E= -.10472116E+04 F= -.10552389E+04 E0= -.10552389E+04  EK= 0.80272E+01 SP= 0.00E+00 SK= 0.00E+00
   4119 T=   286. E= -.10472408E+04 F= -.10553279E+04 E0= -.10553279E+04  EK= 0.80871E+01 SP= 0.00E+00 SK= 0.00E+00
   4120 T=   289. E= -.10472078E+04 F= -.10554001E+04 E0= -.10554001E+04  EK= 0.81923E+01 SP= 0.00E+00 SK= 0.00E+00
   4121 T=   292. E= -.10471556E+04 F= -.10554262E+04 E0= -.10554262E+04  EK= 0.82705E+01 SP= 0.00E+00 SK= 0.00E+00
   4122 T=   288. E= -.10471890E+04 F= -.10553471E+04 E0= -.10553471E+04  EK= 0.81580E+01 SP= 0.00E+00 SK= 0.00E+00
   4123 T=   284. E= -.10471843E+04 F= -.10552328E+04 E0= -.10552328E+04  EK= 0.80485E+01 SP= 0.00E+00 SK= 0.00E+00
   4124 T=   280. E= -.10472100E+04 F= -.10551281E+04 E0= -.10551281E+04  EK= 0.79181E+01 SP= 0.00E+00 SK= 0.00E+00
   4125 T=   274. E= -.10473363E+04 F= -.10550870E+04 E0= -.10550870E+04  EK= 0.77507E+01 SP= 0.00E+00 SK= 0.00E+00
   4126 T=   273. E= -.10474313E+04 F= -.10551476E+04 E0= -.10551476E+04  EK= 0.77164E+01 SP= 0.00E+00 SK= 0.00E+00
       N       E                     dE             d eps       ncg     rms          rms(c)
DAV:   1    -0.711949085650E+03    0.32772E+03   -0.36016E+04 20644   0.331E+02
DAV:   2    -0.104463758293E+04   -0.33269E+03   -0.33017E+03 24288   0.888E+01
DAV:   3    -0.105109613675E+04   -0.64586E+01   -0.64549E+01 24760   0.135E+01
DAV:   4    -0.105119691999E+04   -0.10078E+00   -0.10077E+00 24672   0.163E+00    0.339E+01
DAV:   5    -0.104005930866E+04    0.11138E+02   -0.20098E+01 24808   0.104E+01    0.189E+01
DAV:   6    -0.103936393072E+04    0.69538E+00   -0.18007E+01 25008   0.851E+00    0.537E+00
DAV:   7    -0.103982581516E+04   -0.46188E+00   -0.31469E+00 24400   0.412E+00    0.208E+00
DAV:   8    -0.103984808874E+04   -0.22274E-01   -0.28811E-01 23712   0.125E+00    0.111E+00
DAV:   9    -0.103985854786E+04   -0.10459E-01   -0.17863E-01 24160   0.968E-01    0.708E-01
DAV:  10    -0.103984870048E+04    0.98474E-02   -0.39411E-02 29024   0.586E-01    0.201E-01
DAV:  11    -0.103984858302E+04    0.11746E-03   -0.14408E-02 24160   0.248E-01    0.118E-01
DAV:  12    -0.103984786329E+04    0.71973E-03   -0.10802E-03 23720   0.110E-01    0.751E-02
DAV:  13    -0.103984734097E+04    0.52232E-03   -0.11180E-03 23120   0.116E-01    0.363E-02
DAV:  14    -0.103984719825E+04    0.14272E-03   -0.51429E-04 24472   0.753E-02    0.436E-02
DAV:  15    -0.103984716904E+04    0.29207E-04   -0.25938E-04 19824   0.380E-02
   4127 T=   277. E= -.10473887E+04 F= -.10552250E+04 E0= -.10552250E+04  EK= 0.78364E+01 SP= 0.00E+00 SK= 0.00E+00
   4128 T=   279. E= -.10473830E+04 F= -.10552931E+04 E0= -.10552931E+04  EK= 0.79101E+01 SP= 0.00E+00 SK= 0.00E+00
   4129 T=   279. E= -.10473382E+04 F= -.10552423E+04 E0= -.10552423E+04  EK= 0.79041E+01 SP= 0.00E+00 SK= 0.00E+00
   4130 T=   278. E= -.10472133E+04 F= -.10550864E+04 E0= -.10550864E+04  EK= 0.78730E+01 SP= 0.00E+00 SK= 0.00E+00
   4131 T=   277. E= -.10470993E+04 F= -.10549542E+04 E0= -.10549542E+04  EK= 0.78549E+01 SP= 0.00E+00 SK= 0.00E+00
   4132 T=   279. E= -.10469623E+04 F= -.10548484E+04 E0= -.10548484E+04  EK= 0.78861E+01 SP= 0.00E+00 SK= 0.00E+00
   4133 T=   281. E= -.10468467E+04 F= -.10547997E+04 E0= -.10547997E+04  EK= 0.79531E+01 SP= 0.00E+00 SK= 0.00E+00
   4134 T=   284. E= -.10468378E+04 F= -.10548792E+04 E0= -.10548792E+04  EK= 0.80414E+01 SP= 0.00E+00 SK= 0.00E+00
   4135 T=   290. E= -.10468111E+04 F= -.10550135E+04 E0= -.10550135E+04  EK= 0.82025E+01 SP= 0.00E+00 SK= 0.00E+00
   4136 T=   296. E= -.10467025E+04 F= -.10550688E+04 E0= -.10550688E+04  EK= 0.83662E+01 SP= 0.00E+00 SK= 0.00E+00
       N       E                     dE             d eps       ncg     rms          rms(c)
DAV:   1    -0.103185408356E+04    0.79931E+01   -0.34083E+03 20644   0.108E+02
DAV:   2    -0.104088904100E+04   -0.90350E+01   -0.90321E+01 24976   0.160E+01
DAV:   3    -0.104097056980E+04   -0.81529E-01   -0.81521E-01 25032   0.157E+00
DAV:   4    -0.104097227967E+04   -0.17099E-02   -0.17098E-02 25032   0.221E-01    0.122E+01
DAV:   5    -0.103962462834E+04    0.13477E+01   -0.26721E+00 26024   0.412E+00    0.657E+00
DAV:   6    -0.103959409035E+04    0.30538E-01   -0.18679E+00 25048   0.297E+00    0.200E+00
DAV:   7    -0.103964139807E+04   -0.47308E-01   -0.33137E-01 24648   0.134E+00    0.703E-01
DAV:   8    -0.103964212157E+04   -0.72350E-03   -0.31991E-02 24144   0.400E-01    0.352E-01
DAV:   9    -0.103964087292E+04    0.12486E-02   -0.11521E-02 24288   0.282E-01    0.161E-01
DAV:  10    -0.103963980015E+04    0.10728E-02   -0.28962E-03 27312   0.189E-01    0.601E-02
DAV:  11    -0.103963953797E+04    0.26218E-03   -0.14821E-03 24368   0.944E-02    0.549E-02
DAV:  12    -0.103963917341E+04    0.36456E-03   -0.33098E-04 20816   0.815E-02    0.231E-02
DAV:  13    -0.103963906761E+04    0.10580E-03   -0.27421E-04 20040   0.622E-02    0.292E-02
DAV:  14    -0.103963904880E+04    0.18817E-04   -0.24182E-04 19720   0.419E-02
   4137 T=   299. E= -.10466222E+04 F= -.10550767E+04 E0= -.10550767E+04  EK= 0.84545E+01 SP= 0.00E+00 SK= 0.00E+00
   4138 T=   294. E= -.10465995E+04 F= -.10549219E+04 E0= -.10549219E+04  EK= 0.83225E+01 SP= 0.00E+00 SK= 0.00E+00
   4139 T=   290. E= -.10466423E+04 F= -.10548518E+04 E0= -.10548518E+04  EK= 0.82095E+01 SP= 0.00E+00 SK= 0.00E+00
   4140 T=   293. E= -.10465887E+04 F= -.10548782E+04 E0= -.10548782E+04  EK= 0.82894E+01 SP= 0.00E+00 SK= 0.00E+00
   4141 T=   301. E= -.10465262E+04 F= -.10550388E+04 E0= -.10550388E+04  EK= 0.85126E+01 SP= 0.00E+00 SK= 0.00E+00
   4142 T=   309. E= -.10464668E+04 F= -.10552250E+04 E0= -.10552250E+04  EK= 0.87582E+01 SP= 0.00E+00 SK= 0.00E+00
   4143 T=   313. E= -.10464899E+04 F= -.10553530E+04 E0= -.10553530E+04  EK= 0.88631E+01 SP= 0.00E+00 SK= 0.00E+00
   4144 T=   316. E= -.10464737E+04 F= -.10554212E+04 E0= -.10554212E+04  EK= 0.89475E+01 SP= 0.00E+00 SK= 0.00E+00
   4145 T=   317. E= -.10464200E+04 F= -.10554049E+04 E0= -.10554049E+04  EK= 0.89849E+01 SP= 0.00E+00 SK= 0.00E+00
   4146 T=   314. E= -.10463907E+04 F= -.10552766E+04 E0= -.10552766E+04  EK= 0.88859E+01 SP= 0.00E+00 SK= 0.00E+00
   4147 T=   305. E= -.10464839E+04 F= -.10551119E+04 E0= -.10551119E+04  EK= 0.86280E+01 SP= 0.00E+00 SK= 0.00E+00
   4148 T=   297. E= -.10466429E+04 F= -.10550428E+04 E0= -.10550428E+04  EK= 0.83999E+01 SP= 0.00E+00 SK= 0.00E+00
   4149 T=   293. E= -.10467866E+04 F= -.10550933E+04 E0= -.10550933E+04  EK= 0.83067E+01 SP= 0.00E+00 SK= 0.00E+00
       N       E                     dE             d eps       ncg     rms          rms(c)
DAV:   1    -0.102630986712E+04    0.13329E+02   -0.52807E+03 20644   0.134E+02
DAV:   2    -0.104090461558E+04   -0.14595E+02   -0.14590E+02 24864   0.201E+01
DAV:   3    -0.104103901911E+04   -0.13440E+00   -0.13439E+00 24976   0.203E+00
DAV:   4    -0.104104172988E+04   -0.27108E-02   -0.27106E-02 24976   0.280E-01    0.145E+01
DAV:   5    -0.103961506944E+04    0.14267E+01   -0.27773E+00 25896   0.415E+00    0.808E+00
DAV:   6    -0.103969319133E+04   -0.78122E-01   -0.26065E+00 25040   0.342E+00    0.203E+00
DAV:   7    -0.103975611564E+04   -0.62924E-01   -0.40853E-01 24088   0.147E+00    0.812E-01
DAV:   8    -0.103975850583E+04   -0.23902E-02   -0.51114E-02 23968   0.458E-01    0.419E-01
DAV:   9    -0.103975647858E+04    0.20272E-02   -0.13993E-02 24064   0.323E-01    0.202E-01
DAV:  10    -0.103975473853E+04    0.17400E-02   -0.33817E-03 23824   0.203E-01    0.866E-02
DAV:  11    -0.103975418943E+04    0.54911E-03   -0.33467E-03 24232   0.142E-01    0.790E-02
DAV:  12    -0.103975369276E+04    0.49667E-03   -0.78577E-04 23880   0.855E-02    0.301E-02
DAV:  13    -0.103975338271E+04    0.31005E-03   -0.30865E-04 20288   0.703E-02    0.305E-02
DAV:  14    -0.103975332371E+04    0.58992E-04   -0.24948E-04 19520   0.496E-02
   4150 T=   296. E= -.10469401E+04 F= -.10553126E+04 E0= -.10553126E+04  EK= 0.83725E+01 SP= 0.00E+00 SK= 0.00E+00
   4151 T=   300. E= -.10468482E+04 F= -.10553373E+04 E0= -.10553373E+04  EK= 0.84890E+01 SP= 0.00E+00 SK= 0.00E+00
   4152 T=   304. E= -.10467782E+04 F= -.10553946E+04 E0= -.10553946E+04  EK= 0.86165E+01 SP= 0.00E+00 SK= 0.00E+00
   4153 T=   301. E= -.10467978E+04 F= -.10553206E+04 E0= -.10553206E+04  EK= 0.85227E+01 SP= 0.00E+00 SK= 0.00E+00
   4154 T=   289. E= -.10469298E+04 F= -.10551246E+04 E0= -.10551246E+04  EK= 0.81948E+01 SP= 0.00E+00 SK= 0.00E+00
   4155 T=   282. E= -.10469443E+04 F= -.10549262E+04 E0= -.10549262E+04  EK= 0.79820E+01 SP= 0.00E+00 SK= 0.00E+00
   4156 T=   278. E= -.10469694E+04 F= -.10548372E+04 E0= -.10548372E+04  EK= 0.78678E+01 SP= 0.00E+00 SK= 0.00E+00
   4157 T=   275. E= -.10470446E+04 F= -.10548413E+04 E0= -.10548413E+04  EK= 0.77967E+01 SP= 0.00E+00 SK= 0.00E+00
   4158 T=   280. E= -.10470394E+04 F= -.10549796E+04 E0= -.10549796E+04  EK= 0.79403E+01 SP= 0.00E+00 SK= 0.00E+00
   4159 T=   290. E= -.10470067E+04 F= -.10552248E+04 E0= -.10552248E+04  EK= 0.82181E+01 SP= 0.00E+00 SK= 0.00E+00
       N       E                     dE             d eps       ncg     rms          rms(c)
DAV:   1    -0.103197962133E+04    0.77738E+01   -0.34838E+03 20644   0.109E+02
DAV:   2    -0.104080398470E+04   -0.88244E+01   -0.88215E+01 24896   0.159E+01
DAV:   3    -0.104088497864E+04   -0.80994E-01   -0.80986E-01 25016   0.157E+00
DAV:   4    -0.104088666744E+04   -0.16888E-02   -0.16887E-02 24976   0.221E-01    0.120E+01
DAV:   5    -0.103971705890E+04    0.11696E+01   -0.21972E+00 26144   0.398E+00    0.659E+00
DAV:   6    -0.103970709251E+04    0.99664E-02   -0.19588E+00 25008   0.309E+00    0.184E+00
DAV:   7    -0.103974483794E+04   -0.37745E-01   -0.35233E-01 24408   0.145E+00    0.646E-01
DAV:   8    -0.103974422317E+04    0.61477E-03   -0.35216E-02 24032   0.450E-01    0.354E-01
DAV:   9    -0.103974338033E+04    0.84284E-03   -0.20309E-02 23968   0.353E-01    0.228E-01
DAV:  10    -0.103974186779E+04    0.15125E-02   -0.46625E-03 28488   0.225E-01    0.726E-02
DAV:  11    -0.103974158864E+04    0.27915E-03   -0.21826E-03 23952   0.116E-01    0.573E-02
DAV:  12    -0.103974123420E+04    0.35443E-03   -0.32080E-04 20184   0.937E-02    0.265E-02
DAV:  13    -0.103974109118E+04    0.14302E-03   -0.42618E-04 22208   0.768E-02    0.266E-02
DAV:  14    -0.103974106729E+04    0.23894E-04   -0.19899E-04 18376   0.379E-02
   4160 T=   298. E= -.10470037E+04 F= -.10554436E+04 E0= -.10554436E+04  EK= 0.84400E+01 SP= 0.00E+00 SK= 0.00E+00
   4161 T=   300. E= -.10468833E+04 F= -.10553748E+04 E0= -.10553748E+04  EK= 0.84915E+01 SP= 0.00E+00 SK= 0.00E+00
   4162 T=   293. E= -.10469288E+04 F= -.10552092E+04 E0= -.10552092E+04  EK= 0.82804E+01 SP= 0.00E+00 SK= 0.00E+00
   4163 T=   283. E= -.10469793E+04 F= -.10549992E+04 E0= -.10549992E+04  EK= 0.80200E+01 SP= 0.00E+00 SK= 0.00E+00
   4164 T=   282. E= -.10469053E+04 F= -.10548953E+04 E0= -.10548953E+04  EK= 0.79900E+01 SP= 0.00E+00 SK= 0.00E+00
   4165 T=   287. E= -.10468778E+04 F= -.10549973E+04 E0= -.10549973E+04  EK= 0.81195E+01 SP= 0.00E+00 SK= 0.00E+00
   4166 T=   293. E= -.10468632E+04 F= -.10551637E+04 E0= -.10551637E+04  EK= 0.83005E+01 SP= 0.00E+00 SK= 0.00E+00
   4167 T=   296. E= -.10467996E+04 F= -.10551773E+04 E0= -.10551773E+04  EK= 0.83778E+01 SP= 0.00E+00 SK= 0.00E+00
   4168 T=   290. E= -.10468199E+04 F= -.10550310E+04 E0= -.10550310E+04  EK= 0.82111E+01 SP= 0.00E+00 SK= 0.00E+00
   4169 T=   284. E= -.10467529E+04 F= -.10547813E+04 E0= -.10547813E+04  EK= 0.80285E+01 SP= 0.00E+00 SK= 0.00E+00
       N       E                     dE             d eps       ncg     rms          rms(c)
DAV:   1    -0.103024898316E+04    0.94921E+01   -0.36125E+03 20644   0.111E+02
DAV:   2    -0.103990112859E+04   -0.96521E+01   -0.96490E+01 24920   0.164E+01
DAV:   3    -0.103998728756E+04   -0.86159E-01   -0.86151E-01 25072   0.161E+00
DAV:   4    -0.103998904721E+04   -0.17596E-02   -0.17595E-02 24976   0.226E-01    0.123E+01
DAV:   5    -0.103867887691E+04    0.13102E+01   -0.25933E+00 26416   0.413E+00    0.663E+00
DAV:   6    -0.103867829142E+04    0.58548E-03   -0.18748E+00 25064   0.296E+00    0.200E+00
DAV:   7    -0.103873310585E+04   -0.54814E-01   -0.34322E-01 24448   0.137E+00    0.697E-01
DAV:   8    -0.103873284445E+04    0.26140E-03   -0.31558E-02 24080   0.446E-01    0.339E-01
DAV:   9    -0.103873239007E+04    0.45438E-03   -0.14910E-02 23896   0.285E-01    0.179E-01
DAV:  10    -0.103873128746E+04    0.11026E-02   -0.35895E-03 28096   0.199E-01    0.553E-02
DAV:  11    -0.103873099663E+04    0.29083E-03   -0.12012E-03 23736   0.852E-02    0.489E-02
DAV:  12    -0.103873061279E+04    0.38384E-03   -0.26963E-04 19504   0.811E-02    0.177E-02
DAV:  13    -0.103873051322E+04    0.99571E-04   -0.36396E-04 21928   0.646E-02
   4170 T=   279. E= -.10465948E+04 F= -.10544986E+04 E0= -.10544986E+04  EK= 0.79039E+01 SP= 0.00E+00 SK= 0.00E+00
   4171 T=   277. E= -.10465127E+04 F= -.10543478E+04 E0= -.10543478E+04  EK= 0.78352E+01 SP= 0.00E+00 SK= 0.00E+00
   4172 T=   277. E= -.10464842E+04 F= -.10543238E+04 E0= -.10543238E+04  EK= 0.78396E+01 SP= 0.00E+00 SK= 0.00E+00
   4173 T=   278. E= -.10465580E+04 F= -.10544356E+04 E0= -.10544356E+04  EK= 0.78775E+01 SP= 0.00E+00 SK= 0.00E+00
   4174 T=   281. E= -.10465473E+04 F= -.10545007E+04 E0= -.10545007E+04  EK= 0.79534E+01 SP= 0.00E+00 SK= 0.00E+00
   4175 T=   284. E= -.10464567E+04 F= -.10544945E+04 E0= -.10544945E+04  EK= 0.80378E+01 SP= 0.00E+00 SK= 0.00E+00
   4176 T=   285. E= -.10463427E+04 F= -.10544210E+04 E0= -.10544210E+04  EK= 0.80782E+01 SP= 0.00E+00 SK= 0.00E+00
   4177 T=   283. E= -.10462942E+04 F= -.10543113E+04 E0= -.10543113E+04  EK= 0.80171E+01 SP= 0.00E+00 SK= 0.00E+00
   4178 T=   279. E= -.10463592E+04 F= -.10542470E+04 E0= -.10542470E+04  EK= 0.78878E+01 SP= 0.00E+00 SK= 0.00E+00
   4179 T=   280. E= -.10463054E+04 F= -.10542198E+04 E0= -.10542198E+04  EK= 0.79144E+01 SP= 0.00E+00 SK= 0.00E+00
       N       E                     dE             d eps       ncg     rms          rms(c)
DAV:   1    -0.103108435157E+04    0.76463E+01   -0.30508E+03 20644   0.102E+02
DAV:   2    -0.103944924026E+04   -0.83649E+01   -0.83622E+01 24888   0.153E+01
DAV:   3    -0.103952634459E+04   -0.77104E-01   -0.77097E-01 24984   0.152E+00
DAV:   4    -0.103952793581E+04   -0.15912E-02   -0.15911E-02 24920   0.216E-01    0.120E+01
DAV:   5    -0.103844109773E+04    0.10868E+01   -0.25170E+00 25184   0.392E+00    0.652E+00
DAV:   6    -0.103849756007E+04   -0.56462E-01   -0.15240E+00 24784   0.262E+00    0.208E+00
DAV:   7    -0.103854762112E+04   -0.50061E-01   -0.29095E-01 25072   0.133E+00    0.649E-01
DAV:   8    -0.103854744785E+04    0.17327E-03   -0.33033E-02 24128   0.449E-01    0.327E-01
DAV:   9    -0.103854694771E+04    0.50015E-03   -0.15258E-02 23888   0.266E-01    0.173E-01
DAV:  10    -0.103854595642E+04    0.99129E-03   -0.27109E-03 29224   0.177E-01    0.568E-02
DAV:  11    -0.103854573648E+04    0.21994E-03   -0.13374E-03 23640   0.887E-02    0.536E-02
DAV:  12    -0.103854546273E+04    0.27375E-03   -0.18525E-04 18232   0.678E-02    0.199E-02
DAV:  13    -0.103854538947E+04    0.73263E-04   -0.35532E-04 21576   0.578E-02
   4180 T=   284. E= -.10462617E+04 F= -.10543091E+04 E0= -.10543091E+04  EK= 0.80473E+01 SP= 0.00E+00 SK= 0.00E+00
   4181 T=   290. E= -.10461683E+04 F= -.10543700E+04 E0= -.10543700E+04  EK= 0.82016E+01 SP= 0.00E+00 SK= 0.00E+00
   4182 T=   294. E= -.10460963E+04 F= -.10544252E+04 E0= -.10544252E+04  EK= 0.83289E+01 SP= 0.00E+00 SK= 0.00E+00
   4183 T=   290. E= -.10461458E+04 F= -.10543584E+04 E0= -.10543584E+04  EK= 0.82126E+01 SP= 0.00E+00 SK= 0.00E+00
   4184 T=   282. E= -.10461990E+04 F= -.10541882E+04 E0= -.10541882E+04  EK= 0.79892E+01 SP= 0.00E+00 SK= 0.00E+00
   4185 T=   278. E= -.10461809E+04 F= -.10540520E+04 E0= -.10540520E+04  EK= 0.78711E+01 SP= 0.00E+00 SK= 0.00E+00
   4186 T=   274. E= -.10462842E+04 F= -.10540313E+04 E0= -.10540313E+04  EK= 0.77471E+01 SP= 0.00E+00 SK= 0.00E+00
   4187 T=   273. E= -.10463508E+04 F= -.10540831E+04 E0= -.10540831E+04  EK= 0.77322E+01 SP= 0.00E+00 SK= 0.00E+00
   4188 T=   278. E= -.10462699E+04 F= -.10541426E+04 E0= -.10541426E+04  EK= 0.78727E+01 SP= 0.00E+00 SK= 0.00E+00
   4189 T=   281. E= -.10462259E+04 F= -.10541856E+04 E0= -.10541856E+04  EK= 0.79596E+01 SP= 0.00E+00 SK= 0.00E+00
       N       E                     dE             d eps       ncg     rms          rms(c)
DAV:   1    -0.103047365070E+04    0.80718E+01   -0.32413E+03 20644   0.105E+02
DAV:   2    -0.103934792590E+04   -0.88743E+01   -0.88713E+01 24944   0.156E+01
DAV:   3    -0.103943115121E+04   -0.83225E-01   -0.83217E-01 25016   0.158E+00
DAV:   4    -0.103943287237E+04   -0.17212E-02   -0.17210E-02 25040   0.224E-01    0.119E+01
DAV:   5    -0.103835827656E+04    0.10746E+01   -0.23322E+00 25696   0.393E+00    0.645E+00
DAV:   6    -0.103839887683E+04   -0.40600E-01   -0.16143E+00 24816   0.280E+00    0.200E+00
DAV:   7    -0.103844237703E+04   -0.43500E-01   -0.31362E-01 25104   0.140E+00    0.657E-01
DAV:   8    -0.103844170902E+04    0.66801E-03   -0.36783E-02 23960   0.448E-01    0.354E-01
DAV:   9    -0.103844045116E+04    0.12579E-02   -0.17000E-02 24232   0.304E-01    0.189E-01
DAV:  10    -0.103843917009E+04    0.12811E-02   -0.31516E-03 28424   0.197E-01    0.720E-02
DAV:  11    -0.103843879398E+04    0.37611E-03   -0.19927E-03 23848   0.120E-01    0.601E-02
DAV:  12    -0.103843845235E+04    0.34164E-03   -0.36259E-04 20864   0.884E-02    0.283E-02
DAV:  13    -0.103843831454E+04    0.13780E-03   -0.38365E-04 21624   0.705E-02    0.301E-02
DAV:  14    -0.103843828210E+04    0.32447E-04   -0.16564E-04 17608   0.402E-02
   4190 T=   278. E= -.10462462E+04 F= -.10541258E+04 E0= -.10541258E+04  EK= 0.78795E+01 SP= 0.00E+00 SK= 0.00E+00
   4191 T=   275. E= -.10462665E+04 F= -.10540432E+04 E0= -.10540432E+04  EK= 0.77767E+01 SP= 0.00E+00 SK= 0.00E+00
   4192 T=   272. E= -.10463168E+04 F= -.10540177E+04 E0= -.10540177E+04  EK= 0.77008E+01 SP= 0.00E+00 SK= 0.00E+00
   4193 T=   270. E= -.10464264E+04 F= -.10540661E+04 E0= -.10540661E+04  EK= 0.76397E+01 SP= 0.00E+00 SK= 0.00E+00
   4194 T=   274. E= -.10464684E+04 F= -.10542159E+04 E0= -.10542159E+04  EK= 0.77475E+01 SP= 0.00E+00 SK= 0.00E+00
   4195 T=   284. E= -.10463856E+04 F= -.10544163E+04 E0= -.10544163E+04  EK= 0.80306E+01 SP= 0.00E+00 SK= 0.00E+00
   4196 T=   287. E= -.10464162E+04 F= -.10545489E+04 E0= -.10545489E+04  EK= 0.81327E+01 SP= 0.00E+00 SK= 0.00E+00
   4197 T=   287. E= -.10465238E+04 F= -.10546373E+04 E0= -.10546373E+04  EK= 0.81135E+01 SP= 0.00E+00 SK= 0.00E+00
   4198 T=   286. E= -.10466074E+04 F= -.10546933E+04 E0= -.10546933E+04  EK= 0.80860E+01 SP= 0.00E+00 SK= 0.00E+00
   4199 T=   286. E= -.10466356E+04 F= -.10547440E+04 E0= -.10547440E+04  EK= 0.81084E+01 SP= 0.00E+00 SK= 0.00E+00
   4200 T=   288. E= -.10466005E+04 F= -.10547396E+04 E0= -.10547396E+04  EK= 0.81391E+01 SP= 0.00E+00 SK= 0.00E+00
   4201 T=   288. E= -.10465589E+04 F= -.10546997E+04 E0= -.10546997E+04  EK= 0.81408E+01 SP= 0.00E+00 SK= 0.00E+00
   4202 T=   289. E= -.10464683E+04 F= -.10546393E+04 E0= -.10546393E+04  EK= 0.81710E+01 SP= 0.00E+00 SK= 0.00E+00
   4203 T=   290. E= -.10464100E+04 F= -.10546145E+04 E0= -.10546145E+04  EK= 0.82045E+01 SP= 0.00E+00 SK= 0.00E+00
   4204 T=   287. E= -.10464492E+04 F= -.10545864E+04 E0= -.10545864E+04  EK= 0.81373E+01 SP= 0.00E+00 SK= 0.00E+00
       N       E                     dE             d eps       ncg     rms          rms(c)
DAV:   1    -0.102031096608E+04    0.18127E+02   -0.63135E+03 20644   0.145E+02
DAV:   2    -0.104026077053E+04   -0.19950E+02   -0.19940E+02 24696   0.232E+01
DAV:   3    -0.104044992970E+04   -0.18916E+00   -0.18914E+00 25032   0.240E+00
DAV:   4    -0.104045366630E+04   -0.37366E-02   -0.37363E-02 25080   0.330E-01    0.156E+01
DAV:   5    -0.103890309797E+04    0.15506E+01   -0.34896E+00 24672   0.410E+00    0.872E+00
DAV:   6    -0.103901325022E+04   -0.11015E+00   -0.25136E+00 25120   0.342E+00    0.235E+00
DAV:   7    -0.103909397548E+04   -0.80725E-01   -0.41676E-01 24024   0.138E+00    0.840E-01
DAV:   8    -0.103909307795E+04    0.89752E-03   -0.49521E-02 23328   0.449E-01    0.348E-01
DAV:   9    -0.103909052105E+04    0.25569E-02   -0.67261E-03 24720   0.248E-01    0.143E-01
DAV:  10    -0.103908887300E+04    0.16480E-02   -0.35852E-03 23464   0.183E-01    0.787E-02
DAV:  11    -0.103908819780E+04    0.67520E-03   -0.16006E-03 24400   0.117E-01    0.553E-02
DAV:  12    -0.103908776267E+04    0.43513E-03   -0.24309E-04 18064   0.662E-02    0.249E-02
DAV:  13    -0.103908751552E+04    0.24715E-03   -0.39297E-04 21776   0.803E-02    0.185E-02
DAV:  14    -0.103908751988E+04   -0.43513E-05   -0.29021E-04 21232   0.403E-02
   4205 T=   284. E= -.10465320E+04 F= -.10545629E+04 E0= -.10545629E+04  EK= 0.80309E+01 SP= 0.00E+00 SK= 0.00E+00
   4206 T=   284. E= -.10466045E+04 F= -.10546340E+04 E0= -.10546340E+04  EK= 0.80295E+01 SP= 0.00E+00 SK= 0.00E+00
   4207 T=   280. E= -.10466628E+04 F= -.10545996E+04 E0= -.10545996E+04  EK= 0.79369E+01 SP= 0.00E+00 SK= 0.00E+00
   4208 T=   276. E= -.10467022E+04 F= -.10545154E+04 E0= -.10545154E+04  EK= 0.78132E+01 SP= 0.00E+00 SK= 0.00E+00
   4209 T=   273. E= -.10466914E+04 F= -.10544178E+04 E0= -.10544178E+04  EK= 0.77264E+01 SP= 0.00E+00 SK= 0.00E+00
   4210 T=   268. E= -.10467343E+04 F= -.10543348E+04 E0= -.10543348E+04  EK= 0.76005E+01 SP= 0.00E+00 SK= 0.00E+00
   4211 T=   268. E= -.10467284E+04 F= -.10543168E+04 E0= -.10543168E+04  EK= 0.75884E+01 SP= 0.00E+00 SK= 0.00E+00
   4212 T=   270. E= -.10467191E+04 F= -.10543506E+04 E0= -.10543506E+04  EK= 0.76314E+01 SP= 0.00E+00 SK= 0.00E+00
   4213 T=   273. E= -.10467273E+04 F= -.10544614E+04 E0= -.10544614E+04  EK= 0.77342E+01 SP= 0.00E+00 SK= 0.00E+00
   4214 T=   280. E= -.10467109E+04 F= -.10546375E+04 E0= -.10546375E+04  EK= 0.79266E+01 SP= 0.00E+00 SK= 0.00E+00
       N       E                     dE             d eps       ncg     rms          rms(c)
DAV:   1    -0.103197098358E+04    0.71165E+01   -0.31331E+03 20644   0.103E+02
DAV:   2    -0.104050941109E+04   -0.85384E+01   -0.85360E+01 24960   0.155E+01
DAV:   3    -0.104058662102E+04   -0.77210E-01   -0.77203E-01 25032   0.155E+00
DAV:   4    -0.104058816170E+04   -0.15407E-02   -0.15406E-02 24984   0.217E-01    0.122E+01
DAV:   5    -0.103935352354E+04    0.12346E+01   -0.29926E+00 25056   0.398E+00    0.648E+00
DAV:   6    -0.103939423750E+04   -0.40714E-01   -0.15441E+00 25128   0.264E+00    0.221E+00
DAV:   7    -0.103944203247E+04   -0.47795E-01   -0.30361E-01 25848   0.137E+00    0.673E-01
DAV:   8    -0.103944206418E+04   -0.31712E-04   -0.37620E-02 23752   0.425E-01    0.362E-01
DAV:   9    -0.103943934868E+04    0.27155E-02   -0.15383E-02 23624   0.283E-01    0.169E-01
DAV:  10    -0.103943788767E+04    0.14610E-02   -0.28182E-03 28328   0.187E-01    0.775E-02
DAV:  11    -0.103943728476E+04    0.60291E-03   -0.21140E-03 23656   0.129E-01    0.645E-02
DAV:  12    -0.103943682897E+04    0.45579E-03   -0.38556E-04 21608   0.912E-02    0.283E-02
DAV:  13    -0.103943664349E+04    0.18548E-03   -0.42285E-04 21928   0.791E-02    0.286E-02
DAV:  14    -0.103943662597E+04    0.17526E-04   -0.27409E-04 21160   0.454E-02
   4215 T=   285. E= -.10466588E+04 F= -.10547319E+04 E0= -.10547319E+04  EK= 0.80731E+01 SP= 0.00E+00 SK= 0.00E+00
   4216 T=   285. E= -.10466418E+04 F= -.10547042E+04 E0= -.10547042E+04  EK= 0.80624E+01 SP= 0.00E+00 SK= 0.00E+00
   4217 T=   277. E= -.10466769E+04 F= -.10545311E+04 E0= -.10545311E+04  EK= 0.78542E+01 SP= 0.00E+00 SK= 0.00E+00
   4218 T=   269. E= -.10467187E+04 F= -.10543235E+04 E0= -.10543235E+04  EK= 0.76048E+01 SP= 0.00E+00 SK= 0.00E+00
   4219 T=   270. E= -.10466631E+04 F= -.10542980E+04 E0= -.10542980E+04  EK= 0.76349E+01 SP= 0.00E+00 SK= 0.00E+00
   4220 T=   277. E= -.10466233E+04 F= -.10544645E+04 E0= -.10544645E+04  EK= 0.78413E+01 SP= 0.00E+00 SK= 0.00E+00
   4221 T=   284. E= -.10466463E+04 F= -.10546839E+04 E0= -.10546839E+04  EK= 0.80376E+01 SP= 0.00E+00 SK= 0.00E+00
   4222 T=   290. E= -.10466431E+04 F= -.10548459E+04 E0= -.10548459E+04  EK= 0.82028E+01 SP= 0.00E+00 SK= 0.00E+00
   4223 T=   292. E= -.10466004E+04 F= -.10548739E+04 E0= -.10548739E+04  EK= 0.82735E+01 SP= 0.00E+00 SK= 0.00E+00
   4224 T=   288. E= -.10465946E+04 F= -.10547546E+04 E0= -.10547546E+04  EK= 0.81599E+01 SP= 0.00E+00 SK= 0.00E+00
       N       E                     dE             d eps       ncg     rms          rms(c)
DAV:   1    -0.103231371514E+04    0.71229E+01   -0.31549E+03 20644   0.104E+02
DAV:   2    -0.104047156678E+04   -0.81579E+01   -0.81555E+01 24856   0.152E+01
DAV:   3    -0.104054635180E+04   -0.74785E-01   -0.74778E-01 25032   0.151E+00
DAV:   4    -0.104054789084E+04   -0.15390E-02   -0.15389E-02 25032   0.214E-01    0.124E+01
DAV:   5    -0.103930284259E+04    0.12450E+01   -0.31620E+00 25112   0.416E+00    0.650E+00
DAV:   6    -0.103935562536E+04   -0.52783E-01   -0.14764E+00 24936   0.253E+00    0.229E+00
DAV:   7    -0.103940970689E+04   -0.54082E-01   -0.29577E-01 25872   0.134E+00    0.645E-01
DAV:   8    -0.103941039416E+04   -0.68727E-03   -0.35419E-02 23720   0.425E-01    0.358E-01
DAV:   9    -0.103940953968E+04    0.85447E-03   -0.18474E-02 23616   0.289E-01    0.193E-01
DAV:  10    -0.103940830903E+04    0.12307E-02   -0.32289E-03 28840   0.191E-01    0.639E-02
DAV:  11    -0.103940804081E+04    0.26821E-03   -0.17667E-03 23336   0.996E-02    0.575E-02
DAV:  12    -0.103940776651E+04    0.27430E-03   -0.21689E-04 18648   0.619E-02    0.226E-02
DAV:  13    -0.103940764413E+04    0.12238E-03   -0.29549E-04 20392   0.615E-02    0.234E-02
DAV:  14    -0.103940762766E+04    0.16474E-04   -0.14846E-04 17608   0.368E-02
   4225 T=   281. E= -.10465713E+04 F= -.10545361E+04 E0= -.10545361E+04  EK= 0.79649E+01 SP= 0.00E+00 SK= 0.00E+00
   4226 T=   278. E= -.10466204E+04 F= -.10544991E+04 E0= -.10544991E+04  EK= 0.78787E+01 SP= 0.00E+00 SK= 0.00E+00
   4227 T=   280. E= -.10466507E+04 F= -.10545813E+04 E0= -.10545813E+04  EK= 0.79306E+01 SP= 0.00E+00 SK= 0.00E+00
   4228 T=   289. E= -.10466771E+04 F= -.10548688E+04 E0= -.10548688E+04  EK= 0.81918E+01 SP= 0.00E+00 SK= 0.00E+00
   4229 T=   301. E= -.10466394E+04 F= -.10551724E+04 E0= -.10551724E+04  EK= 0.85329E+01 SP= 0.00E+00 SK= 0.00E+00
   4230 T=   309. E= -.10466181E+04 F= -.10553705E+04 E0= -.10553705E+04  EK= 0.87524E+01 SP= 0.00E+00 SK= 0.00E+00
   4231 T=   307. E= -.10466649E+04 F= -.10553560E+04 E0= -.10553560E+04  EK= 0.86910E+01 SP= 0.00E+00 SK= 0.00E+00
   4232 T=   299. E= -.10467104E+04 F= -.10551686E+04 E0= -.10551686E+04  EK= 0.84582E+01 SP= 0.00E+00 SK= 0.00E+00
   4233 T=   292. E= -.10467168E+04 F= -.10549744E+04 E0= -.10549744E+04  EK= 0.82577E+01 SP= 0.00E+00 SK= 0.00E+00
   4234 T=   289. E= -.10467629E+04 F= -.10549432E+04 E0= -.10549432E+04  EK= 0.81803E+01 SP= 0.00E+00 SK= 0.00E+00
       N       E                     dE             d eps       ncg     rms          rms(c)
DAV:   1    -0.103220629012E+04    0.72014E+01   -0.33672E+03 20644   0.107E+02
DAV:   2    -0.104123564211E+04   -0.90294E+01   -0.90263E+01 25000   0.159E+01
DAV:   3    -0.104131881489E+04   -0.83173E-01   -0.83164E-01 25032   0.160E+00
DAV:   4    -0.104132053951E+04   -0.17246E-02   -0.17245E-02 25024   0.226E-01    0.127E+01
DAV:   5    -0.104000079004E+04    0.13197E+01   -0.31078E+00 25040   0.400E+00    0.680E+00
DAV:   6    -0.103998220754E+04    0.18583E-01   -0.15658E+00 25016   0.264E+00    0.224E+00
DAV:   7    -0.104002583440E+04   -0.43627E-01   -0.32359E-01 25424   0.139E+00    0.685E-01
DAV:   8    -0.104002346290E+04    0.23715E-02   -0.39585E-02 24448   0.439E-01    0.381E-01
DAV:   9    -0.104001892760E+04    0.45353E-02   -0.16695E-02 23664   0.303E-01    0.171E-01
DAV:  10    -0.104001659306E+04    0.23345E-02   -0.33241E-03 27384   0.212E-01    0.840E-02
DAV:  11    -0.104001562235E+04    0.97071E-03   -0.30955E-03 23736   0.149E-01    0.849E-02
DAV:  12    -0.104001490891E+04    0.71344E-03   -0.76455E-04 24096   0.996E-02    0.295E-02
DAV:  13    -0.104001465495E+04    0.25396E-03   -0.43153E-04 22136   0.748E-02    0.361E-02
DAV:  14    -0.104001461313E+04    0.41825E-04   -0.29393E-04 21536   0.487E-02
   4235 T=   290. E= -.10468260E+04 F= -.10550340E+04 E0= -.10550340E+04  EK= 0.82080E+01 SP= 0.00E+00 SK= 0.00E+00
   4236 T=   295. E= -.10468151E+04 F= -.10551724E+04 E0= -.10551724E+04  EK= 0.83574E+01 SP= 0.00E+00 SK= 0.00E+00
   4237 T=   296. E= -.10468643E+04 F= -.10552473E+04 E0= -.10552473E+04  EK= 0.83830E+01 SP= 0.00E+00 SK= 0.00E+00
   4238 T=   291. E= -.10469515E+04 F= -.10551851E+04 E0= -.10551851E+04  EK= 0.82336E+01 SP= 0.00E+00 SK= 0.00E+00
   4239 T=   290. E= -.10468793E+04 F= -.10550910E+04 E0= -.10550910E+04  EK= 0.82117E+01 SP= 0.00E+00 SK= 0.00E+00
   4240 T=   292. E= -.10467704E+04 F= -.10550295E+04 E0= -.10550295E+04  EK= 0.82590E+01 SP= 0.00E+00 SK= 0.00E+00
   4241 T=   291. E= -.10467425E+04 F= -.10549929E+04 E0= -.10549929E+04  EK= 0.82504E+01 SP= 0.00E+00 SK= 0.00E+00
   4242 T=   292. E= -.10467445E+04 F= -.10549977E+04 E0= -.10549977E+04  EK= 0.82532E+01 SP= 0.00E+00 SK= 0.00E+00
   4243 T=   288. E= -.10467841E+04 F= -.10549313E+04 E0= -.10549313E+04  EK= 0.81471E+01 SP= 0.00E+00 SK= 0.00E+00
   4244 T=   282. E= -.10468034E+04 F= -.10547998E+04 E0= -.10547998E+04  EK= 0.79964E+01 SP= 0.00E+00 SK= 0.00E+00
       N       E                     dE             d eps       ncg     rms          rms(c)
DAV:   1    -0.103126279433E+04    0.87519E+01   -0.35245E+03 20644   0.109E+02
DAV:   2    -0.104105558874E+04   -0.97928E+01   -0.97896E+01 24792   0.165E+01
DAV:   3    -0.104114630802E+04   -0.90719E-01   -0.90710E-01 24992   0.167E+00
DAV:   4    -0.104114814711E+04   -0.18391E-02   -0.18390E-02 25048   0.234E-01    0.130E+01
DAV:   5    -0.103966643941E+04    0.14817E+01   -0.33828E+00 25144   0.426E+00    0.689E+00
DAV:   6    -0.103967787827E+04   -0.11439E-01   -0.18403E+00 25024   0.280E+00    0.230E+00
DAV:   7    -0.103973140006E+04   -0.53522E-01   -0.30231E-01 25520   0.133E+00    0.691E-01
DAV:   8    -0.103973440872E+04   -0.30087E-02   -0.34558E-02 23672   0.413E-01    0.361E-01
DAV:   9    -0.103973409907E+04    0.30965E-03   -0.15761E-02 23952   0.299E-01    0.173E-01
DAV:  10    -0.103973334214E+04    0.75693E-03   -0.27413E-03 27248   0.165E-01    0.718E-02
DAV:  11    -0.103973316252E+04    0.17962E-03   -0.15198E-03 23512   0.888E-02    0.465E-02
DAV:  12    -0.103973295329E+04    0.20923E-03   -0.13650E-04 16944   0.623E-02    0.190E-02
DAV:  13    -0.103973286183E+04    0.91461E-04   -0.32110E-04 20248   0.625E-02
   4245 T=   282. E= -.10467163E+04 F= -.10546969E+04 E0= -.10546969E+04  EK= 0.79806E+01 SP= 0.00E+00 SK= 0.00E+00
   4246 T=   283. E= -.10466360E+04 F= -.10546339E+04 E0= -.10546339E+04  EK= 0.79978E+01 SP= 0.00E+00 SK= 0.00E+00
   4247 T=   288. E= -.10464383E+04 F= -.10545968E+04 E0= -.10545968E+04  EK= 0.81585E+01 SP= 0.00E+00 SK= 0.00E+00
   4248 T=   287. E= -.10463888E+04 F= -.10545094E+04 E0= -.10545094E+04  EK= 0.81207E+01 SP= 0.00E+00 SK= 0.00E+00
   4249 T=   281. E= -.10464659E+04 F= -.10544076E+04 E0= -.10544076E+04  EK= 0.79417E+01 SP= 0.00E+00 SK= 0.00E+00
   4250 T=   279. E= -.10464397E+04 F= -.10543293E+04 E0= -.10543293E+04  EK= 0.78897E+01 SP= 0.00E+00 SK= 0.00E+00
   4251 T=   272. E= -.10465235E+04 F= -.10542110E+04 E0= -.10542110E+04  EK= 0.76875E+01 SP= 0.00E+00 SK= 0.00E+00
   4252 T=   264. E= -.10466014E+04 F= -.10540853E+04 E0= -.10540853E+04  EK= 0.74839E+01 SP= 0.00E+00 SK= 0.00E+00
   4253 T=   261. E= -.10466371E+04 F= -.10540175E+04 E0= -.10540175E+04  EK= 0.73804E+01 SP= 0.00E+00 SK= 0.00E+00
   4254 T=   265. E= -.10466275E+04 F= -.10541386E+04 E0= -.10541386E+04  EK= 0.75110E+01 SP= 0.00E+00 SK= 0.00E+00
       N       E                     dE             d eps       ncg     rms          rms(c)
DAV:   1    -0.103120767718E+04    0.85253E+01   -0.33110E+03 20644   0.106E+02
DAV:   2    -0.104061446535E+04   -0.94068E+01   -0.94038E+01 24976   0.160E+01
DAV:   3    -0.104069960144E+04   -0.85136E-01   -0.85129E-01 25008   0.160E+00
DAV:   4    -0.104070134390E+04   -0.17425E-02   -0.17424E-02 25000   0.225E-01    0.121E+01
DAV:   5    -0.103950344081E+04    0.11979E+01   -0.23650E+00 25544   0.378E+00    0.656E+00
DAV:   6    -0.103948329769E+04    0.20143E-01   -0.16877E+00 25072   0.277E+00    0.189E+00
DAV:   7    -0.103952627581E+04   -0.42978E-01   -0.32269E-01 25216   0.134E+00    0.664E-01
DAV:   8    -0.103952454862E+04    0.17272E-02   -0.31278E-02 24120   0.418E-01    0.330E-01
DAV:   9    -0.103952302251E+04    0.15261E-02   -0.12333E-02 24232   0.265E-01    0.154E-01
DAV:  10    -0.103952186391E+04    0.11586E-02   -0.28819E-03 28072   0.188E-01    0.594E-02
DAV:  11    -0.103952154176E+04    0.32215E-03   -0.13850E-03 24184   0.938E-02    0.541E-02
DAV:  12    -0.103952110410E+04    0.43767E-03   -0.26560E-04 19048   0.915E-02    0.205E-02
DAV:  13    -0.103952101616E+04    0.87932E-04   -0.48655E-04 22960   0.680E-02
   4255 T=   275. E= -.10466525E+04 F= -.10544316E+04 E0= -.10544316E+04  EK= 0.77791E+01 SP= 0.00E+00 SK= 0.00E+00
   4256 T=   279. E= -.10468203E+04 F= -.10547307E+04 E0= -.10547307E+04  EK= 0.79103E+01 SP= 0.00E+00 SK= 0.00E+00
   4257 T=   286. E= -.10468738E+04 F= -.10549566E+04 E0= -.10549566E+04  EK= 0.80828E+01 SP= 0.00E+00 SK= 0.00E+00
   4258 T=   288. E= -.10468686E+04 F= -.10550079E+04 E0= -.10550079E+04  EK= 0.81393E+01 SP= 0.00E+00 SK= 0.00E+00
   4259 T=   278. E= -.10470324E+04 F= -.10548945E+04 E0= -.10548945E+04  EK= 0.78621E+01 SP= 0.00E+00 SK= 0.00E+00
   4260 T=   269. E= -.10471472E+04 F= -.10547686E+04 E0= -.10547686E+04  EK= 0.76214E+01 SP= 0.00E+00 SK= 0.00E+00
   4261 T=   268. E= -.10471812E+04 F= -.10547614E+04 E0= -.10547614E+04  EK= 0.75802E+01 SP= 0.00E+00 SK= 0.00E+00
   4262 T=   274. E= -.10471748E+04 F= -.10549316E+04 E0= -.10549316E+04  EK= 0.77568E+01 SP= 0.00E+00 SK= 0.00E+00
   4263 T=   281. E= -.10471890E+04 F= -.10551354E+04 E0= -.10551354E+04  EK= 0.79464E+01 SP= 0.00E+00 SK= 0.00E+00
   4264 T=   281. E= -.10472387E+04 F= -.10552017E+04 E0= -.10552017E+04  EK= 0.79630E+01 SP= 0.00E+00 SK= 0.00E+00
       N       E                     dE             d eps       ncg     rms          rms(c)
DAV:   1    -0.103262223017E+04    0.68989E+01   -0.32385E+03 20644   0.105E+02
DAV:   2    -0.104102146689E+04   -0.83992E+01   -0.83964E+01 24928   0.154E+01
DAV:   3    -0.104110021842E+04   -0.78752E-01   -0.78745E-01 24944   0.154E+00
DAV:   4    -0.104110191899E+04   -0.17006E-02   -0.17005E-02 24976   0.220E-01    0.116E+01
DAV:   5    -0.104000858221E+04    0.10933E+01   -0.23335E+00 25136   0.366E+00    0.633E+00
DAV:   6    -0.104000900557E+04   -0.42337E-03   -0.14791E+00 24952   0.257E+00    0.194E+00
DAV:   7    -0.104004919659E+04   -0.40191E-01   -0.29111E-01 24912   0.131E+00    0.639E-01
DAV:   8    -0.104004782133E+04    0.13753E-02   -0.32533E-02 23456   0.422E-01    0.333E-01
DAV:   9    -0.104004598966E+04    0.18317E-02   -0.14344E-02 23960   0.265E-01    0.166E-01
DAV:  10    -0.104004457637E+04    0.14133E-02   -0.26043E-03 27992   0.177E-01    0.631E-02
DAV:  11    -0.104004416163E+04    0.41474E-03   -0.16593E-03 23696   0.973E-02    0.612E-02
DAV:  12    -0.104004376168E+04    0.39994E-03   -0.32916E-04 19840   0.691E-02    0.205E-02
DAV:  13    -0.104004365432E+04    0.10737E-03   -0.32080E-04 21240   0.544E-02    0.306E-02
DAV:  14    -0.104004362750E+04    0.26820E-04   -0.13177E-04 17640   0.343E-02
   4265 T=   275. E= -.10472076E+04 F= -.10549847E+04 E0= -.10549847E+04  EK= 0.77771E+01 SP= 0.00E+00 SK= 0.00E+00
   4266 T=   264. E= -.10473024E+04 F= -.10547748E+04 E0= -.10547748E+04  EK= 0.74724E+01 SP= 0.00E+00 SK= 0.00E+00
   4267 T=   257. E= -.10471912E+04 F= -.10544663E+04 E0= -.10544663E+04  EK= 0.72750E+01 SP= 0.00E+00 SK= 0.00E+00
   4268 T=   255. E= -.10470636E+04 F= -.10542719E+04 E0= -.10542719E+04  EK= 0.72083E+01 SP= 0.00E+00 SK= 0.00E+00
   4269 T=   261. E= -.10468323E+04 F= -.10542169E+04 E0= -.10542169E+04  EK= 0.73846E+01 SP= 0.00E+00 SK= 0.00E+00
   4270 T=   265. E= -.10467698E+04 F= -.10542823E+04 E0= -.10542823E+04  EK= 0.75125E+01 SP= 0.00E+00 SK= 0.00E+00
   4271 T=   266. E= -.10468428E+04 F= -.10543718E+04 E0= -.10543718E+04  EK= 0.75290E+01 SP= 0.00E+00 SK= 0.00E+00
   4272 T=   270. E= -.10468035E+04 F= -.10544509E+04 E0= -.10544509E+04  EK= 0.76474E+01 SP= 0.00E+00 SK= 0.00E+00
   4273 T=   273. E= -.10468118E+04 F= -.10545476E+04 E0= -.10545476E+04  EK= 0.77358E+01 SP= 0.00E+00 SK= 0.00E+00
   4274 T=   280. E= -.10467568E+04 F= -.10546743E+04 E0= -.10546743E+04  EK= 0.79175E+01 SP= 0.00E+00 SK= 0.00E+00
       N       E                     dE             d eps       ncg     rms          rms(c)
DAV:   1    -0.103272590947E+04    0.73177E+01   -0.29658E+03 20644   0.100E+02
DAV:   2    -0.104051801864E+04   -0.77921E+01   -0.77902E+01 25008   0.148E+01
DAV:   3    -0.104058900654E+04   -0.70988E-01   -0.70983E-01 25008   0.147E+00
DAV:   4    -0.104059047549E+04   -0.14689E-02   -0.14689E-02 24944   0.207E-01    0.113E+01
DAV:   5    -0.103970691385E+04    0.88356E+00   -0.17569E+00 25208   0.342E+00    0.626E+00
DAV:   6    -0.103973285947E+04   -0.25946E-01   -0.15743E+00 25024   0.272E+00    0.167E+00
DAV:   7    -0.103976616510E+04   -0.33306E-01   -0.30205E-01 24176   0.138E+00    0.626E-01
DAV:   8    -0.103976537639E+04    0.78871E-03   -0.35279E-02 23048   0.446E-01    0.332E-01
DAV:   9    -0.103976425191E+04    0.11245E-02   -0.17505E-02 23368   0.285E-01    0.200E-01
DAV:  10    -0.103976253039E+04    0.17215E-02   -0.34038E-03 28816   0.207E-01    0.598E-02
DAV:  11    -0.103976207516E+04    0.45523E-03   -0.18970E-03 23256   0.107E-01    0.586E-02
DAV:  12    -0.103976160242E+04    0.47274E-03   -0.35410E-04 19704   0.750E-02    0.221E-02
DAV:  13    -0.103976147293E+04    0.12949E-03   -0.35104E-04 21200   0.626E-02    0.312E-02
DAV:  14    -0.103976144674E+04    0.26189E-04   -0.16127E-04 17816   0.398E-02
   4275 T=   283. E= -.10466963E+04 F= -.10547123E+04 E0= -.10547123E+04  EK= 0.80160E+01 SP= 0.00E+00 SK= 0.00E+00
   4276 T=   282. E= -.10468637E+04 F= -.10548470E+04 E0= -.10548470E+04  EK= 0.79832E+01 SP= 0.00E+00 SK= 0.00E+00
   4277 T=   282. E= -.10468430E+04 F= -.10548141E+04 E0= -.10548141E+04  EK= 0.79711E+01 SP= 0.00E+00 SK= 0.00E+00
   4278 T=   278. E= -.10469011E+04 F= -.10547676E+04 E0= -.10547676E+04  EK= 0.78665E+01 SP= 0.00E+00 SK= 0.00E+00
   4279 T=   278. E= -.10469060E+04 F= -.10547648E+04 E0= -.10547648E+04  EK= 0.78588E+01 SP= 0.00E+00 SK= 0.00E+00
   4280 T=   279. E= -.10468992E+04 F= -.10547947E+04 E0= -.10547947E+04  EK= 0.78954E+01 SP= 0.00E+00 SK= 0.00E+00
   4281 T=   275. E= -.10469976E+04 F= -.10547760E+04 E0= -.10547760E+04  EK= 0.77785E+01 SP= 0.00E+00 SK= 0.00E+00
   4282 T=   272. E= -.10469524E+04 F= -.10546628E+04 E0= -.10546628E+04  EK= 0.77104E+01 SP= 0.00E+00 SK= 0.00E+00
   4283 T=   272. E= -.10468722E+04 F= -.10545617E+04 E0= -.10545617E+04  EK= 0.76895E+01 SP= 0.00E+00 SK= 0.00E+00
   4284 T=   267. E= -.10470221E+04 F= -.10545665E+04 E0= -.10545665E+04  EK= 0.75444E+01 SP= 0.00E+00 SK= 0.00E+00
       N       E                     dE             d eps       ncg     rms          rms(c)
DAV:   1    -0.103245369079E+04    0.73078E+01   -0.30397E+03 20644   0.102E+02
DAV:   2    -0.104041272910E+04   -0.79590E+01   -0.79564E+01 24968   0.149E+01
DAV:   3    -0.104048775092E+04   -0.75022E-01   -0.75015E-01 24976   0.149E+00
DAV:   4    -0.104048934539E+04   -0.15945E-02   -0.15944E-02 24992   0.212E-01    0.117E+01
DAV:   5    -0.103951486124E+04    0.97448E+00   -0.20613E+00 25600   0.361E+00    0.642E+00
DAV:   6    -0.103954798319E+04   -0.33122E-01   -0.15778E+00 24952   0.272E+00    0.183E+00
DAV:   7    -0.103959076498E+04   -0.42782E-01   -0.28622E-01 24560   0.123E+00    0.665E-01
DAV:   8    -0.103958970143E+04    0.10635E-02   -0.29301E-02 24080   0.379E-01    0.335E-01
DAV:   9    -0.103958722339E+04    0.24780E-02   -0.97742E-03 23768   0.259E-01    0.148E-01
DAV:  10    -0.103958553716E+04    0.16862E-02   -0.25359E-03 25656   0.189E-01    0.623E-02
DAV:  11    -0.103958503259E+04    0.50458E-03   -0.19375E-03 24312   0.112E-01    0.615E-02
DAV:  12    -0.103958456287E+04    0.46971E-03   -0.57734E-04 22056   0.846E-02    0.338E-02
DAV:  13    -0.103958442167E+04    0.14120E-03   -0.21743E-04 17864   0.624E-02    0.346E-02
DAV:  14    -0.103958439945E+04    0.22227E-04   -0.32762E-04 22400   0.472E-02
   4285 T=   263. E= -.10470999E+04 F= -.10545500E+04 E0= -.10545500E+04  EK= 0.74501E+01 SP= 0.00E+00 SK= 0.00E+00
   4286 T=   262. E= -.10472812E+04 F= -.10547025E+04 E0= -.10547025E+04  EK= 0.74213E+01 SP= 0.00E+00 SK= 0.00E+00
   4287 T=   265. E= -.10473071E+04 F= -.10547987E+04 E0= -.10547987E+04  EK= 0.74916E+01 SP= 0.00E+00 SK= 0.00E+00
   4288 T=   271. E= -.10472170E+04 F= -.10548793E+04 E0= -.10548793E+04  EK= 0.76623E+01 SP= 0.00E+00 SK= 0.00E+00
   4289 T=   271. E= -.10472404E+04 F= -.10549221E+04 E0= -.10549221E+04  EK= 0.76817E+01 SP= 0.00E+00 SK= 0.00E+00
   4290 T=   270. E= -.10473413E+04 F= -.10549729E+04 E0= -.10549729E+04  EK= 0.76316E+01 SP= 0.00E+00 SK= 0.00E+00
   4291 T=   268. E= -.10474219E+04 F= -.10550149E+04 E0= -.10550149E+04  EK= 0.75930E+01 SP= 0.00E+00 SK= 0.00E+00
   4292 T=   268. E= -.10474835E+04 F= -.10550753E+04 E0= -.10550753E+04  EK= 0.75918E+01 SP= 0.00E+00 SK= 0.00E+00
   4293 T=   272. E= -.10474771E+04 F= -.10551797E+04 E0= -.10551797E+04  EK= 0.77026E+01 SP= 0.00E+00 SK= 0.00E+00
   4294 T=   278. E= -.10474067E+04 F= -.10552642E+04 E0= -.10552642E+04  EK= 0.78575E+01 SP= 0.00E+00 SK= 0.00E+00
       N       E                     dE             d eps       ncg     rms          rms(c)
DAV:   1    -0.103307829429E+04    0.65061E+01   -0.31127E+03 20644   0.103E+02
DAV:   2    -0.104119542461E+04   -0.81171E+01   -0.81142E+01 24824   0.148E+01
DAV:   3    -0.104127095408E+04   -0.75529E-01   -0.75522E-01 24912   0.149E+00
DAV:   4    -0.104127254718E+04   -0.15931E-02   -0.15930E-02 24952   0.212E-01    0.119E+01
DAV:   5    -0.104016733948E+04    0.11052E+01   -0.21853E+00 25136   0.364E+00    0.651E+00
DAV:   6    -0.104015476206E+04    0.12577E-01   -0.16521E+00 24832   0.270E+00    0.183E+00
DAV:   7    -0.104019162383E+04   -0.36862E-01   -0.30681E-01 25440   0.135E+00    0.646E-01
DAV:   8    -0.104018930259E+04    0.23212E-02   -0.34467E-02 23904   0.442E-01    0.325E-01
DAV:   9    -0.104018727878E+04    0.20238E-02   -0.14718E-02 23640   0.275E-01    0.175E-01
DAV:  10    -0.104018571840E+04    0.15604E-02   -0.35549E-03 28880   0.206E-01    0.618E-02
DAV:  11    -0.104018528030E+04    0.43810E-03   -0.15874E-03 23744   0.995E-02    0.611E-02
DAV:  12    -0.104018474304E+04    0.53726E-03   -0.27737E-04 19352   0.902E-02    0.224E-02
DAV:  13    -0.104018460104E+04    0.14201E-03   -0.57372E-04 22648   0.790E-02    0.339E-02
DAV:  14    -0.104018458373E+04    0.17303E-04   -0.27244E-04 20616   0.418E-02
   4295 T=   280. E= -.10472744E+04 F= -.10552067E+04 E0= -.10552067E+04  EK= 0.79323E+01 SP= 0.00E+00 SK= 0.00E+00
   4296 T=   277. E= -.10472668E+04 F= -.10551140E+04 E0= -.10551140E+04  EK= 0.78472E+01 SP= 0.00E+00 SK= 0.00E+00
   4297 T=   272. E= -.10471954E+04 F= -.10549081E+04 E0= -.10549081E+04  EK= 0.77127E+01 SP= 0.00E+00 SK= 0.00E+00
   4298 T=   269. E= -.10471168E+04 F= -.10547450E+04 E0= -.10547450E+04  EK= 0.76283E+01 SP= 0.00E+00 SK= 0.00E+00
   4299 T=   268. E= -.10470734E+04 F= -.10546483E+04 E0= -.10546483E+04  EK= 0.75749E+01 SP= 0.00E+00 SK= 0.00E+00
   4300 T=   269. E= -.10470534E+04 F= -.10546691E+04 E0= -.10546691E+04  EK= 0.76157E+01 SP= 0.00E+00 SK= 0.00E+00
   4301 T=   268. E= -.10470876E+04 F= -.10546722E+04 E0= -.10546722E+04  EK= 0.75846E+01 SP= 0.00E+00 SK= 0.00E+00
   4302 T=   267. E= -.10471099E+04 F= -.10546781E+04 E0= -.10546781E+04  EK= 0.75682E+01 SP= 0.00E+00 SK= 0.00E+00
   4303 T=   268. E= -.10471553E+04 F= -.10547468E+04 E0= -.10547468E+04  EK= 0.75915E+01 SP= 0.00E+00 SK= 0.00E+00
   4304 T=   273. E= -.10471381E+04 F= -.10548612E+04 E0= -.10548612E+04  EK= 0.77232E+01 SP= 0.00E+00 SK= 0.00E+00
       N       E                     dE             d eps       ncg     rms          rms(c)
DAV:   1    -0.103301430411E+04    0.71703E+01   -0.30772E+03 20644   0.103E+02
DAV:   2    -0.104092194359E+04   -0.79076E+01   -0.79053E+01 24992   0.149E+01
DAV:   3    -0.104099494991E+04   -0.73006E-01   -0.73000E-01 24984   0.149E+00
DAV:   4    -0.104099651426E+04   -0.15643E-02   -0.15642E-02 25032   0.211E-01    0.120E+01
DAV:   5    -0.103981465656E+04    0.11819E+01   -0.23277E+00 25528   0.378E+00    0.654E+00
DAV:   6    -0.103977849903E+04    0.36158E-01   -0.17241E+00 24856   0.279E+00    0.190E+00
DAV:   7    -0.103981834441E+04   -0.39845E-01   -0.30185E-01 24664   0.130E+00    0.677E-01
DAV:   8    -0.103981715775E+04    0.11867E-02   -0.31723E-02 23864   0.397E-01    0.347E-01
DAV:   9    -0.103981458024E+04    0.25775E-02   -0.11961E-02 23832   0.288E-01    0.159E-01
DAV:  10    -0.103981298717E+04    0.15931E-02   -0.28559E-03 26880   0.194E-01    0.668E-02
DAV:  11    -0.103981252775E+04    0.45942E-03   -0.19653E-03 24056   0.110E-01    0.634E-02
DAV:  12    -0.103981200651E+04    0.52124E-03   -0.57474E-04 21568   0.996E-02    0.298E-02
DAV:  13    -0.103981191240E+04    0.94110E-04   -0.38336E-04 22448   0.626E-02
   4305 T=   282. E= -.10468627E+04 F= -.10548551E+04 E0= -.10548551E+04  EK= 0.79924E+01 SP= 0.00E+00 SK= 0.00E+00
   4306 T=   287. E= -.10468091E+04 F= -.10549196E+04 E0= -.10549196E+04  EK= 0.81104E+01 SP= 0.00E+00 SK= 0.00E+00
   4307 T=   282. E= -.10468238E+04 F= -.10548074E+04 E0= -.10548074E+04  EK= 0.79836E+01 SP= 0.00E+00 SK= 0.00E+00
   4308 T=   279. E= -.10467857E+04 F= -.10546758E+04 E0= -.10546758E+04  EK= 0.78901E+01 SP= 0.00E+00 SK= 0.00E+00
   4309 T=   281. E= -.10466804E+04 F= -.10546228E+04 E0= -.10546228E+04  EK= 0.79424E+01 SP= 0.00E+00 SK= 0.00E+00
   4310 T=   281. E= -.10466922E+04 F= -.10546468E+04 E0= -.10546468E+04  EK= 0.79546E+01 SP= 0.00E+00 SK= 0.00E+00
   4311 T=   281. E= -.10467649E+04 F= -.10547168E+04 E0= -.10547168E+04  EK= 0.79519E+01 SP= 0.00E+00 SK= 0.00E+00
   4312 T=   286. E= -.10467753E+04 F= -.10548665E+04 E0= -.10548665E+04  EK= 0.80912E+01 SP= 0.00E+00 SK= 0.00E+00
   4313 T=   287. E= -.10468063E+04 F= -.10549317E+04 E0= -.10549317E+04  EK= 0.81254E+01 SP= 0.00E+00 SK= 0.00E+00
   4314 T=   285. E= -.10467834E+04 F= -.10548474E+04 E0= -.10548474E+04  EK= 0.80640E+01 SP= 0.00E+00 SK= 0.00E+00
       N       E                     dE             d eps       ncg     rms          rms(c)
DAV:   1    -0.103161068663E+04    0.82013E+01   -0.33398E+03 20644   0.107E+02
DAV:   2    -0.104054635870E+04   -0.89357E+01   -0.89329E+01 24888   0.158E+01
DAV:   3    -0.104062756499E+04   -0.81206E-01   -0.81198E-01 24984   0.158E+00
DAV:   4    -0.104062926643E+04   -0.17014E-02   -0.17013E-02 24968   0.221E-01    0.121E+01
DAV:   5    -0.103943844056E+04    0.11908E+01   -0.23777E+00 25248   0.393E+00    0.661E+00
DAV:   6    -0.103944176036E+04   -0.33198E-02   -0.17999E+00 24936   0.285E+00    0.194E+00
DAV:   7    -0.103948420778E+04   -0.42447E-01   -0.31104E-01 24680   0.135E+00    0.658E-01
DAV:   8    -0.103948412551E+04    0.82265E-04   -0.32344E-02 24056   0.418E-01    0.336E-01
DAV:   9    -0.103948269741E+04    0.14281E-02   -0.14620E-02 23920   0.293E-01    0.179E-01
DAV:  10    -0.103948138839E+04    0.13090E-02   -0.34131E-03 28232   0.197E-01    0.601E-02
DAV:  11    -0.103948109231E+04    0.29608E-03   -0.15315E-03 23832   0.913E-02    0.565E-02
DAV:  12    -0.103948066567E+04    0.42664E-03   -0.29785E-04 20104   0.865E-02    0.182E-02
DAV:  13    -0.103948057964E+04    0.86024E-04   -0.42170E-04 22568   0.633E-02
   4315 T=   280. E= -.10466724E+04 F= -.10545885E+04 E0= -.10545885E+04  EK= 0.79161E+01 SP= 0.00E+00 SK= 0.00E+00
   4316 T=   271. E= -.10467831E+04 F= -.10544556E+04 E0= -.10544556E+04  EK= 0.76726E+01 SP= 0.00E+00 SK= 0.00E+00
   4317 T=   266. E= -.10467741E+04 F= -.10543135E+04 E0= -.10543135E+04  EK= 0.75394E+01 SP= 0.00E+00 SK= 0.00E+00
   4318 T=   268. E= -.10467262E+04 F= -.10543246E+04 E0= -.10543246E+04  EK= 0.75983E+01 SP= 0.00E+00 SK= 0.00E+00
   4319 T=   270. E= -.10468144E+04 F= -.10544547E+04 E0= -.10544547E+04  EK= 0.76403E+01 SP= 0.00E+00 SK= 0.00E+00
   4320 T=   274. E= -.10468793E+04 F= -.10546403E+04 E0= -.10546403E+04  EK= 0.77611E+01 SP= 0.00E+00 SK= 0.00E+00
   4321 T=   282. E= -.10468412E+04 F= -.10548128E+04 E0= -.10548128E+04  EK= 0.79717E+01 SP= 0.00E+00 SK= 0.00E+00
   4322 T=   283. E= -.10468514E+04 F= -.10548612E+04 E0= -.10548612E+04  EK= 0.80098E+01 SP= 0.00E+00 SK= 0.00E+00
   4323 T=   278. E= -.10468967E+04 F= -.10547760E+04 E0= -.10547760E+04  EK= 0.78792E+01 SP= 0.00E+00 SK= 0.00E+00
   4324 T=   272. E= -.10469218E+04 F= -.10546311E+04 E0= -.10546311E+04  EK= 0.77093E+01 SP= 0.00E+00 SK= 0.00E+00
       N       E                     dE             d eps       ncg     rms          rms(c)
DAV:   1    -0.103310864854E+04    0.63720E+01   -0.29568E+03 20644   0.101E+02
DAV:   2    -0.104044609274E+04   -0.73374E+01   -0.73352E+01 24968   0.145E+01
DAV:   3    -0.104051456446E+04   -0.68472E-01   -0.68465E-01 24992   0.144E+00
DAV:   4    -0.104051605345E+04   -0.14890E-02   -0.14889E-02 24952   0.204E-01    0.121E+01
DAV:   5    -0.103929992585E+04    0.12161E+01   -0.28026E+00 25288   0.417E+00    0.645E+00
DAV:   6    -0.103932052133E+04   -0.20595E-01   -0.16122E+00 25040   0.272E+00    0.219E+00
DAV:   7    -0.103936340241E+04   -0.42881E-01   -0.31222E-01 25184   0.139E+00    0.683E-01
DAV:   8    -0.103936316887E+04    0.23353E-03   -0.35861E-02 23888   0.435E-01    0.373E-01
DAV:   9    -0.103936038148E+04    0.27874E-02   -0.18402E-02 23960   0.330E-01    0.200E-01
DAV:  10    -0.103935844698E+04    0.19345E-02   -0.39555E-03 28472   0.222E-01    0.741E-02
DAV:  11    -0.103935780826E+04    0.63872E-03   -0.24082E-03 23856   0.129E-01    0.691E-02
DAV:  12    -0.103935724126E+04    0.56700E-03   -0.40529E-04 21296   0.971E-02    0.273E-02
DAV:  13    -0.103935701916E+04    0.22209E-03   -0.45339E-04 22024   0.831E-02    0.286E-02
DAV:  14    -0.103935700336E+04    0.15803E-04   -0.28419E-04 20688   0.436E-02
   4325 T=   269. E= -.10469152E+04 F= -.10545351E+04 E0= -.10545351E+04  EK= 0.76199E+01 SP= 0.00E+00 SK= 0.00E+00
   4326 T=   275. E= -.10469937E+04 F= -.10547817E+04 E0= -.10547817E+04  EK= 0.77880E+01 SP= 0.00E+00 SK= 0.00E+00
   4327 T=   284. E= -.10470682E+04 F= -.10551129E+04 E0= -.10551129E+04  EK= 0.80447E+01 SP= 0.00E+00 SK= 0.00E+00
   4328 T=   290. E= -.10471644E+04 F= -.10553690E+04 E0= -.10553690E+04  EK= 0.82045E+01 SP= 0.00E+00 SK= 0.00E+00
   4329 T=   289. E= -.10472265E+04 F= -.10554092E+04 E0= -.10554092E+04  EK= 0.81826E+01 SP= 0.00E+00 SK= 0.00E+00
   4330 T=   278. E= -.10473716E+04 F= -.10552350E+04 E0= -.10552350E+04  EK= 0.78635E+01 SP= 0.00E+00 SK= 0.00E+00
   4331 T=   267. E= -.10473830E+04 F= -.10549335E+04 E0= -.10549335E+04  EK= 0.75505E+01 SP= 0.00E+00 SK= 0.00E+00
   4332 T=   261. E= -.10472928E+04 F= -.10546845E+04 E0= -.10546845E+04  EK= 0.73916E+01 SP= 0.00E+00 SK= 0.00E+00
   4333 T=   261. E= -.10472539E+04 F= -.10546291E+04 E0= -.10546291E+04  EK= 0.73752E+01 SP= 0.00E+00 SK= 0.00E+00
   4334 T=   265. E= -.10472276E+04 F= -.10547276E+04 E0= -.10547276E+04  EK= 0.74999E+01 SP= 0.00E+00 SK= 0.00E+00
   4335 T=   276. E= -.10471350E+04 F= -.10549356E+04 E0= -.10549356E+04  EK= 0.78006E+01 SP= 0.00E+00 SK= 0.00E+00
   4336 T=   285. E= -.10470112E+04 F= -.10550764E+04 E0= -.10550764E+04  EK= 0.80651E+01 SP= 0.00E+00 SK= 0.00E+00
   4337 T=   285. E= -.10470078E+04 F= -.10550888E+04 E0= -.10550888E+04  EK= 0.80809E+01 SP= 0.00E+00 SK= 0.00E+00
   4338 T=   282. E= -.10469762E+04 F= -.10549653E+04 E0= -.10549653E+04  EK= 0.79892E+01 SP= 0.00E+00 SK= 0.00E+00
   4339 T=   281. E= -.10468700E+04 F= -.10548203E+04 E0= -.10548203E+04  EK= 0.79503E+01 SP= 0.00E+00 SK= 0.00E+00
   4340 T=   280. E= -.10468447E+04 F= -.10547715E+04 E0= -.10547715E+04  EK= 0.79268E+01 SP= 0.00E+00 SK= 0.00E+00
   4341 T=   284. E= -.10467948E+04 F= -.10548442E+04 E0= -.10548442E+04  EK= 0.80494E+01 SP= 0.00E+00 SK= 0.00E+00
   4342 T=   294. E= -.10467431E+04 F= -.10550740E+04 E0= -.10550740E+04  EK= 0.83310E+01 SP= 0.00E+00 SK= 0.00E+00
   4343 T=   304. E= -.10467155E+04 F= -.10553316E+04 E0= -.10553316E+04  EK= 0.86161E+01 SP= 0.00E+00 SK= 0.00E+00
   4344 T=   307. E= -.10467495E+04 F= -.10554374E+04 E0= -.10554374E+04  EK= 0.86879E+01 SP= 0.00E+00 SK= 0.00E+00
   4345 T=   300. E= -.10468550E+04 F= -.10553440E+04 E0= -.10553440E+04  EK= 0.84890E+01 SP= 0.00E+00 SK= 0.00E+00
   4346 T=   291. E= -.10469010E+04 F= -.10551389E+04 E0= -.10551389E+04  EK= 0.82379E+01 SP= 0.00E+00 SK= 0.00E+00
   4347 T=   287. E= -.10468211E+04 F= -.10549560E+04 E0= -.10549560E+04  EK= 0.81349E+01 SP= 0.00E+00 SK= 0.00E+00
   4348 T=   286. E= -.10468233E+04 F= -.10549295E+04 E0= -.10549295E+04  EK= 0.81062E+01 SP= 0.00E+00 SK= 0.00E+00
   4349 T=   288. E= -.10469335E+04 F= -.10550821E+04 E0= -.10550821E+04  EK= 0.81486E+01 SP= 0.00E+00 SK= 0.00E+00
   4350 T=   293. E= -.10470030E+04 F= -.10552879E+04 E0= -.10552879E+04  EK= 0.82849E+01 SP= 0.00E+00 SK= 0.00E+00
   4351 T=   297. E= -.10470655E+04 F= -.10554742E+04 E0= -.10554742E+04  EK= 0.84087E+01 SP= 0.00E+00 SK= 0.00E+00
   4352 T=   300. E= -.10470655E+04 F= -.10555620E+04 E0= -.10555620E+04  EK= 0.84965E+01 SP= 0.00E+00 SK= 0.00E+00
   4353 T=   299. E= -.10470553E+04 F= -.10555124E+04 E0= -.10555124E+04  EK= 0.84570E+01 SP= 0.00E+00 SK= 0.00E+00
   4354 T=   296. E= -.10470242E+04 F= -.10554062E+04 E0= -.10554062E+04  EK= 0.83821E+01 SP= 0.00E+00 SK= 0.00E+00
   4355 T=   295. E= -.10469360E+04 F= -.10552848E+04 E0= -.10552848E+04  EK= 0.83489E+01 SP= 0.00E+00 SK= 0.00E+00
   4356 T=   291. E= -.10468926E+04 F= -.10551296E+04 E0= -.10551296E+04  EK= 0.82370E+01 SP= 0.00E+00 SK= 0.00E+00
   4357 T=   288. E= -.10469359E+04 F= -.10550903E+04 E0= -.10550903E+04  EK= 0.81544E+01 SP= 0.00E+00 SK= 0.00E+00
   4358 T=   291. E= -.10469711E+04 F= -.10552152E+04 E0= -.10552152E+04  EK= 0.82440E+01 SP= 0.00E+00 SK= 0.00E+00
   4359 T=   296. E= -.10469915E+04 F= -.10553590E+04 E0= -.10553590E+04  EK= 0.83675E+01 SP= 0.00E+00 SK= 0.00E+00
   4360 T=   292. E= -.10471383E+04 F= -.10554117E+04 E0= -.10554117E+04  EK= 0.82734E+01 SP= 0.00E+00 SK= 0.00E+00
   4361 T=   283. E= -.10472506E+04 F= -.10552757E+04 E0= -.10552757E+04  EK= 0.80251E+01 SP= 0.00E+00 SK= 0.00E+00
   4362 T=   281. E= -.10471045E+04 F= -.10550616E+04 E0= -.10550616E+04  EK= 0.79571E+01 SP= 0.00E+00 SK= 0.00E+00
   4363 T=   281. E= -.10469948E+04 F= -.10549355E+04 E0= -.10549355E+04  EK= 0.79407E+01 SP= 0.00E+00 SK= 0.00E+00
   4364 T=   281. E= -.10469795E+04 F= -.10549434E+04 E0= -.10549434E+04  EK= 0.79639E+01 SP= 0.00E+00 SK= 0.00E+00
   4365 T=   285. E= -.10469264E+04 F= -.10549824E+04 E0= -.10549824E+04  EK= 0.80559E+01 SP= 0.00E+00 SK= 0.00E+00
   4366 T=   286. E= -.10469356E+04 F= -.10550245E+04 E0= -.10550245E+04  EK= 0.80889E+01 SP= 0.00E+00 SK= 0.00E+00
   4367 T=   284. E= -.10469799E+04 F= -.10550287E+04 E0= -.10550287E+04  EK= 0.80488E+01 SP= 0.00E+00 SK= 0.00E+00
   4368 T=   280. E= -.10470705E+04 F= -.10549974E+04 E0= -.10549974E+04  EK= 0.79269E+01 SP= 0.00E+00 SK= 0.00E+00
   4369 T=   275. E= -.10472115E+04 F= -.10549880E+04 E0= -.10549880E+04  EK= 0.77765E+01 SP= 0.00E+00 SK= 0.00E+00
   4370 T=   275. E= -.10472833E+04 F= -.10550706E+04 E0= -.10550706E+04  EK= 0.77873E+01 SP= 0.00E+00 SK= 0.00E+00
   4371 T=   282. E= -.10472344E+04 F= -.10552173E+04 E0= -.10552173E+04  EK= 0.79828E+01 SP= 0.00E+00 SK= 0.00E+00
   4372 T=   283. E= -.10472458E+04 F= -.10552700E+04 E0= -.10552700E+04  EK= 0.80242E+01 SP= 0.00E+00 SK= 0.00E+00
   4373 T=   279. E= -.10473039E+04 F= -.10552149E+04 E0= -.10552149E+04  EK= 0.79110E+01 SP= 0.00E+00 SK= 0.00E+00
   4374 T=   273. E= -.10473815E+04 F= -.10551174E+04 E0= -.10551174E+04  EK= 0.77359E+01 SP= 0.00E+00 SK= 0.00E+00
   4375 T=   272. E= -.10473667E+04 F= -.10550784E+04 E0= -.10550784E+04  EK= 0.77117E+01 SP= 0.00E+00 SK= 0.00E+00
   4376 T=   281. E= -.10472217E+04 F= -.10551652E+04 E0= -.10551652E+04  EK= 0.79435E+01 SP= 0.00E+00 SK= 0.00E+00
   4377 T=   287. E= -.10471635E+04 F= -.10552823E+04 E0= -.10552823E+04  EK= 0.81188E+01 SP= 0.00E+00 SK= 0.00E+00
   4378 T=   289. E= -.10471606E+04 F= -.10553323E+04 E0= -.10553323E+04  EK= 0.81717E+01 SP= 0.00E+00 SK= 0.00E+00
   4379 T=   293. E= -.10470633E+04 F= -.10553600E+04 E0= -.10553600E+04  EK= 0.82967E+01 SP= 0.00E+00 SK= 0.00E+00
   4380 T=   294. E= -.10470349E+04 F= -.10553614E+04 E0= -.10553614E+04  EK= 0.83265E+01 SP= 0.00E+00 SK= 0.00E+00
   4381 T=   292. E= -.10470617E+04 F= -.10553281E+04 E0= -.10553281E+04  EK= 0.82664E+01 SP= 0.00E+00 SK= 0.00E+00
   4382 T=   291. E= -.10470113E+04 F= -.10552477E+04 E0= -.10552477E+04  EK= 0.82363E+01 SP= 0.00E+00 SK= 0.00E+00
   4383 T=   286. E= -.10470134E+04 F= -.10551206E+04 E0= -.10551206E+04  EK= 0.81072E+01 SP= 0.00E+00 SK= 0.00E+00
   4384 T=   281. E= -.10470498E+04 F= -.10550011E+04 E0= -.10550011E+04  EK= 0.79513E+01 SP= 0.00E+00 SK= 0.00E+00
   4385 T=   280. E= -.10470999E+04 F= -.10550400E+04 E0= -.10550400E+04  EK= 0.79401E+01 SP= 0.00E+00 SK= 0.00E+00
   4386 T=   287. E= -.10470997E+04 F= -.10552263E+04 E0= -.10552263E+04  EK= 0.81266E+01 SP= 0.00E+00 SK= 0.00E+00
   4387 T=   301. E= -.10470014E+04 F= -.10555216E+04 E0= -.10555216E+04  EK= 0.85202E+01 SP= 0.00E+00 SK= 0.00E+00
   4388 T=   305. E= -.10469603E+04 F= -.10556057E+04 E0= -.10556057E+04  EK= 0.86453E+01 SP= 0.00E+00 SK= 0.00E+00
   4389 T=   296. E= -.10471076E+04 F= -.10554887E+04 E0= -.10554887E+04  EK= 0.83811E+01 SP= 0.00E+00 SK= 0.00E+00
   4390 T=   285. E= -.10472259E+04 F= -.10552985E+04 E0= -.10552985E+04  EK= 0.80726E+01 SP= 0.00E+00 SK= 0.00E+00
       N       E                     dE             d eps       ncg     rms          rms(c)
DAV:   1    -0.696683612710E+03    0.34267E+03   -0.39553E+04 20644   0.349E+02
DAV:   2    -0.104734044984E+04   -0.35066E+03   -0.34755E+03 24523   0.923E+01
DAV:   3    -0.105427958401E+04   -0.69391E+01   -0.69344E+01 24640   0.145E+01
DAV:   4    -0.105439140503E+04   -0.11182E+00   -0.11180E+00 24840   0.176E+00    0.366E+01
DAV:   5    -0.104026749971E+04    0.14124E+02   -0.22873E+01 25576   0.112E+01    0.203E+01
DAV:   6    -0.103886085287E+04    0.14066E+01   -0.22501E+01 25104   0.951E+00    0.542E+00
DAV:   7    -0.103936825766E+04   -0.50740E+00   -0.37315E+00 24408   0.420E+00    0.235E+00
DAV:   8    -0.103940825438E+04   -0.39997E-01   -0.27052E-01 23688   0.111E+00    0.128E+00
DAV:   9    -0.103941797760E+04   -0.97232E-02   -0.17057E-01 23752   0.100E+00    0.692E-01
DAV:  10    -0.103941065468E+04    0.73229E-02   -0.32725E-02 26416   0.518E-01    0.293E-01
DAV:  11    -0.103940964358E+04    0.10111E-02   -0.19865E-02 24456   0.301E-01    0.127E-01
DAV:  12    -0.103940836609E+04    0.12775E-02   -0.17790E-03 23528   0.133E-01    0.762E-02
DAV:  13    -0.103940740393E+04    0.96216E-03   -0.14528E-03 22992   0.123E-01    0.396E-02
DAV:  14    -0.103940711687E+04    0.28706E-03   -0.65019E-04 24128   0.838E-02    0.411E-02
DAV:  15    -0.103940708461E+04    0.32257E-04   -0.33769E-04 23304   0.425E-02
   4391 T=   278. E= -.10472262E+04 F= -.10551075E+04 E0= -.10551075E+04  EK= 0.78813E+01 SP= 0.00E+00 SK= 0.00E+00
   4392 T=   277. E= -.10473216E+04 F= -.10551679E+04 E0= -.10551679E+04  EK= 0.78463E+01 SP= 0.00E+00 SK= 0.00E+00
   4393 T=   284. E= -.10472922E+04 F= -.10553251E+04 E0= -.10553251E+04  EK= 0.80329E+01 SP= 0.00E+00 SK= 0.00E+00
   4394 T=   293. E= -.10471783E+04 F= -.10554841E+04 E0= -.10554841E+04  EK= 0.83058E+01 SP= 0.00E+00 SK= 0.00E+00
   4395 T=   299. E= -.10471201E+04 F= -.10555849E+04 E0= -.10555849E+04  EK= 0.84648E+01 SP= 0.00E+00 SK= 0.00E+00
   4396 T=   301. E= -.10471218E+04 F= -.10556383E+04 E0= -.10556383E+04  EK= 0.85165E+01 SP= 0.00E+00 SK= 0.00E+00
   4397 T=   301. E= -.10470625E+04 F= -.10555859E+04 E0= -.10555859E+04  EK= 0.85235E+01 SP= 0.00E+00 SK= 0.00E+00
   4398 T=   298. E= -.10470782E+04 F= -.10555218E+04 E0= -.10555218E+04  EK= 0.84436E+01 SP= 0.00E+00 SK= 0.00E+00
   4399 T=   290. E= -.10472350E+04 F= -.10554364E+04 E0= -.10554364E+04  EK= 0.82014E+01 SP= 0.00E+00 SK= 0.00E+00
   4400 T=   287. E= -.10473109E+04 F= -.10554312E+04 E0= -.10554312E+04  EK= 0.81204E+01 SP= 0.00E+00 SK= 0.00E+00
   4401 T=   289. E= -.10472933E+04 F= -.10554679E+04 E0= -.10554679E+04  EK= 0.81746E+01 SP= 0.00E+00 SK= 0.00E+00
   4402 T=   292. E= -.10472288E+04 F= -.10554964E+04 E0= -.10554964E+04  EK= 0.82676E+01 SP= 0.00E+00 SK= 0.00E+00
   4403 T=   288. E= -.10473168E+04 F= -.10554595E+04 E0= -.10554595E+04  EK= 0.81427E+01 SP= 0.00E+00 SK= 0.00E+00
   4404 T=   281. E= -.10474432E+04 F= -.10553852E+04 E0= -.10553852E+04  EK= 0.79420E+01 SP= 0.00E+00 SK= 0.00E+00
   4405 T=   279. E= -.10474327E+04 F= -.10553427E+04 E0= -.10553427E+04  EK= 0.79101E+01 SP= 0.00E+00 SK= 0.00E+00
   4406 T=   282. E= -.10473664E+04 F= -.10553417E+04 E0= -.10553417E+04  EK= 0.79753E+01 SP= 0.00E+00 SK= 0.00E+00
   4407 T=   289. E= -.10472351E+04 F= -.10554027E+04 E0= -.10554027E+04  EK= 0.81676E+01 SP= 0.00E+00 SK= 0.00E+00
   4408 T=   297. E= -.10470727E+04 F= -.10554698E+04 E0= -.10554698E+04  EK= 0.83971E+01 SP= 0.00E+00 SK= 0.00E+00
   4409 T=   301. E= -.10469939E+04 F= -.10555035E+04 E0= -.10555035E+04  EK= 0.85096E+01 SP= 0.00E+00 SK= 0.00E+00
   4410 T=   304. E= -.10468726E+04 F= -.10554648E+04 E0= -.10554648E+04  EK= 0.85922E+01 SP= 0.00E+00 SK= 0.00E+00
   4411 T=   303. E= -.10468059E+04 F= -.10553845E+04 E0= -.10553845E+04  EK= 0.85786E+01 SP= 0.00E+00 SK= 0.00E+00
   4412 T=   300. E= -.10468881E+04 F= -.10553897E+04 E0= -.10553897E+04  EK= 0.85015E+01 SP= 0.00E+00 SK= 0.00E+00
   4413 T=   301. E= -.10469334E+04 F= -.10554539E+04 E0= -.10554539E+04  EK= 0.85205E+01 SP= 0.00E+00 SK= 0.00E+00
   4414 T=   303. E= -.10469258E+04 F= -.10555062E+04 E0= -.10555062E+04  EK= 0.85805E+01 SP= 0.00E+00 SK= 0.00E+00
   4415 T=   304. E= -.10468619E+04 F= -.10554637E+04 E0= -.10554637E+04  EK= 0.86018E+01 SP= 0.00E+00 SK= 0.00E+00
   4416 T=   297. E= -.10469085E+04 F= -.10553299E+04 E0= -.10553299E+04  EK= 0.84214E+01 SP= 0.00E+00 SK= 0.00E+00
   4417 T=   286. E= -.10470694E+04 F= -.10551795E+04 E0= -.10551795E+04  EK= 0.81101E+01 SP= 0.00E+00 SK= 0.00E+00
   4418 T=   285. E= -.10470038E+04 F= -.10550819E+04 E0= -.10550819E+04  EK= 0.80781E+01 SP= 0.00E+00 SK= 0.00E+00
   4419 T=   287. E= -.10469542E+04 F= -.10550725E+04 E0= -.10550725E+04  EK= 0.81183E+01 SP= 0.00E+00 SK= 0.00E+00
   4420 T=   289. E= -.10469471E+04 F= -.10551305E+04 E0= -.10551305E+04  EK= 0.81834E+01 SP= 0.00E+00 SK= 0.00E+00
   4421 T=   293. E= -.10469207E+04 F= -.10552108E+04 E0= -.10552108E+04  EK= 0.82901E+01 SP= 0.00E+00 SK= 0.00E+00
   4422 T=   294. E= -.10469818E+04 F= -.10553130E+04 E0= -.10553130E+04  EK= 0.83312E+01 SP= 0.00E+00 SK= 0.00E+00
   4423 T=   297. E= -.10470522E+04 F= -.10554646E+04 E0= -.10554646E+04  EK= 0.84124E+01 SP= 0.00E+00 SK= 0.00E+00
   4424 T=   301. E= -.10470795E+04 F= -.10555870E+04 E0= -.10555870E+04  EK= 0.85075E+01 SP= 0.00E+00 SK= 0.00E+00
   4425 T=   303. E= -.10470746E+04 F= -.10556643E+04 E0= -.10556643E+04  EK= 0.85897E+01 SP= 0.00E+00 SK= 0.00E+00
   4426 T=   304. E= -.10470429E+04 F= -.10556384E+04 E0= -.10556384E+04  EK= 0.85955E+01 SP= 0.00E+00 SK= 0.00E+00
   4427 T=   303. E= -.10469971E+04 F= -.10555771E+04 E0= -.10555771E+04  EK= 0.85800E+01 SP= 0.00E+00 SK= 0.00E+00
   4428 T=   300. E= -.10470610E+04 F= -.10555456E+04 E0= -.10555456E+04  EK= 0.84846E+01 SP= 0.00E+00 SK= 0.00E+00
   4429 T=   300. E= -.10471042E+04 F= -.10555868E+04 E0= -.10555868E+04  EK= 0.84826E+01 SP= 0.00E+00 SK= 0.00E+00
   4430 T=   303. E= -.10469982E+04 F= -.10555885E+04 E0= -.10555885E+04  EK= 0.85903E+01 SP= 0.00E+00 SK= 0.00E+00
   4431 T=   307. E= -.10468816E+04 F= -.10555643E+04 E0= -.10555643E+04  EK= 0.86828E+01 SP= 0.00E+00 SK= 0.00E+00
   4432 T=   304. E= -.10468627E+04 F= -.10554653E+04 E0= -.10554653E+04  EK= 0.86026E+01 SP= 0.00E+00 SK= 0.00E+00
   4433 T=   303. E= -.10467656E+04 F= -.10553350E+04 E0= -.10553350E+04  EK= 0.85695E+01 SP= 0.00E+00 SK= 0.00E+00
   4434 T=   302. E= -.10466301E+04 F= -.10551863E+04 E0= -.10551863E+04  EK= 0.85562E+01 SP= 0.00E+00 SK= 0.00E+00
   4435 T=   296. E= -.10466146E+04 F= -.10549847E+04 E0= -.10549847E+04  EK= 0.83701E+01 SP= 0.00E+00 SK= 0.00E+00
   4436 T=   294. E= -.10465496E+04 F= -.10548833E+04 E0= -.10548833E+04  EK= 0.83337E+01 SP= 0.00E+00 SK= 0.00E+00
   4437 T=   294. E= -.10465300E+04 F= -.10548648E+04 E0= -.10548648E+04  EK= 0.83348E+01 SP= 0.00E+00 SK= 0.00E+00
   4438 T=   293. E= -.10465700E+04 F= -.10548771E+04 E0= -.10548771E+04  EK= 0.83070E+01 SP= 0.00E+00 SK= 0.00E+00
   4439 T=   297. E= -.10465607E+04 F= -.10549561E+04 E0= -.10549561E+04  EK= 0.83954E+01 SP= 0.00E+00 SK= 0.00E+00
   4440 T=   300. E= -.10465416E+04 F= -.10550258E+04 E0= -.10550258E+04  EK= 0.84843E+01 SP= 0.00E+00 SK= 0.00E+00
   4441 T=   306. E= -.10464459E+04 F= -.10551045E+04 E0= -.10551045E+04  EK= 0.86586E+01 SP= 0.00E+00 SK= 0.00E+00
   4442 T=   313. E= -.10462788E+04 F= -.10551523E+04 E0= -.10551523E+04  EK= 0.88736E+01 SP= 0.00E+00 SK= 0.00E+00
   4443 T=   316. E= -.10461468E+04 F= -.10550963E+04 E0= -.10550963E+04  EK= 0.89495E+01 SP= 0.00E+00 SK= 0.00E+00
   4444 T=   312. E= -.10461194E+04 F= -.10549622E+04 E0= -.10549622E+04  EK= 0.88429E+01 SP= 0.00E+00 SK= 0.00E+00
   4445 T=   306. E= -.10461453E+04 F= -.10548209E+04 E0= -.10548209E+04  EK= 0.86756E+01 SP= 0.00E+00 SK= 0.00E+00
   4446 T=   302. E= -.10461885E+04 F= -.10547280E+04 E0= -.10547280E+04  EK= 0.85395E+01 SP= 0.00E+00 SK= 0.00E+00
   4447 T=   300. E= -.10462103E+04 F= -.10547083E+04 E0= -.10547083E+04  EK= 0.84980E+01 SP= 0.00E+00 SK= 0.00E+00
   4448 T=   300. E= -.10462210E+04 F= -.10547025E+04 E0= -.10547025E+04  EK= 0.84816E+01 SP= 0.00E+00 SK= 0.00E+00
   4449 T=   298. E= -.10462541E+04 F= -.10546908E+04 E0= -.10546908E+04  EK= 0.84367E+01 SP= 0.00E+00 SK= 0.00E+00
   4450 T=   299. E= -.10462775E+04 F= -.10547448E+04 E0= -.10547448E+04  EK= 0.84673E+01 SP= 0.00E+00 SK= 0.00E+00
   4451 T=   299. E= -.10463747E+04 F= -.10548431E+04 E0= -.10548431E+04  EK= 0.84683E+01 SP= 0.00E+00 SK= 0.00E+00
   4452 T=   298. E= -.10465279E+04 F= -.10549640E+04 E0= -.10549640E+04  EK= 0.84361E+01 SP= 0.00E+00 SK= 0.00E+00
   4453 T=   295. E= -.10466735E+04 F= -.10550368E+04 E0= -.10550368E+04  EK= 0.83634E+01 SP= 0.00E+00 SK= 0.00E+00
   4454 T=   296. E= -.10467189E+04 F= -.10550890E+04 E0= -.10550890E+04  EK= 0.83701E+01 SP= 0.00E+00 SK= 0.00E+00
   4455 T=   292. E= -.10468124E+04 F= -.10550891E+04 E0= -.10550891E+04  EK= 0.82767E+01 SP= 0.00E+00 SK= 0.00E+00
   4456 T=   286. E= -.10469724E+04 F= -.10550673E+04 E0= -.10550673E+04  EK= 0.80949E+01 SP= 0.00E+00 SK= 0.00E+00
   4457 T=   285. E= -.10469649E+04 F= -.10550391E+04 E0= -.10550391E+04  EK= 0.80742E+01 SP= 0.00E+00 SK= 0.00E+00
   4458 T=   283. E= -.10469621E+04 F= -.10549765E+04 E0= -.10549765E+04  EK= 0.80144E+01 SP= 0.00E+00 SK= 0.00E+00
   4459 T=   277. E= -.10471084E+04 F= -.10549371E+04 E0= -.10549371E+04  EK= 0.78287E+01 SP= 0.00E+00 SK= 0.00E+00
   4460 T=   276. E= -.10471289E+04 F= -.10549407E+04 E0= -.10549407E+04  EK= 0.78118E+01 SP= 0.00E+00 SK= 0.00E+00
   4461 T=   278. E= -.10471481E+04 F= -.10550131E+04 E0= -.10550131E+04  EK= 0.78650E+01 SP= 0.00E+00 SK= 0.00E+00
   4462 T=   277. E= -.10472304E+04 F= -.10550709E+04 E0= -.10550709E+04  EK= 0.78404E+01 SP= 0.00E+00 SK= 0.00E+00
   4463 T=   276. E= -.10472539E+04 F= -.10550645E+04 E0= -.10550645E+04  EK= 0.78105E+01 SP= 0.00E+00 SK= 0.00E+00
   4464 T=   271. E= -.10472885E+04 F= -.10549728E+04 E0= -.10549728E+04  EK= 0.76843E+01 SP= 0.00E+00 SK= 0.00E+00
   4465 T=   268. E= -.10472802E+04 F= -.10548649E+04 E0= -.10548649E+04  EK= 0.75847E+01 SP= 0.00E+00 SK= 0.00E+00
   4466 T=   266. E= -.10472758E+04 F= -.10548179E+04 E0= -.10548179E+04  EK= 0.75421E+01 SP= 0.00E+00 SK= 0.00E+00
   4467 T=   274. E= -.10471153E+04 F= -.10548696E+04 E0= -.10548696E+04  EK= 0.77543E+01 SP= 0.00E+00 SK= 0.00E+00
   4468 T=   287. E= -.10468910E+04 F= -.10550036E+04 E0= -.10550036E+04  EK= 0.81126E+01 SP= 0.00E+00 SK= 0.00E+00
   4469 T=   296. E= -.10468209E+04 F= -.10552024E+04 E0= -.10552024E+04  EK= 0.83815E+01 SP= 0.00E+00 SK= 0.00E+00
   4470 T=   302. E= -.10468061E+04 F= -.10553597E+04 E0= -.10553597E+04  EK= 0.85536E+01 SP= 0.00E+00 SK= 0.00E+00
   4471 T=   305. E= -.10468109E+04 F= -.10554495E+04 E0= -.10554495E+04  EK= 0.86385E+01 SP= 0.00E+00 SK= 0.00E+00
   4472 T=   302. E= -.10468954E+04 F= -.10554503E+04 E0= -.10554503E+04  EK= 0.85549E+01 SP= 0.00E+00 SK= 0.00E+00
   4473 T=   296. E= -.10470058E+04 F= -.10553989E+04 E0= -.10553989E+04  EK= 0.83931E+01 SP= 0.00E+00 SK= 0.00E+00
   4474 T=   293. E= -.10470410E+04 F= -.10553307E+04 E0= -.10553307E+04  EK= 0.82897E+01 SP= 0.00E+00 SK= 0.00E+00
   4475 T=   292. E= -.10470117E+04 F= -.10552687E+04 E0= -.10552687E+04  EK= 0.82570E+01 SP= 0.00E+00 SK= 0.00E+00
   4476 T=   291. E= -.10469849E+04 F= -.10552212E+04 E0= -.10552212E+04  EK= 0.82363E+01 SP= 0.00E+00 SK= 0.00E+00
   4477 T=   292. E= -.10469441E+04 F= -.10551981E+04 E0= -.10551981E+04  EK= 0.82540E+01 SP= 0.00E+00 SK= 0.00E+00
   4478 T=   295. E= -.10468899E+04 F= -.10552275E+04 E0= -.10552275E+04  EK= 0.83376E+01 SP= 0.00E+00 SK= 0.00E+00
   4479 T=   297. E= -.10468986E+04 F= -.10553177E+04 E0= -.10553177E+04  EK= 0.84191E+01 SP= 0.00E+00 SK= 0.00E+00
   4480 T=   298. E= -.10469294E+04 F= -.10553784E+04 E0= -.10553784E+04  EK= 0.84490E+01 SP= 0.00E+00 SK= 0.00E+00
   4481 T=   300. E= -.10468833E+04 F= -.10553737E+04 E0= -.10553737E+04  EK= 0.84904E+01 SP= 0.00E+00 SK= 0.00E+00
   4482 T=   300. E= -.10467924E+04 F= -.10552958E+04 E0= -.10552958E+04  EK= 0.85034E+01 SP= 0.00E+00 SK= 0.00E+00
   4483 T=   292. E= -.10468956E+04 F= -.10551685E+04 E0= -.10551685E+04  EK= 0.82729E+01 SP= 0.00E+00 SK= 0.00E+00
   4484 T=   287. E= -.10469294E+04 F= -.10550405E+04 E0= -.10550405E+04  EK= 0.81111E+01 SP= 0.00E+00 SK= 0.00E+00
   4485 T=   286. E= -.10468811E+04 F= -.10549690E+04 E0= -.10549690E+04  EK= 0.80879E+01 SP= 0.00E+00 SK= 0.00E+00
   4486 T=   285. E= -.10469343E+04 F= -.10550117E+04 E0= -.10550117E+04  EK= 0.80774E+01 SP= 0.00E+00 SK= 0.00E+00
       N       E                     dE             d eps       ncg     rms          rms(c)
DAV:   1    -0.560043746682E+03    0.47936E+03   -0.45187E+04 20644   0.369E+02
DAV:   2    -0.103914608357E+04   -0.47910E+03   -0.47012E+03 24539   0.106E+02
DAV:   3    -0.105062075143E+04   -0.11475E+02   -0.11462E+02 25168   0.172E+01
DAV:   4    -0.105078719329E+04   -0.16644E+00   -0.16639E+00 24616   0.207E+00    0.365E+01
DAV:   5    -0.103878124622E+04    0.12006E+02   -0.31594E+01 24792   0.108E+01    0.201E+01
DAV:   6    -0.103904737053E+04   -0.26612E+00   -0.12187E+01 24440   0.701E+00    0.751E+00
DAV:   7    -0.103977136955E+04   -0.72400E+00   -0.23832E+00 24304   0.351E+00    0.197E+00
DAV:   8    -0.103979690784E+04   -0.25538E-01   -0.25889E-01 24232   0.108E+00    0.941E-01
DAV:   9    -0.103979554862E+04    0.13592E-02   -0.83889E-02 23680   0.648E-01    0.317E-01
DAV:  10    -0.103979290946E+04    0.26392E-02   -0.14103E-02 24848   0.333E-01    0.178E-01
DAV:  11    -0.103979106886E+04    0.18406E-02   -0.77398E-03 23528   0.219E-01    0.123E-01
DAV:  12    -0.103978886298E+04    0.22059E-02   -0.11717E-03 24424   0.163E-01    0.556E-02
DAV:  13    -0.103978757479E+04    0.12882E-02   -0.20465E-03 22400   0.169E-01    0.543E-02
DAV:  14    -0.103978748734E+04    0.87441E-04   -0.12972E-03 24880   0.909E-02    0.344E-02
DAV:  15    -0.103978747686E+04    0.10488E-04   -0.18553E-04 19408   0.265E-02
   4487 T=   291. E= -.10469542E+04 F= -.10551946E+04 E0= -.10551946E+04  EK= 0.82404E+01 SP= 0.00E+00 SK= 0.00E+00
   4488 T=   292. E= -.10470605E+04 F= -.10553336E+04 E0= -.10553336E+04  EK= 0.82732E+01 SP= 0.00E+00 SK= 0.00E+00
   4489 T=   286. E= -.10472594E+04 F= -.10553590E+04 E0= -.10553590E+04  EK= 0.80996E+01 SP= 0.00E+00 SK= 0.00E+00
   4490 T=   284. E= -.10472864E+04 F= -.10553400E+04 E0= -.10553400E+04  EK= 0.80536E+01 SP= 0.00E+00 SK= 0.00E+00
   4491 T=   284. E= -.10471950E+04 F= -.10552393E+04 E0= -.10552393E+04  EK= 0.80444E+01 SP= 0.00E+00 SK= 0.00E+00
   4492 T=   284. E= -.10470924E+04 F= -.10551340E+04 E0= -.10551340E+04  EK= 0.80416E+01 SP= 0.00E+00 SK= 0.00E+00
   4493 T=   282. E= -.10470353E+04 F= -.10550061E+04 E0= -.10550061E+04  EK= 0.79708E+01 SP= 0.00E+00 SK= 0.00E+00
   4494 T=   278. E= -.10470613E+04 F= -.10549397E+04 E0= -.10549397E+04  EK= 0.78784E+01 SP= 0.00E+00 SK= 0.00E+00
   4495 T=   278. E= -.10470509E+04 F= -.10549129E+04 E0= -.10549129E+04  EK= 0.78620E+01 SP= 0.00E+00 SK= 0.00E+00
   4496 T=   284. E= -.10468726E+04 F= -.10549150E+04 E0= -.10549150E+04  EK= 0.80424E+01 SP= 0.00E+00 SK= 0.00E+00
   4497 T=   285. E= -.10467940E+04 F= -.10548659E+04 E0= -.10548659E+04  EK= 0.80720E+01 SP= 0.00E+00 SK= 0.00E+00
   4498 T=   279. E= -.10468922E+04 F= -.10547893E+04 E0= -.10547893E+04  EK= 0.78971E+01 SP= 0.00E+00 SK= 0.00E+00
   4499 T=   274. E= -.10469880E+04 F= -.10547479E+04 E0= -.10547479E+04  EK= 0.77599E+01 SP= 0.00E+00 SK= 0.00E+00
   4500 T=   272. E= -.10470721E+04 F= -.10547655E+04 E0= -.10547655E+04  EK= 0.76934E+01 SP= 0.00E+00 SK= 0.00E+00
   4501 T=   277. E= -.10470696E+04 F= -.10549149E+04 E0= -.10549149E+04  EK= 0.78454E+01 SP= 0.00E+00 SK= 0.00E+00
   4502 T=   284. E= -.10470957E+04 F= -.10551461E+04 E0= -.10551461E+04  EK= 0.80504E+01 SP= 0.00E+00 SK= 0.00E+00
   4503 T=   292. E= -.10471060E+04 F= -.10553708E+04 E0= -.10553708E+04  EK= 0.82648E+01 SP= 0.00E+00 SK= 0.00E+00
   4504 T=   295. E= -.10471300E+04 F= -.10554934E+04 E0= -.10554934E+04  EK= 0.83634E+01 SP= 0.00E+00 SK= 0.00E+00
   4505 T=   296. E= -.10472046E+04 F= -.10555699E+04 E0= -.10555699E+04  EK= 0.83653E+01 SP= 0.00E+00 SK= 0.00E+00
   4506 T=   295. E= -.10472265E+04 F= -.10555838E+04 E0= -.10555838E+04  EK= 0.83573E+01 SP= 0.00E+00 SK= 0.00E+00
   4507 T=   293. E= -.10472815E+04 F= -.10555897E+04 E0= -.10555897E+04  EK= 0.83082E+01 SP= 0.00E+00 SK= 0.00E+00
   4508 T=   290. E= -.10473681E+04 F= -.10555725E+04 E0= -.10555725E+04  EK= 0.82045E+01 SP= 0.00E+00 SK= 0.00E+00
   4509 T=   289. E= -.10473786E+04 F= -.10555611E+04 E0= -.10555611E+04  EK= 0.81825E+01 SP= 0.00E+00 SK= 0.00E+00
   4510 T=   288. E= -.10473423E+04 F= -.10555087E+04 E0= -.10555087E+04  EK= 0.81664E+01 SP= 0.00E+00 SK= 0.00E+00
   4511 T=   285. E= -.10473434E+04 F= -.10554119E+04 E0= -.10554119E+04  EK= 0.80686E+01 SP= 0.00E+00 SK= 0.00E+00
   4512 T=   278. E= -.10473474E+04 F= -.10552119E+04 E0= -.10552119E+04  EK= 0.78645E+01 SP= 0.00E+00 SK= 0.00E+00
   4513 T=   275. E= -.10472714E+04 F= -.10550600E+04 E0= -.10550600E+04  EK= 0.77886E+01 SP= 0.00E+00 SK= 0.00E+00
   4514 T=   274. E= -.10472318E+04 F= -.10549951E+04 E0= -.10549951E+04  EK= 0.77632E+01 SP= 0.00E+00 SK= 0.00E+00
   4515 T=   274. E= -.10472430E+04 F= -.10549955E+04 E0= -.10549955E+04  EK= 0.77525E+01 SP= 0.00E+00 SK= 0.00E+00
   4516 T=   279. E= -.10471862E+04 F= -.10550739E+04 E0= -.10550739E+04  EK= 0.78877E+01 SP= 0.00E+00 SK= 0.00E+00
   4517 T=   286. E= -.10471763E+04 F= -.10552713E+04 E0= -.10552713E+04  EK= 0.80950E+01 SP= 0.00E+00 SK= 0.00E+00
   4518 T=   292. E= -.10472142E+04 F= -.10554712E+04 E0= -.10554712E+04  EK= 0.82570E+01 SP= 0.00E+00 SK= 0.00E+00
   4519 T=   298. E= -.10471922E+04 F= -.10556301E+04 E0= -.10556301E+04  EK= 0.84379E+01 SP= 0.00E+00 SK= 0.00E+00
   4520 T=   297. E= -.10472179E+04 F= -.10556324E+04 E0= -.10556324E+04  EK= 0.84146E+01 SP= 0.00E+00 SK= 0.00E+00
   4521 T=   290. E= -.10473012E+04 F= -.10555238E+04 E0= -.10555238E+04  EK= 0.82226E+01 SP= 0.00E+00 SK= 0.00E+00
   4522 T=   281. E= -.10474097E+04 F= -.10553564E+04 E0= -.10553564E+04  EK= 0.79467E+01 SP= 0.00E+00 SK= 0.00E+00
   4523 T=   274. E= -.10474644E+04 F= -.10552103E+04 E0= -.10552103E+04  EK= 0.77459E+01 SP= 0.00E+00 SK= 0.00E+00
   4524 T=   276. E= -.10473412E+04 F= -.10551430E+04 E0= -.10551430E+04  EK= 0.78018E+01 SP= 0.00E+00 SK= 0.00E+00
   4525 T=   279. E= -.10471928E+04 F= -.10551047E+04 E0= -.10551047E+04  EK= 0.79119E+01 SP= 0.00E+00 SK= 0.00E+00
   4526 T=   280. E= -.10471056E+04 F= -.10550412E+04 E0= -.10550412E+04  EK= 0.79356E+01 SP= 0.00E+00 SK= 0.00E+00
   4527 T=   281. E= -.10469916E+04 F= -.10549338E+04 E0= -.10549338E+04  EK= 0.79423E+01 SP= 0.00E+00 SK= 0.00E+00
   4528 T=   279. E= -.10468575E+04 F= -.10547449E+04 E0= -.10547449E+04  EK= 0.78874E+01 SP= 0.00E+00 SK= 0.00E+00
   4529 T=   272. E= -.10468540E+04 F= -.10545554E+04 E0= -.10545554E+04  EK= 0.77014E+01 SP= 0.00E+00 SK= 0.00E+00
   4530 T=   266. E= -.10468809E+04 F= -.10544091E+04 E0= -.10544091E+04  EK= 0.75282E+01 SP= 0.00E+00 SK= 0.00E+00
   4531 T=   269. E= -.10467873E+04 F= -.10543967E+04 E0= -.10543967E+04  EK= 0.76094E+01 SP= 0.00E+00 SK= 0.00E+00
   4532 T=   273. E= -.10467486E+04 F= -.10544890E+04 E0= -.10544890E+04  EK= 0.77403E+01 SP= 0.00E+00 SK= 0.00E+00
   4533 T=   280. E= -.10467306E+04 F= -.10546697E+04 E0= -.10546697E+04  EK= 0.79391E+01 SP= 0.00E+00 SK= 0.00E+00
   4534 T=   287. E= -.10467315E+04 F= -.10548635E+04 E0= -.10548635E+04  EK= 0.81320E+01 SP= 0.00E+00 SK= 0.00E+00
   4535 T=   288. E= -.10468440E+04 F= -.10549890E+04 E0= -.10549890E+04  EK= 0.81450E+01 SP= 0.00E+00 SK= 0.00E+00
   4536 T=   285. E= -.10469061E+04 F= -.10549850E+04 E0= -.10549850E+04  EK= 0.80789E+01 SP= 0.00E+00 SK= 0.00E+00
   4537 T=   285. E= -.10468684E+04 F= -.10549434E+04 E0= -.10549434E+04  EK= 0.80750E+01 SP= 0.00E+00 SK= 0.00E+00
   4538 T=   281. E= -.10469442E+04 F= -.10549004E+04 E0= -.10549004E+04  EK= 0.79561E+01 SP= 0.00E+00 SK= 0.00E+00
   4539 T=   278. E= -.10470158E+04 F= -.10548722E+04 E0= -.10548722E+04  EK= 0.78564E+01 SP= 0.00E+00 SK= 0.00E+00
   4540 T=   280. E= -.10469482E+04 F= -.10548757E+04 E0= -.10548757E+04  EK= 0.79274E+01 SP= 0.00E+00 SK= 0.00E+00
   4541 T=   281. E= -.10469397E+04 F= -.10548817E+04 E0= -.10548817E+04  EK= 0.79419E+01 SP= 0.00E+00 SK= 0.00E+00
   4542 T=   281. E= -.10469616E+04 F= -.10549161E+04 E0= -.10549161E+04  EK= 0.79545E+01 SP= 0.00E+00 SK= 0.00E+00
   4543 T=   280. E= -.10470159E+04 F= -.10549281E+04 E0= -.10549281E+04  EK= 0.79122E+01 SP= 0.00E+00 SK= 0.00E+00
   4544 T=   279. E= -.10470150E+04 F= -.10549228E+04 E0= -.10549228E+04  EK= 0.79078E+01 SP= 0.00E+00 SK= 0.00E+00
   4545 T=   280. E= -.10469910E+04 F= -.10549292E+04 E0= -.10549292E+04  EK= 0.79381E+01 SP= 0.00E+00 SK= 0.00E+00
   4546 T=   280. E= -.10469624E+04 F= -.10548803E+04 E0= -.10548803E+04  EK= 0.79179E+01 SP= 0.00E+00 SK= 0.00E+00
   4547 T=   283. E= -.10468791E+04 F= -.10548828E+04 E0= -.10548828E+04  EK= 0.80037E+01 SP= 0.00E+00 SK= 0.00E+00
   4548 T=   288. E= -.10468533E+04 F= -.10549923E+04 E0= -.10549923E+04  EK= 0.81390E+01 SP= 0.00E+00 SK= 0.00E+00
   4549 T=   291. E= -.10469241E+04 F= -.10551703E+04 E0= -.10551703E+04  EK= 0.82461E+01 SP= 0.00E+00 SK= 0.00E+00
   4550 T=   298. E= -.10469598E+04 F= -.10553969E+04 E0= -.10553969E+04  EK= 0.84371E+01 SP= 0.00E+00 SK= 0.00E+00
   4551 T=   308. E= -.10468773E+04 F= -.10555836E+04 E0= -.10555836E+04  EK= 0.87063E+01 SP= 0.00E+00 SK= 0.00E+00
   4552 T=   308. E= -.10469270E+04 F= -.10556321E+04 E0= -.10556321E+04  EK= 0.87050E+01 SP= 0.00E+00 SK= 0.00E+00
   4553 T=   300. E= -.10470678E+04 F= -.10555503E+04 E0= -.10555503E+04  EK= 0.84825E+01 SP= 0.00E+00 SK= 0.00E+00
   4554 T=   291. E= -.10471835E+04 F= -.10554181E+04 E0= -.10554181E+04  EK= 0.82345E+01 SP= 0.00E+00 SK= 0.00E+00
   4555 T=   286. E= -.10472159E+04 F= -.10553163E+04 E0= -.10553163E+04  EK= 0.81003E+01 SP= 0.00E+00 SK= 0.00E+00
   4556 T=   285. E= -.10472037E+04 F= -.10552615E+04 E0= -.10552615E+04  EK= 0.80579E+01 SP= 0.00E+00 SK= 0.00E+00
   4557 T=   283. E= -.10472274E+04 F= -.10552306E+04 E0= -.10552306E+04  EK= 0.80032E+01 SP= 0.00E+00 SK= 0.00E+00
   4558 T=   285. E= -.10472095E+04 F= -.10552771E+04 E0= -.10552771E+04  EK= 0.80676E+01 SP= 0.00E+00 SK= 0.00E+00
   4559 T=   289. E= -.10472076E+04 F= -.10553782E+04 E0= -.10553782E+04  EK= 0.81706E+01 SP= 0.00E+00 SK= 0.00E+00
   4560 T=   294. E= -.10471541E+04 F= -.10554901E+04 E0= -.10554901E+04  EK= 0.83360E+01 SP= 0.00E+00 SK= 0.00E+00
   4561 T=   296. E= -.10471308E+04 F= -.10555091E+04 E0= -.10555091E+04  EK= 0.83783E+01 SP= 0.00E+00 SK= 0.00E+00
   4562 T=   293. E= -.10470998E+04 F= -.10553852E+04 E0= -.10553852E+04  EK= 0.82854E+01 SP= 0.00E+00 SK= 0.00E+00
   4563 T=   284. E= -.10471232E+04 F= -.10551754E+04 E0= -.10551754E+04  EK= 0.80521E+01 SP= 0.00E+00 SK= 0.00E+00
   4564 T=   282. E= -.10470750E+04 F= -.10550607E+04 E0= -.10550607E+04  EK= 0.79857E+01 SP= 0.00E+00 SK= 0.00E+00
   4565 T=   290. E= -.10468942E+04 F= -.10551063E+04 E0= -.10551063E+04  EK= 0.82121E+01 SP= 0.00E+00 SK= 0.00E+00
   4566 T=   295. E= -.10468876E+04 F= -.10552474E+04 E0= -.10552474E+04  EK= 0.83599E+01 SP= 0.00E+00 SK= 0.00E+00
   4567 T=   297. E= -.10469914E+04 F= -.10553919E+04 E0= -.10553919E+04  EK= 0.84005E+01 SP= 0.00E+00 SK= 0.00E+00
   4568 T=   296. E= -.10470459E+04 F= -.10554281E+04 E0= -.10554281E+04  EK= 0.83821E+01 SP= 0.00E+00 SK= 0.00E+00
   4569 T=   291. E= -.10471195E+04 F= -.10553563E+04 E0= -.10553563E+04  EK= 0.82369E+01 SP= 0.00E+00 SK= 0.00E+00
       N       E                     dE             d eps       ncg     rms          rms(c)
DAV:   1    -0.581879924699E+03    0.45791E+03   -0.43110E+04 20644   0.360E+02
DAV:   2    -0.103919843668E+04   -0.45732E+03   -0.45234E+03 24340   0.103E+02
DAV:   3    -0.104919617190E+04   -0.99977E+01   -0.99879E+01 24512   0.168E+01
DAV:   4    -0.104934461683E+04   -0.14844E+00   -0.14840E+00 24928   0.198E+00    0.358E+01
DAV:   5    -0.103871780157E+04    0.10627E+02   -0.29860E+01 24816   0.104E+01    0.198E+01
DAV:   6    -0.103917998260E+04   -0.46218E+00   -0.11746E+01 24664   0.697E+00    0.722E+00
DAV:   7    -0.103994727783E+04   -0.76730E+00   -0.23073E+00 24080   0.330E+00    0.194E+00
DAV:   8    -0.103997267189E+04   -0.25394E-01   -0.21606E-01 24840   0.984E-01    0.885E-01
DAV:   9    -0.103997247675E+04    0.19514E-03   -0.58954E-02 23856   0.562E-01    0.271E-01
DAV:  10    -0.103997086422E+04    0.16125E-02   -0.10591E-02 25176   0.295E-01    0.152E-01
DAV:  11    -0.103996961725E+04    0.12470E-02   -0.45820E-03 23704   0.179E-01    0.956E-02
DAV:  12    -0.103996829800E+04    0.13193E-02   -0.65495E-04 23296   0.153E-01    0.411E-02
DAV:  13    -0.103996759845E+04    0.69954E-03   -0.13093E-03 23656   0.165E-01    0.441E-02
DAV:  14    -0.103996759481E+04    0.36402E-05   -0.13181E-03 25048   0.941E-02    0.368E-02
DAV:  15    -0.103996758933E+04    0.54853E-05   -0.18320E-04 17480   0.267E-02
   4570 T=   283. E= -.10471343E+04 F= -.10551327E+04 E0= -.10551327E+04  EK= 0.79984E+01 SP= 0.00E+00 SK= 0.00E+00
   4571 T=   279. E= -.10471104E+04 F= -.10550041E+04 E0= -.10550041E+04  EK= 0.78937E+01 SP= 0.00E+00 SK= 0.00E+00
   4572 T=   274. E= -.10471667E+04 F= -.10549134E+04 E0= -.10549134E+04  EK= 0.77467E+01 SP= 0.00E+00 SK= 0.00E+00
   4573 T=   269. E= -.10472647E+04 F= -.10548849E+04 E0= -.10548849E+04  EK= 0.76202E+01 SP= 0.00E+00 SK= 0.00E+00
   4574 T=   270. E= -.10472287E+04 F= -.10548725E+04 E0= -.10548725E+04  EK= 0.76438E+01 SP= 0.00E+00 SK= 0.00E+00
   4575 T=   272. E= -.10471020E+04 F= -.10547886E+04 E0= -.10547886E+04  EK= 0.76866E+01 SP= 0.00E+00 SK= 0.00E+00
   4576 T=   269. E= -.10470190E+04 F= -.10546371E+04 E0= -.10546371E+04  EK= 0.76182E+01 SP= 0.00E+00 SK= 0.00E+00
   4577 T=   263. E= -.10470355E+04 F= -.10544940E+04 E0= -.10544940E+04  EK= 0.74585E+01 SP= 0.00E+00 SK= 0.00E+00
   4578 T=   259. E= -.10471303E+04 F= -.10544658E+04 E0= -.10544658E+04  EK= 0.73355E+01 SP= 0.00E+00 SK= 0.00E+00
   4579 T=   258. E= -.10472358E+04 F= -.10545311E+04 E0= -.10545311E+04  EK= 0.72953E+01 SP= 0.00E+00 SK= 0.00E+00
   4580 T=   260. E= -.10472962E+04 F= -.10546455E+04 E0= -.10546455E+04  EK= 0.73493E+01 SP= 0.00E+00 SK= 0.00E+00
   4581 T=   260. E= -.10473944E+04 F= -.10547524E+04 E0= -.10547524E+04  EK= 0.73580E+01 SP= 0.00E+00 SK= 0.00E+00
   4582 T=   259. E= -.10474942E+04 F= -.10548160E+04 E0= -.10548160E+04  EK= 0.73218E+01 SP= 0.00E+00 SK= 0.00E+00
   4583 T=   259. E= -.10475119E+04 F= -.10548458E+04 E0= -.10548458E+04  EK= 0.73339E+01 SP= 0.00E+00 SK= 0.00E+00
   4584 T=   257. E= -.10475577E+04 F= -.10548462E+04 E0= -.10548462E+04  EK= 0.72884E+01 SP= 0.00E+00 SK= 0.00E+00
   4585 T=   253. E= -.10477023E+04 F= -.10548668E+04 E0= -.10548668E+04  EK= 0.71645E+01 SP= 0.00E+00 SK= 0.00E+00
   4586 T=   252. E= -.10478184E+04 F= -.10549427E+04 E0= -.10549427E+04  EK= 0.71242E+01 SP= 0.00E+00 SK= 0.00E+00
   4587 T=   256. E= -.10477776E+04 F= -.10550123E+04 E0= -.10550123E+04  EK= 0.72347E+01 SP= 0.00E+00 SK= 0.00E+00
   4588 T=   261. E= -.10477000E+04 F= -.10550944E+04 E0= -.10550944E+04  EK= 0.73944E+01 SP= 0.00E+00 SK= 0.00E+00
   4589 T=   263. E= -.10476747E+04 F= -.10551230E+04 E0= -.10551230E+04  EK= 0.74483E+01 SP= 0.00E+00 SK= 0.00E+00
   4590 T=   262. E= -.10476667E+04 F= -.10550963E+04 E0= -.10550963E+04  EK= 0.74297E+01 SP= 0.00E+00 SK= 0.00E+00
   4591 T=   264. E= -.10475354E+04 F= -.10550178E+04 E0= -.10550178E+04  EK= 0.74824E+01 SP= 0.00E+00 SK= 0.00E+00
   4592 T=   272. E= -.10472612E+04 F= -.10549489E+04 E0= -.10549489E+04  EK= 0.76877E+01 SP= 0.00E+00 SK= 0.00E+00
   4593 T=   276. E= -.10470909E+04 F= -.10549133E+04 E0= -.10549133E+04  EK= 0.78224E+01 SP= 0.00E+00 SK= 0.00E+00
   4594 T=   279. E= -.10470060E+04 F= -.10549017E+04 E0= -.10549017E+04  EK= 0.78957E+01 SP= 0.00E+00 SK= 0.00E+00
   4595 T=   283. E= -.10469077E+04 F= -.10549142E+04 E0= -.10549142E+04  EK= 0.80065E+01 SP= 0.00E+00 SK= 0.00E+00
   4596 T=   287. E= -.10468690E+04 F= -.10549837E+04 E0= -.10549837E+04  EK= 0.81147E+01 SP= 0.00E+00 SK= 0.00E+00
   4597 T=   288. E= -.10469610E+04 F= -.10551002E+04 E0= -.10551002E+04  EK= 0.81391E+01 SP= 0.00E+00 SK= 0.00E+00
   4598 T=   288. E= -.10470202E+04 F= -.10551661E+04 E0= -.10551661E+04  EK= 0.81459E+01 SP= 0.00E+00 SK= 0.00E+00
   4599 T=   289. E= -.10469318E+04 F= -.10551187E+04 E0= -.10551187E+04  EK= 0.81869E+01 SP= 0.00E+00 SK= 0.00E+00
   4600 T=   287. E= -.10468435E+04 F= -.10549701E+04 E0= -.10549701E+04  EK= 0.81266E+01 SP= 0.00E+00 SK= 0.00E+00
   4601 T=   285. E= -.10467643E+04 F= -.10548329E+04 E0= -.10548329E+04  EK= 0.80686E+01 SP= 0.00E+00 SK= 0.00E+00
   4602 T=   285. E= -.10467168E+04 F= -.10547930E+04 E0= -.10547930E+04  EK= 0.80762E+01 SP= 0.00E+00 SK= 0.00E+00
   4603 T=   288. E= -.10467248E+04 F= -.10548751E+04 E0= -.10548751E+04  EK= 0.81503E+01 SP= 0.00E+00 SK= 0.00E+00
   4604 T=   288. E= -.10468061E+04 F= -.10549494E+04 E0= -.10549494E+04  EK= 0.81433E+01 SP= 0.00E+00 SK= 0.00E+00
   4605 T=   282. E= -.10469519E+04 F= -.10549301E+04 E0= -.10549301E+04  EK= 0.79782E+01 SP= 0.00E+00 SK= 0.00E+00
   4606 T=   276. E= -.10470626E+04 F= -.10548770E+04 E0= -.10548770E+04  EK= 0.78144E+01 SP= 0.00E+00 SK= 0.00E+00
   4607 T=   274. E= -.10470850E+04 F= -.10548404E+04 E0= -.10548404E+04  EK= 0.77554E+01 SP= 0.00E+00 SK= 0.00E+00
   4608 T=   273. E= -.10470273E+04 F= -.10547512E+04 E0= -.10547512E+04  EK= 0.77239E+01 SP= 0.00E+00 SK= 0.00E+00
   4609 T=   269. E= -.10469728E+04 F= -.10545831E+04 E0= -.10545831E+04  EK= 0.76103E+01 SP= 0.00E+00 SK= 0.00E+00
   4610 T=   262. E= -.10469991E+04 F= -.10544138E+04 E0= -.10544138E+04  EK= 0.74147E+01 SP= 0.00E+00 SK= 0.00E+00
   4611 T=   259. E= -.10470061E+04 F= -.10543241E+04 E0= -.10543241E+04  EK= 0.73180E+01 SP= 0.00E+00 SK= 0.00E+00
   4612 T=   257. E= -.10471607E+04 F= -.10544390E+04 E0= -.10544390E+04  EK= 0.72783E+01 SP= 0.00E+00 SK= 0.00E+00
   4613 T=   258. E= -.10473788E+04 F= -.10546805E+04 E0= -.10546805E+04  EK= 0.73017E+01 SP= 0.00E+00 SK= 0.00E+00
   4614 T=   266. E= -.10473824E+04 F= -.10549107E+04 E0= -.10549107E+04  EK= 0.75283E+01 SP= 0.00E+00 SK= 0.00E+00
   4615 T=   266. E= -.10473392E+04 F= -.10548774E+04 E0= -.10548774E+04  EK= 0.75382E+01 SP= 0.00E+00 SK= 0.00E+00
   4616 T=   260. E= -.10472834E+04 F= -.10546400E+04 E0= -.10546400E+04  EK= 0.73565E+01 SP= 0.00E+00 SK= 0.00E+00
   4617 T=   256. E= -.10471576E+04 F= -.10543965E+04 E0= -.10543965E+04  EK= 0.72389E+01 SP= 0.00E+00 SK= 0.00E+00
   4618 T=   250. E= -.10471696E+04 F= -.10542455E+04 E0= -.10542455E+04  EK= 0.70759E+01 SP= 0.00E+00 SK= 0.00E+00
   4619 T=   248. E= -.10472906E+04 F= -.10543073E+04 E0= -.10543073E+04  EK= 0.70167E+01 SP= 0.00E+00 SK= 0.00E+00
   4620 T=   254. E= -.10473235E+04 F= -.10545264E+04 E0= -.10545264E+04  EK= 0.72029E+01 SP= 0.00E+00 SK= 0.00E+00
   4621 T=   266. E= -.10472633E+04 F= -.10547935E+04 E0= -.10547935E+04  EK= 0.75302E+01 SP= 0.00E+00 SK= 0.00E+00
   4622 T=   271. E= -.10472723E+04 F= -.10549561E+04 E0= -.10549561E+04  EK= 0.76838E+01 SP= 0.00E+00 SK= 0.00E+00
   4623 T=   267. E= -.10474078E+04 F= -.10549774E+04 E0= -.10549774E+04  EK= 0.75696E+01 SP= 0.00E+00 SK= 0.00E+00
   4624 T=   264. E= -.10474540E+04 F= -.10549395E+04 E0= -.10549395E+04  EK= 0.74855E+01 SP= 0.00E+00 SK= 0.00E+00
   4625 T=   266. E= -.10474021E+04 F= -.10549237E+04 E0= -.10549237E+04  EK= 0.75216E+01 SP= 0.00E+00 SK= 0.00E+00
   4626 T=   268. E= -.10474129E+04 F= -.10550036E+04 E0= -.10550036E+04  EK= 0.75907E+01 SP= 0.00E+00 SK= 0.00E+00
   4627 T=   278. E= -.10473632E+04 F= -.10552193E+04 E0= -.10552193E+04  EK= 0.78561E+01 SP= 0.00E+00 SK= 0.00E+00
   4628 T=   291. E= -.10472921E+04 F= -.10555191E+04 E0= -.10555191E+04  EK= 0.82269E+01 SP= 0.00E+00 SK= 0.00E+00
   4629 T=   298. E= -.10473327E+04 F= -.10557582E+04 E0= -.10557582E+04  EK= 0.84254E+01 SP= 0.00E+00 SK= 0.00E+00
   4630 T=   300. E= -.10473759E+04 F= -.10558569E+04 E0= -.10558569E+04  EK= 0.84810E+01 SP= 0.00E+00 SK= 0.00E+00
   4631 T=   295. E= -.10473930E+04 F= -.10557449E+04 E0= -.10557449E+04  EK= 0.83520E+01 SP= 0.00E+00 SK= 0.00E+00
   4632 T=   283. E= -.10474830E+04 F= -.10555035E+04 E0= -.10555035E+04  EK= 0.80206E+01 SP= 0.00E+00 SK= 0.00E+00
   4633 T=   275. E= -.10475129E+04 F= -.10553005E+04 E0= -.10553005E+04  EK= 0.77876E+01 SP= 0.00E+00 SK= 0.00E+00
   4634 T=   275. E= -.10475174E+04 F= -.10552956E+04 E0= -.10552956E+04  EK= 0.77782E+01 SP= 0.00E+00 SK= 0.00E+00
   4635 T=   275. E= -.10475937E+04 F= -.10553818E+04 E0= -.10553818E+04  EK= 0.77880E+01 SP= 0.00E+00 SK= 0.00E+00
   4636 T=   279. E= -.10476011E+04 F= -.10555089E+04 E0= -.10555089E+04  EK= 0.79078E+01 SP= 0.00E+00 SK= 0.00E+00
   4637 T=   284. E= -.10474787E+04 F= -.10555290E+04 E0= -.10555290E+04  EK= 0.80503E+01 SP= 0.00E+00 SK= 0.00E+00
   4638 T=   284. E= -.10474284E+04 F= -.10554712E+04 E0= -.10554712E+04  EK= 0.80427E+01 SP= 0.00E+00 SK= 0.00E+00
   4639 T=   277. E= -.10475154E+04 F= -.10553649E+04 E0= -.10553649E+04  EK= 0.78495E+01 SP= 0.00E+00 SK= 0.00E+00
   4640 T=   272. E= -.10475728E+04 F= -.10552699E+04 E0= -.10552699E+04  EK= 0.76971E+01 SP= 0.00E+00 SK= 0.00E+00
   4641 T=   272. E= -.10475839E+04 F= -.10552740E+04 E0= -.10552740E+04  EK= 0.76901E+01 SP= 0.00E+00 SK= 0.00E+00
   4642 T=   273. E= -.10476301E+04 F= -.10553650E+04 E0= -.10553650E+04  EK= 0.77349E+01 SP= 0.00E+00 SK= 0.00E+00
   4643 T=   281. E= -.10475633E+04 F= -.10555130E+04 E0= -.10555130E+04  EK= 0.79498E+01 SP= 0.00E+00 SK= 0.00E+00
   4644 T=   287. E= -.10474941E+04 F= -.10556171E+04 E0= -.10556171E+04  EK= 0.81230E+01 SP= 0.00E+00 SK= 0.00E+00
   4645 T=   289. E= -.10474508E+04 F= -.10556374E+04 E0= -.10556374E+04  EK= 0.81866E+01 SP= 0.00E+00 SK= 0.00E+00
   4646 T=   287. E= -.10474188E+04 F= -.10555464E+04 E0= -.10555464E+04  EK= 0.81276E+01 SP= 0.00E+00 SK= 0.00E+00
   4647 T=   281. E= -.10474638E+04 F= -.10554270E+04 E0= -.10554270E+04  EK= 0.79632E+01 SP= 0.00E+00 SK= 0.00E+00
   4648 T=   278. E= -.10474756E+04 F= -.10553417E+04 E0= -.10553417E+04  EK= 0.78661E+01 SP= 0.00E+00 SK= 0.00E+00
   4649 T=   276. E= -.10475441E+04 F= -.10553432E+04 E0= -.10553432E+04  EK= 0.77991E+01 SP= 0.00E+00 SK= 0.00E+00
   4650 T=   273. E= -.10477279E+04 F= -.10554425E+04 E0= -.10554425E+04  EK= 0.77146E+01 SP= 0.00E+00 SK= 0.00E+00
   4651 T=   275. E= -.10477418E+04 F= -.10555199E+04 E0= -.10555199E+04  EK= 0.77781E+01 SP= 0.00E+00 SK= 0.00E+00
   4652 T=   277. E= -.10477294E+04 F= -.10555732E+04 E0= -.10555732E+04  EK= 0.78438E+01 SP= 0.00E+00 SK= 0.00E+00
   4653 T=   276. E= -.10478003E+04 F= -.10556033E+04 E0= -.10556033E+04  EK= 0.78030E+01 SP= 0.00E+00 SK= 0.00E+00
   4654 T=   275. E= -.10478241E+04 F= -.10556060E+04 E0= -.10556060E+04  EK= 0.77819E+01 SP= 0.00E+00 SK= 0.00E+00
   4655 T=   274. E= -.10478874E+04 F= -.10556384E+04 E0= -.10556384E+04  EK= 0.77510E+01 SP= 0.00E+00 SK= 0.00E+00
   4656 T=   275. E= -.10478903E+04 F= -.10556816E+04 E0= -.10556816E+04  EK= 0.77913E+01 SP= 0.00E+00 SK= 0.00E+00
   4657 T=   282. E= -.10477256E+04 F= -.10557156E+04 E0= -.10557156E+04  EK= 0.79900E+01 SP= 0.00E+00 SK= 0.00E+00
   4658 T=   286. E= -.10476453E+04 F= -.10557292E+04 E0= -.10557292E+04  EK= 0.80839E+01 SP= 0.00E+00 SK= 0.00E+00
   4659 T=   283. E= -.10477028E+04 F= -.10557177E+04 E0= -.10557177E+04  EK= 0.80149E+01 SP= 0.00E+00 SK= 0.00E+00
   4660 T=   284. E= -.10476720E+04 F= -.10557247E+04 E0= -.10557247E+04  EK= 0.80527E+01 SP= 0.00E+00 SK= 0.00E+00
   4661 T=   288. E= -.10476415E+04 F= -.10557884E+04 E0= -.10557884E+04  EK= 0.81469E+01 SP= 0.00E+00 SK= 0.00E+00
   4662 T=   292. E= -.10476012E+04 F= -.10558713E+04 E0= -.10558713E+04  EK= 0.82701E+01 SP= 0.00E+00 SK= 0.00E+00
   4663 T=   289. E= -.10476967E+04 F= -.10558843E+04 E0= -.10558843E+04  EK= 0.81876E+01 SP= 0.00E+00 SK= 0.00E+00
   4664 T=   282. E= -.10477966E+04 F= -.10557874E+04 E0= -.10557874E+04  EK= 0.79908E+01 SP= 0.00E+00 SK= 0.00E+00
   4665 T=   277. E= -.10477554E+04 F= -.10556098E+04 E0= -.10556098E+04  EK= 0.78544E+01 SP= 0.00E+00 SK= 0.00E+00
   4666 T=   267. E= -.10478197E+04 F= -.10553711E+04 E0= -.10553711E+04  EK= 0.75514E+01 SP= 0.00E+00 SK= 0.00E+00
   4667 T=   261. E= -.10478240E+04 F= -.10552095E+04 E0= -.10552095E+04  EK= 0.73856E+01 SP= 0.00E+00 SK= 0.00E+00
   4668 T=   265. E= -.10477037E+04 F= -.10552091E+04 E0= -.10552091E+04  EK= 0.75054E+01 SP= 0.00E+00 SK= 0.00E+00
   4669 T=   275. E= -.10475025E+04 F= -.10552909E+04 E0= -.10552909E+04  EK= 0.77884E+01 SP= 0.00E+00 SK= 0.00E+00
   4670 T=   284. E= -.10473303E+04 F= -.10553691E+04 E0= -.10553691E+04  EK= 0.80388E+01 SP= 0.00E+00 SK= 0.00E+00
   4671 T=   290. E= -.10471731E+04 F= -.10553844E+04 E0= -.10553844E+04  EK= 0.82113E+01 SP= 0.00E+00 SK= 0.00E+00
   4672 T=   291. E= -.10470857E+04 F= -.10553124E+04 E0= -.10553124E+04  EK= 0.82268E+01 SP= 0.00E+00 SK= 0.00E+00
   4673 T=   287. E= -.10470568E+04 F= -.10551745E+04 E0= -.10551745E+04  EK= 0.81177E+01 SP= 0.00E+00 SK= 0.00E+00
   4674 T=   286. E= -.10469395E+04 F= -.10550493E+04 E0= -.10550493E+04  EK= 0.81097E+01 SP= 0.00E+00 SK= 0.00E+00
   4675 T=   283. E= -.10469882E+04 F= -.10550005E+04 E0= -.10550005E+04  EK= 0.80123E+01 SP= 0.00E+00 SK= 0.00E+00
   4676 T=   284. E= -.10470262E+04 F= -.10550773E+04 E0= -.10550773E+04  EK= 0.80511E+01 SP= 0.00E+00 SK= 0.00E+00
   4677 T=   289. E= -.10469835E+04 F= -.10551570E+04 E0= -.10551570E+04  EK= 0.81734E+01 SP= 0.00E+00 SK= 0.00E+00
   4678 T=   292. E= -.10469168E+04 F= -.10551777E+04 E0= -.10551777E+04  EK= 0.82609E+01 SP= 0.00E+00 SK= 0.00E+00
   4679 T=   290. E= -.10469265E+04 F= -.10551226E+04 E0= -.10551226E+04  EK= 0.81961E+01 SP= 0.00E+00 SK= 0.00E+00
   4680 T=   285. E= -.10469330E+04 F= -.10550113E+04 E0= -.10550113E+04  EK= 0.80783E+01 SP= 0.00E+00 SK= 0.00E+00
   4681 T=   279. E= -.10469666E+04 F= -.10548603E+04 E0= -.10548603E+04  EK= 0.78936E+01 SP= 0.00E+00 SK= 0.00E+00
   4682 T=   272. E= -.10470558E+04 F= -.10547685E+04 E0= -.10547685E+04  EK= 0.77126E+01 SP= 0.00E+00 SK= 0.00E+00
   4683 T=   271. E= -.10470016E+04 F= -.10546823E+04 E0= -.10546823E+04  EK= 0.76806E+01 SP= 0.00E+00 SK= 0.00E+00
   4684 T=   270. E= -.10469884E+04 F= -.10546198E+04 E0= -.10546198E+04  EK= 0.76313E+01 SP= 0.00E+00 SK= 0.00E+00
   4685 T=   272. E= -.10468546E+04 F= -.10545505E+04 E0= -.10545505E+04  EK= 0.76959E+01 SP= 0.00E+00 SK= 0.00E+00
   4686 T=   276. E= -.10467462E+04 F= -.10545455E+04 E0= -.10545455E+04  EK= 0.77994E+01 SP= 0.00E+00 SK= 0.00E+00
   4687 T=   277. E= -.10468033E+04 F= -.10546467E+04 E0= -.10546467E+04  EK= 0.78434E+01 SP= 0.00E+00 SK= 0.00E+00
   4688 T=   280. E= -.10468503E+04 F= -.10547706E+04 E0= -.10547706E+04  EK= 0.79204E+01 SP= 0.00E+00 SK= 0.00E+00
   4689 T=   281. E= -.10469206E+04 F= -.10548700E+04 E0= -.10548700E+04  EK= 0.79493E+01 SP= 0.00E+00 SK= 0.00E+00
   4690 T=   281. E= -.10469763E+04 F= -.10549335E+04 E0= -.10549335E+04  EK= 0.79572E+01 SP= 0.00E+00 SK= 0.00E+00
   4691 T=   284. E= -.10469753E+04 F= -.10550058E+04 E0= -.10550058E+04  EK= 0.80305E+01 SP= 0.00E+00 SK= 0.00E+00
   4692 T=   288. E= -.10469194E+04 F= -.10550688E+04 E0= -.10550688E+04  EK= 0.81493E+01 SP= 0.00E+00 SK= 0.00E+00
   4693 T=   286. E= -.10470077E+04 F= -.10551155E+04 E0= -.10551155E+04  EK= 0.81078E+01 SP= 0.00E+00 SK= 0.00E+00
   4694 T=   288. E= -.10470585E+04 F= -.10552243E+04 E0= -.10552243E+04  EK= 0.81658E+01 SP= 0.00E+00 SK= 0.00E+00
   4695 T=   295. E= -.10470288E+04 F= -.10553746E+04 E0= -.10553746E+04  EK= 0.83458E+01 SP= 0.00E+00 SK= 0.00E+00
   4696 T=   301. E= -.10470191E+04 F= -.10555394E+04 E0= -.10555394E+04  EK= 0.85203E+01 SP= 0.00E+00 SK= 0.00E+00
   4697 T=   305. E= -.10470103E+04 F= -.10556410E+04 E0= -.10556410E+04  EK= 0.86307E+01 SP= 0.00E+00 SK= 0.00E+00
   4698 T=   301. E= -.10470925E+04 F= -.10556139E+04 E0= -.10556139E+04  EK= 0.85214E+01 SP= 0.00E+00 SK= 0.00E+00
   4699 T=   295. E= -.10472140E+04 F= -.10555523E+04 E0= -.10555523E+04  EK= 0.83383E+01 SP= 0.00E+00 SK= 0.00E+00
   4700 T=   290. E= -.10473012E+04 F= -.10555021E+04 E0= -.10555021E+04  EK= 0.82009E+01 SP= 0.00E+00 SK= 0.00E+00
   4701 T=   288. E= -.10473884E+04 F= -.10555399E+04 E0= -.10555399E+04  EK= 0.81515E+01 SP= 0.00E+00 SK= 0.00E+00
   4702 T=   287. E= -.10475070E+04 F= -.10556226E+04 E0= -.10556226E+04  EK= 0.81156E+01 SP= 0.00E+00 SK= 0.00E+00
   4703 T=   282. E= -.10476650E+04 F= -.10556532E+04 E0= -.10556532E+04  EK= 0.79882E+01 SP= 0.00E+00 SK= 0.00E+00
   4704 T=   275. E= -.10478460E+04 F= -.10556362E+04 E0= -.10556362E+04  EK= 0.77902E+01 SP= 0.00E+00 SK= 0.00E+00
   4705 T=   273. E= -.10479962E+04 F= -.10557286E+04 E0= -.10557286E+04  EK= 0.77323E+01 SP= 0.00E+00 SK= 0.00E+00
   4706 T=   278. E= -.10479823E+04 F= -.10558379E+04 E0= -.10558379E+04  EK= 0.78556E+01 SP= 0.00E+00 SK= 0.00E+00
   4707 T=   279. E= -.10479658E+04 F= -.10558679E+04 E0= -.10558679E+04  EK= 0.79021E+01 SP= 0.00E+00 SK= 0.00E+00
   4708 T=   272. E= -.10480992E+04 F= -.10557933E+04 E0= -.10557933E+04  EK= 0.76941E+01 SP= 0.00E+00 SK= 0.00E+00
   4709 T=   264. E= -.10482826E+04 F= -.10557581E+04 E0= -.10557581E+04  EK= 0.74756E+01 SP= 0.00E+00 SK= 0.00E+00
   4710 T=   261. E= -.10484221E+04 F= -.10558042E+04 E0= -.10558042E+04  EK= 0.73821E+01 SP= 0.00E+00 SK= 0.00E+00
   4711 T=   262. E= -.10484996E+04 F= -.10559217E+04 E0= -.10559217E+04  EK= 0.74221E+01 SP= 0.00E+00 SK= 0.00E+00
   4712 T=   264. E= -.10485493E+04 F= -.10560248E+04 E0= -.10560248E+04  EK= 0.74755E+01 SP= 0.00E+00 SK= 0.00E+00
   4713 T=   263. E= -.10485600E+04 F= -.10560084E+04 E0= -.10560084E+04  EK= 0.74484E+01 SP= 0.00E+00 SK= 0.00E+00
   4714 T=   255. E= -.10486154E+04 F= -.10558474E+04 E0= -.10558474E+04  EK= 0.72319E+01 SP= 0.00E+00 SK= 0.00E+00
   4715 T=   249. E= -.10485805E+04 F= -.10556200E+04 E0= -.10556200E+04  EK= 0.70394E+01 SP= 0.00E+00 SK= 0.00E+00
   4716 T=   245. E= -.10485124E+04 F= -.10554512E+04 E0= -.10554512E+04  EK= 0.69388E+01 SP= 0.00E+00 SK= 0.00E+00
   4717 T=   243. E= -.10484945E+04 F= -.10553869E+04 E0= -.10553869E+04  EK= 0.68924E+01 SP= 0.00E+00 SK= 0.00E+00
   4718 T=   244. E= -.10484953E+04 F= -.10554012E+04 E0= -.10554012E+04  EK= 0.69059E+01 SP= 0.00E+00 SK= 0.00E+00
   4719 T=   250. E= -.10484482E+04 F= -.10555144E+04 E0= -.10555144E+04  EK= 0.70663E+01 SP= 0.00E+00 SK= 0.00E+00
   4720 T=   251. E= -.10484692E+04 F= -.10555651E+04 E0= -.10555651E+04  EK= 0.70959E+01 SP= 0.00E+00 SK= 0.00E+00
   4721 T=   247. E= -.10485332E+04 F= -.10555123E+04 E0= -.10555123E+04  EK= 0.69791E+01 SP= 0.00E+00 SK= 0.00E+00
   4722 T=   242. E= -.10485075E+04 F= -.10553458E+04 E0= -.10553458E+04  EK= 0.68382E+01 SP= 0.00E+00 SK= 0.00E+00
   4723 T=   240. E= -.10483926E+04 F= -.10551980E+04 E0= -.10551980E+04  EK= 0.68054E+01 SP= 0.00E+00 SK= 0.00E+00
   4724 T=   247. E= -.10482792E+04 F= -.10552677E+04 E0= -.10552677E+04  EK= 0.69885E+01 SP= 0.00E+00 SK= 0.00E+00
   4725 T=   260. E= -.10482093E+04 F= -.10555664E+04 E0= -.10555664E+04  EK= 0.73571E+01 SP= 0.00E+00 SK= 0.00E+00
   4726 T=   275. E= -.10480750E+04 F= -.10558556E+04 E0= -.10558556E+04  EK= 0.77806E+01 SP= 0.00E+00 SK= 0.00E+00
   4727 T=   282. E= -.10479937E+04 F= -.10559829E+04 E0= -.10559829E+04  EK= 0.79892E+01 SP= 0.00E+00 SK= 0.00E+00
   4728 T=   283. E= -.10479285E+04 F= -.10559290E+04 E0= -.10559290E+04  EK= 0.80005E+01 SP= 0.00E+00 SK= 0.00E+00
   4729 T=   282. E= -.10478348E+04 F= -.10558237E+04 E0= -.10558237E+04  EK= 0.79889E+01 SP= 0.00E+00 SK= 0.00E+00
   4730 T=   286. E= -.10476751E+04 F= -.10557598E+04 E0= -.10557598E+04  EK= 0.80848E+01 SP= 0.00E+00 SK= 0.00E+00
   4731 T=   289. E= -.10476061E+04 F= -.10557830E+04 E0= -.10557830E+04  EK= 0.81769E+01 SP= 0.00E+00 SK= 0.00E+00
   4732 T=   289. E= -.10476222E+04 F= -.10558022E+04 E0= -.10558022E+04  EK= 0.81800E+01 SP= 0.00E+00 SK= 0.00E+00
   4733 T=   293. E= -.10475373E+04 F= -.10558220E+04 E0= -.10558220E+04  EK= 0.82847E+01 SP= 0.00E+00 SK= 0.00E+00
   4734 T=   292. E= -.10475634E+04 F= -.10558432E+04 E0= -.10558432E+04  EK= 0.82798E+01 SP= 0.00E+00 SK= 0.00E+00
   4735 T=   293. E= -.10476066E+04 F= -.10559115E+04 E0= -.10559115E+04  EK= 0.83050E+01 SP= 0.00E+00 SK= 0.00E+00
   4736 T=   295. E= -.10475578E+04 F= -.10559063E+04 E0= -.10559063E+04  EK= 0.83484E+01 SP= 0.00E+00 SK= 0.00E+00
   4737 T=   286. E= -.10476511E+04 F= -.10557440E+04 E0= -.10557440E+04  EK= 0.80930E+01 SP= 0.00E+00 SK= 0.00E+00
   4738 T=   277. E= -.10477602E+04 F= -.10556104E+04 E0= -.10556104E+04  EK= 0.78502E+01 SP= 0.00E+00 SK= 0.00E+00
   4739 T=   277. E= -.10477764E+04 F= -.10556185E+04 E0= -.10556185E+04  EK= 0.78421E+01 SP= 0.00E+00 SK= 0.00E+00
   4740 T=   280. E= -.10478841E+04 F= -.10558209E+04 E0= -.10558209E+04  EK= 0.79368E+01 SP= 0.00E+00 SK= 0.00E+00
   4741 T=   285. E= -.10479630E+04 F= -.10560375E+04 E0= -.10560375E+04  EK= 0.80746E+01 SP= 0.00E+00 SK= 0.00E+00
   4742 T=   288. E= -.10479558E+04 F= -.10561209E+04 E0= -.10561209E+04  EK= 0.81650E+01 SP= 0.00E+00 SK= 0.00E+00
   4743 T=   285. E= -.10480089E+04 F= -.10560836E+04 E0= -.10560836E+04  EK= 0.80747E+01 SP= 0.00E+00 SK= 0.00E+00
   4744 T=   283. E= -.10479774E+04 F= -.10559989E+04 E0= -.10559989E+04  EK= 0.80215E+01 SP= 0.00E+00 SK= 0.00E+00
   4745 T=   284. E= -.10479457E+04 F= -.10559920E+04 E0= -.10559920E+04  EK= 0.80464E+01 SP= 0.00E+00 SK= 0.00E+00
   4746 T=   283. E= -.10480297E+04 F= -.10560322E+04 E0= -.10560322E+04  EK= 0.80026E+01 SP= 0.00E+00 SK= 0.00E+00
   4747 T=   282. E= -.10480854E+04 F= -.10560650E+04 E0= -.10560650E+04  EK= 0.79796E+01 SP= 0.00E+00 SK= 0.00E+00
   4748 T=   279. E= -.10481099E+04 F= -.10560060E+04 E0= -.10560060E+04  EK= 0.78961E+01 SP= 0.00E+00 SK= 0.00E+00
   4749 T=   276. E= -.10481722E+04 F= -.10559810E+04 E0= -.10559810E+04  EK= 0.78088E+01 SP= 0.00E+00 SK= 0.00E+00
   4750 T=   275. E= -.10481612E+04 F= -.10559353E+04 E0= -.10559353E+04  EK= 0.77741E+01 SP= 0.00E+00 SK= 0.00E+00
   4751 T=   274. E= -.10480916E+04 F= -.10558463E+04 E0= -.10558463E+04  EK= 0.77547E+01 SP= 0.00E+00 SK= 0.00E+00
   4752 T=   274. E= -.10480213E+04 F= -.10557770E+04 E0= -.10557770E+04  EK= 0.77557E+01 SP= 0.00E+00 SK= 0.00E+00
   4753 T=   269. E= -.10481204E+04 F= -.10557312E+04 E0= -.10557312E+04  EK= 0.76108E+01 SP= 0.00E+00 SK= 0.00E+00
   4754 T=   268. E= -.10481672E+04 F= -.10557610E+04 E0= -.10557610E+04  EK= 0.75938E+01 SP= 0.00E+00 SK= 0.00E+00
   4755 T=   277. E= -.10480222E+04 F= -.10558704E+04 E0= -.10558704E+04  EK= 0.78481E+01 SP= 0.00E+00 SK= 0.00E+00
   4756 T=   283. E= -.10479082E+04 F= -.10559207E+04 E0= -.10559207E+04  EK= 0.80125E+01 SP= 0.00E+00 SK= 0.00E+00
   4757 T=   283. E= -.10478849E+04 F= -.10558978E+04 E0= -.10558978E+04  EK= 0.80129E+01 SP= 0.00E+00 SK= 0.00E+00
   4758 T=   281. E= -.10478658E+04 F= -.10558137E+04 E0= -.10558137E+04  EK= 0.79479E+01 SP= 0.00E+00 SK= 0.00E+00
   4759 T=   282. E= -.10477967E+04 F= -.10557918E+04 E0= -.10557918E+04  EK= 0.79952E+01 SP= 0.00E+00 SK= 0.00E+00
   4760 T=   289. E= -.10477166E+04 F= -.10559114E+04 E0= -.10559114E+04  EK= 0.81947E+01 SP= 0.00E+00 SK= 0.00E+00
   4761 T=   301. E= -.10476103E+04 F= -.10561342E+04 E0= -.10561342E+04  EK= 0.85239E+01 SP= 0.00E+00 SK= 0.00E+00
   4762 T=   314. E= -.10475052E+04 F= -.10564071E+04 E0= -.10564071E+04  EK= 0.89019E+01 SP= 0.00E+00 SK= 0.00E+00
   4763 T=   322. E= -.10474425E+04 F= -.10565673E+04 E0= -.10565673E+04  EK= 0.91247E+01 SP= 0.00E+00 SK= 0.00E+00
   4764 T=   323. E= -.10473781E+04 F= -.10565272E+04 E0= -.10565272E+04  EK= 0.91491E+01 SP= 0.00E+00 SK= 0.00E+00
   4765 T=   318. E= -.10473213E+04 F= -.10563303E+04 E0= -.10563303E+04  EK= 0.90090E+01 SP= 0.00E+00 SK= 0.00E+00
   4766 T=   311. E= -.10472942E+04 F= -.10561002E+04 E0= -.10561002E+04  EK= 0.88060E+01 SP= 0.00E+00 SK= 0.00E+00
   4767 T=   304. E= -.10473137E+04 F= -.10559191E+04 E0= -.10559191E+04  EK= 0.86054E+01 SP= 0.00E+00 SK= 0.00E+00
   4768 T=   300. E= -.10473887E+04 F= -.10558766E+04 E0= -.10558766E+04  EK= 0.84879E+01 SP= 0.00E+00 SK= 0.00E+00
   4769 T=   300. E= -.10474829E+04 F= -.10559636E+04 E0= -.10559636E+04  EK= 0.84807E+01 SP= 0.00E+00 SK= 0.00E+00
   4770 T=   297. E= -.10476199E+04 F= -.10560264E+04 E0= -.10560264E+04  EK= 0.84064E+01 SP= 0.00E+00 SK= 0.00E+00
   4771 T=   290. E= -.10477190E+04 F= -.10559263E+04 E0= -.10559263E+04  EK= 0.82073E+01 SP= 0.00E+00 SK= 0.00E+00
   4772 T=   282. E= -.10477437E+04 F= -.10557367E+04 E0= -.10557367E+04  EK= 0.79931E+01 SP= 0.00E+00 SK= 0.00E+00
   4773 T=   277. E= -.10476890E+04 F= -.10555374E+04 E0= -.10555374E+04  EK= 0.78484E+01 SP= 0.00E+00 SK= 0.00E+00
   4774 T=   273. E= -.10477563E+04 F= -.10554833E+04 E0= -.10554833E+04  EK= 0.77270E+01 SP= 0.00E+00 SK= 0.00E+00
   4775 T=   272. E= -.10478980E+04 F= -.10555974E+04 E0= -.10555974E+04  EK= 0.76995E+01 SP= 0.00E+00 SK= 0.00E+00
   4776 T=   280. E= -.10478525E+04 F= -.10557902E+04 E0= -.10557902E+04  EK= 0.79378E+01 SP= 0.00E+00 SK= 0.00E+00
   4777 T=   289. E= -.10477227E+04 F= -.10559010E+04 E0= -.10559010E+04  EK= 0.81784E+01 SP= 0.00E+00 SK= 0.00E+00
   4778 T=   287. E= -.10477034E+04 F= -.10558171E+04 E0= -.10558171E+04  EK= 0.81137E+01 SP= 0.00E+00 SK= 0.00E+00
   4779 T=   279. E= -.10476799E+04 F= -.10555744E+04 E0= -.10555744E+04  EK= 0.78944E+01 SP= 0.00E+00 SK= 0.00E+00
   4780 T=   270. E= -.10476749E+04 F= -.10553315E+04 E0= -.10553315E+04  EK= 0.76566E+01 SP= 0.00E+00 SK= 0.00E+00
   4781 T=   266. E= -.10477706E+04 F= -.10552915E+04 E0= -.10552915E+04  EK= 0.75209E+01 SP= 0.00E+00 SK= 0.00E+00
   4782 T=   271. E= -.10477785E+04 F= -.10554442E+04 E0= -.10554442E+04  EK= 0.76657E+01 SP= 0.00E+00 SK= 0.00E+00
   4783 T=   281. E= -.10477514E+04 F= -.10556934E+04 E0= -.10556934E+04  EK= 0.79420E+01 SP= 0.00E+00 SK= 0.00E+00
   4784 T=   287. E= -.10476955E+04 F= -.10558139E+04 E0= -.10558139E+04  EK= 0.81184E+01 SP= 0.00E+00 SK= 0.00E+00
   4785 T=   284. E= -.10476524E+04 F= -.10556817E+04 E0= -.10556817E+04  EK= 0.80293E+01 SP= 0.00E+00 SK= 0.00E+00
   4786 T=   274. E= -.10476479E+04 F= -.10553992E+04 E0= -.10553992E+04  EK= 0.77513E+01 SP= 0.00E+00 SK= 0.00E+00
   4787 T=   263. E= -.10477095E+04 F= -.10551561E+04 E0= -.10551561E+04  EK= 0.74466E+01 SP= 0.00E+00 SK= 0.00E+00
   4788 T=   257. E= -.10477533E+04 F= -.10550185E+04 E0= -.10550185E+04  EK= 0.72652E+01 SP= 0.00E+00 SK= 0.00E+00
   4789 T=   260. E= -.10477233E+04 F= -.10550958E+04 E0= -.10550958E+04  EK= 0.73725E+01 SP= 0.00E+00 SK= 0.00E+00
   4790 T=   268. E= -.10477135E+04 F= -.10552960E+04 E0= -.10552960E+04  EK= 0.75825E+01 SP= 0.00E+00 SK= 0.00E+00
   4791 T=   275. E= -.10477374E+04 F= -.10555110E+04 E0= -.10555110E+04  EK= 0.77737E+01 SP= 0.00E+00 SK= 0.00E+00
   4792 T=   278. E= -.10476780E+04 F= -.10555511E+04 E0= -.10555511E+04  EK= 0.78731E+01 SP= 0.00E+00 SK= 0.00E+00
   4793 T=   274. E= -.10476250E+04 F= -.10553849E+04 E0= -.10553849E+04  EK= 0.77599E+01 SP= 0.00E+00 SK= 0.00E+00
   4794 T=   266. E= -.10476017E+04 F= -.10551190E+04 E0= -.10551190E+04  EK= 0.75173E+01 SP= 0.00E+00 SK= 0.00E+00
   4795 T=   263. E= -.10475524E+04 F= -.10549867E+04 E0= -.10549867E+04  EK= 0.74343E+01 SP= 0.00E+00 SK= 0.00E+00
   4796 T=   263. E= -.10476481E+04 F= -.10550995E+04 E0= -.10550995E+04  EK= 0.74514E+01 SP= 0.00E+00 SK= 0.00E+00
   4797 T=   270. E= -.10477599E+04 F= -.10553933E+04 E0= -.10553933E+04  EK= 0.76334E+01 SP= 0.00E+00 SK= 0.00E+00
   4798 T=   281. E= -.10477691E+04 F= -.10557296E+04 E0= -.10557296E+04  EK= 0.79605E+01 SP= 0.00E+00 SK= 0.00E+00
   4799 T=   286. E= -.10478026E+04 F= -.10558974E+04 E0= -.10558974E+04  EK= 0.80948E+01 SP= 0.00E+00 SK= 0.00E+00
   4800 T=   283. E= -.10478425E+04 F= -.10558562E+04 E0= -.10558562E+04  EK= 0.80136E+01 SP= 0.00E+00 SK= 0.00E+00
   4801 T=   280. E= -.10478098E+04 F= -.10557304E+04 E0= -.10557304E+04  EK= 0.79205E+01 SP= 0.00E+00 SK= 0.00E+00
   4802 T=   276. E= -.10477742E+04 F= -.10555778E+04 E0= -.10555778E+04  EK= 0.78036E+01 SP= 0.00E+00 SK= 0.00E+00
   4803 T=   277. E= -.10476716E+04 F= -.10555029E+04 E0= -.10555029E+04  EK= 0.78312E+01 SP= 0.00E+00 SK= 0.00E+00
   4804 T=   280. E= -.10475878E+04 F= -.10555133E+04 E0= -.10555133E+04  EK= 0.79254E+01 SP= 0.00E+00 SK= 0.00E+00
   4805 T=   280. E= -.10476144E+04 F= -.10555420E+04 E0= -.10555420E+04  EK= 0.79275E+01 SP= 0.00E+00 SK= 0.00E+00
   4806 T=   284. E= -.10475576E+04 F= -.10556058E+04 E0= -.10556058E+04  EK= 0.80481E+01 SP= 0.00E+00 SK= 0.00E+00
   4807 T=   291. E= -.10474378E+04 F= -.10556656E+04 E0= -.10556656E+04  EK= 0.82278E+01 SP= 0.00E+00 SK= 0.00E+00
   4808 T=   294. E= -.10473427E+04 F= -.10556711E+04 E0= -.10556711E+04  EK= 0.83284E+01 SP= 0.00E+00 SK= 0.00E+00
   4809 T=   297. E= -.10472376E+04 F= -.10556559E+04 E0= -.10556559E+04  EK= 0.84183E+01 SP= 0.00E+00 SK= 0.00E+00
   4810 T=   294. E= -.10472926E+04 F= -.10556220E+04 E0= -.10556220E+04  EK= 0.83294E+01 SP= 0.00E+00 SK= 0.00E+00
   4811 T=   287. E= -.10474561E+04 F= -.10555760E+04 E0= -.10555760E+04  EK= 0.81199E+01 SP= 0.00E+00 SK= 0.00E+00
   4812 T=   284. E= -.10475605E+04 F= -.10556138E+04 E0= -.10556138E+04  EK= 0.80532E+01 SP= 0.00E+00 SK= 0.00E+00
   4813 T=   292. E= -.10474398E+04 F= -.10557135E+04 E0= -.10557135E+04  EK= 0.82737E+01 SP= 0.00E+00 SK= 0.00E+00
   4814 T=   303. E= -.10472890E+04 F= -.10558711E+04 E0= -.10558711E+04  EK= 0.85821E+01 SP= 0.00E+00 SK= 0.00E+00
   4815 T=   307. E= -.10472801E+04 F= -.10559630E+04 E0= -.10559630E+04  EK= 0.86829E+01 SP= 0.00E+00 SK= 0.00E+00
   4816 T=   307. E= -.10472585E+04 F= -.10559542E+04 E0= -.10559542E+04  EK= 0.86956E+01 SP= 0.00E+00 SK= 0.00E+00
   4817 T=   303. E= -.10472771E+04 F= -.10558419E+04 E0= -.10558419E+04  EK= 0.85648E+01 SP= 0.00E+00 SK= 0.00E+00
   4818 T=   295. E= -.10472935E+04 F= -.10556571E+04 E0= -.10556571E+04  EK= 0.83636E+01 SP= 0.00E+00 SK= 0.00E+00
       N       E                     dE             d eps       ncg     rms          rms(c)
DAV:   1    -0.250032697539E+03    0.78993E+03   -0.65862E+04 20644   0.434E+02
DAV:   2    -0.104093471824E+04   -0.79090E+03   -0.77064E+03 23808   0.133E+02
DAV:   3    -0.106643087941E+04   -0.25496E+02   -0.25451E+02 24576   0.268E+01
DAV:   4    -0.106679263023E+04   -0.36175E+00   -0.36157E+00 24768   0.302E+00    0.444E+01
DAV:   5    -0.104047923263E+04    0.26313E+02   -0.47331E+01 25088   0.155E+01    0.242E+01
DAV:   6    -0.103871482691E+04    0.17644E+01   -0.31308E+01 24640   0.112E+01    0.833E+00
DAV:   7    -0.103982644302E+04   -0.11116E+01   -0.58492E+00 24232   0.559E+00    0.306E+00
DAV:   8    -0.103989543287E+04   -0.68990E-01   -0.54209E-01 24032   0.196E+00    0.137E+00
DAV:   9    -0.103992010684E+04   -0.24674E-01   -0.24405E-01 24328   0.102E+00    0.780E-01
DAV:  10    -0.103990986307E+04    0.10244E-01   -0.46032E-02 28096   0.636E-01    0.191E-01
DAV:  11    -0.103990993733E+04   -0.74260E-04   -0.15768E-02 23800   0.258E-01    0.160E-01
DAV:  12    -0.103990858662E+04    0.13507E-02   -0.12987E-03 23880   0.147E-01    0.752E-02
DAV:  13    -0.103990795463E+04    0.63199E-03   -0.27596E-03 24160   0.169E-01    0.871E-02
DAV:  14    -0.103990769413E+04    0.26050E-03   -0.10100E-03 25336   0.960E-02    0.454E-02
DAV:  15    -0.103990768161E+04    0.12512E-04   -0.28724E-04 20232   0.343E-02
   4819 T=   286. E= -.10473670E+04 F= -.10554759E+04 E0= -.10554759E+04  EK= 0.81089E+01 SP= 0.00E+00 SK= 0.00E+00
   4820 T=   280. E= -.10474217E+04 F= -.10553587E+04 E0= -.10553587E+04  EK= 0.79370E+01 SP= 0.00E+00 SK= 0.00E+00
   4821 T=   277. E= -.10473829E+04 F= -.10552274E+04 E0= -.10552274E+04  EK= 0.78444E+01 SP= 0.00E+00 SK= 0.00E+00
   4822 T=   273. E= -.10473515E+04 F= -.10550849E+04 E0= -.10550849E+04  EK= 0.77333E+01 SP= 0.00E+00 SK= 0.00E+00
   4823 T=   271. E= -.10473255E+04 F= -.10549982E+04 E0= -.10549982E+04  EK= 0.76728E+01 SP= 0.00E+00 SK= 0.00E+00
   4824 T=   271. E= -.10473149E+04 F= -.10549845E+04 E0= -.10549845E+04  EK= 0.76696E+01 SP= 0.00E+00 SK= 0.00E+00
   4825 T=   270. E= -.10473766E+04 F= -.10550202E+04 E0= -.10550202E+04  EK= 0.76436E+01 SP= 0.00E+00 SK= 0.00E+00
   4826 T=   271. E= -.10474108E+04 F= -.10550779E+04 E0= -.10550779E+04  EK= 0.76671E+01 SP= 0.00E+00 SK= 0.00E+00
   4827 T=   269. E= -.10474677E+04 F= -.10550911E+04 E0= -.10550911E+04  EK= 0.76234E+01 SP= 0.00E+00 SK= 0.00E+00
   4828 T=   267. E= -.10475176E+04 F= -.10550887E+04 E0= -.10550887E+04  EK= 0.75711E+01 SP= 0.00E+00 SK= 0.00E+00
       N       E                     dE             d eps       ncg     rms          rms(c)
DAV:   1    -0.103197849974E+04    0.79292E+01   -0.31282E+03 20644   0.103E+02
DAV:   2    -0.104050389695E+04   -0.85254E+01   -0.85228E+01 24984   0.155E+01
DAV:   3    -0.104058064494E+04   -0.76748E-01   -0.76741E-01 25024   0.153E+00
DAV:   4    -0.104058217638E+04   -0.15314E-02   -0.15313E-02 25056   0.213E-01    0.118E+01
DAV:   5    -0.103944771300E+04    0.11345E+01   -0.27108E+00 25368   0.398E+00    0.628E+00
DAV:   6    -0.103946293643E+04   -0.15223E-01   -0.14272E+00 25072   0.257E+00    0.213E+00
DAV:   7    -0.103950222905E+04   -0.39293E-01   -0.29627E-01 25928   0.140E+00    0.648E-01
DAV:   8    -0.103950095271E+04    0.12763E-02   -0.39891E-02 23992   0.444E-01    0.360E-01
DAV:   9    -0.103949818344E+04    0.27693E-02   -0.17114E-02 23824   0.298E-01    0.185E-01
DAV:  10    -0.103949646049E+04    0.17229E-02   -0.34045E-03 28960   0.217E-01    0.701E-02
DAV:  11    -0.103949600482E+04    0.45567E-03   -0.23325E-03 24080   0.131E-01    0.731E-02
DAV:  12    -0.103949554553E+04    0.45929E-03   -0.44607E-04 22904   0.963E-02    0.255E-02
DAV:  13    -0.103949539809E+04    0.14744E-03   -0.42700E-04 22272   0.788E-02    0.327E-02
DAV:  14    -0.103949537946E+04    0.18630E-04   -0.29442E-04 21616   0.451E-02
   4829 T=   269. E= -.10474086E+04 F= -.10550275E+04 E0= -.10550275E+04  EK= 0.76189E+01 SP= 0.00E+00 SK= 0.00E+00
   4830 T=   272. E= -.10474596E+04 F= -.10551538E+04 E0= -.10551538E+04  EK= 0.76942E+01 SP= 0.00E+00 SK= 0.00E+00
   4831 T=   275. E= -.10474570E+04 F= -.10552513E+04 E0= -.10552513E+04  EK= 0.77943E+01 SP= 0.00E+00 SK= 0.00E+00
   4832 T=   279. E= -.10474155E+04 F= -.10553079E+04 E0= -.10553079E+04  EK= 0.78924E+01 SP= 0.00E+00 SK= 0.00E+00
   4833 T=   282. E= -.10473600E+04 F= -.10553482E+04 E0= -.10553482E+04  EK= 0.79881E+01 SP= 0.00E+00 SK= 0.00E+00
   4834 T=   281. E= -.10474465E+04 F= -.10554044E+04 E0= -.10554044E+04  EK= 0.79579E+01 SP= 0.00E+00 SK= 0.00E+00
   4835 T=   275. E= -.10476144E+04 F= -.10553942E+04 E0= -.10553942E+04  EK= 0.77797E+01 SP= 0.00E+00 SK= 0.00E+00
   4836 T=   268. E= -.10477312E+04 F= -.10553262E+04 E0= -.10553262E+04  EK= 0.75950E+01 SP= 0.00E+00 SK= 0.00E+00
   4837 T=   265. E= -.10476743E+04 F= -.10551781E+04 E0= -.10551781E+04  EK= 0.75039E+01 SP= 0.00E+00 SK= 0.00E+00
   4838 T=   264. E= -.10475475E+04 F= -.10550285E+04 E0= -.10550285E+04  EK= 0.74810E+01 SP= 0.00E+00 SK= 0.00E+00
   4839 T=   263. E= -.10475177E+04 F= -.10549668E+04 E0= -.10549668E+04  EK= 0.74491E+01 SP= 0.00E+00 SK= 0.00E+00
   4840 T=   266. E= -.10474951E+04 F= -.10550274E+04 E0= -.10550274E+04  EK= 0.75323E+01 SP= 0.00E+00 SK= 0.00E+00
   4841 T=   273. E= -.10474582E+04 F= -.10551850E+04 E0= -.10551850E+04  EK= 0.77268E+01 SP= 0.00E+00 SK= 0.00E+00
   4842 T=   277. E= -.10474227E+04 F= -.10552756E+04 E0= -.10552756E+04  EK= 0.78529E+01 SP= 0.00E+00 SK= 0.00E+00
   4843 T=   279. E= -.10473903E+04 F= -.10552807E+04 E0= -.10552807E+04  EK= 0.78904E+01 SP= 0.00E+00 SK= 0.00E+00
   4844 T=   272. E= -.10474420E+04 F= -.10551468E+04 E0= -.10551468E+04  EK= 0.77048E+01 SP= 0.00E+00 SK= 0.00E+00
   4845 T=   263. E= -.10475463E+04 F= -.10549827E+04 E0= -.10549827E+04  EK= 0.74364E+01 SP= 0.00E+00 SK= 0.00E+00
   4846 T=   260. E= -.10475354E+04 F= -.10549013E+04 E0= -.10549013E+04  EK= 0.73659E+01 SP= 0.00E+00 SK= 0.00E+00
   4847 T=   263. E= -.10475328E+04 F= -.10549792E+04 E0= -.10549792E+04  EK= 0.74465E+01 SP= 0.00E+00 SK= 0.00E+00
   4848 T=   273. E= -.10475276E+04 F= -.10552456E+04 E0= -.10552456E+04  EK= 0.77180E+01 SP= 0.00E+00 SK= 0.00E+00
   4849 T=   286. E= -.10474535E+04 F= -.10555549E+04 E0= -.10555549E+04  EK= 0.81014E+01 SP= 0.00E+00 SK= 0.00E+00
   4850 T=   291. E= -.10474976E+04 F= -.10557476E+04 E0= -.10557476E+04  EK= 0.82500E+01 SP= 0.00E+00 SK= 0.00E+00
   4851 T=   286. E= -.10476065E+04 F= -.10557052E+04 E0= -.10557052E+04  EK= 0.80987E+01 SP= 0.00E+00 SK= 0.00E+00
   4852 T=   277. E= -.10476409E+04 F= -.10554689E+04 E0= -.10554689E+04  EK= 0.78279E+01 SP= 0.00E+00 SK= 0.00E+00
   4853 T=   269. E= -.10476215E+04 F= -.10552285E+04 E0= -.10552285E+04  EK= 0.76070E+01 SP= 0.00E+00 SK= 0.00E+00
   4854 T=   267. E= -.10476159E+04 F= -.10551608E+04 E0= -.10551608E+04  EK= 0.75450E+01 SP= 0.00E+00 SK= 0.00E+00
   4855 T=   269. E= -.10476498E+04 F= -.10552651E+04 E0= -.10552651E+04  EK= 0.76154E+01 SP= 0.00E+00 SK= 0.00E+00
   4856 T=   275. E= -.10476744E+04 F= -.10554459E+04 E0= -.10554459E+04  EK= 0.77716E+01 SP= 0.00E+00 SK= 0.00E+00
   4857 T=   279. E= -.10476330E+04 F= -.10555254E+04 E0= -.10555254E+04  EK= 0.78924E+01 SP= 0.00E+00 SK= 0.00E+00
   4858 T=   280. E= -.10475249E+04 F= -.10554510E+04 E0= -.10554510E+04  EK= 0.79260E+01 SP= 0.00E+00 SK= 0.00E+00
       N       E                     dE             d eps       ncg     rms          rms(c)
DAV:   1    -0.952802328836E+03    0.86693E+02   -0.16610E+04 20644   0.232E+02
DAV:   2    -0.104243851789E+04   -0.89636E+02   -0.89564E+02 24448   0.475E+01
DAV:   3    -0.104341980590E+04   -0.98129E+00   -0.98110E+00 24976   0.551E+00
DAV:   4    -0.104343686434E+04   -0.17058E-01   -0.17056E-01 24880   0.724E-01    0.237E+01
DAV:   5    -0.103976157616E+04    0.36753E+01   -0.77443E+00 24584   0.584E+00    0.135E+01
DAV:   6    -0.103972176330E+04    0.39813E-01   -0.62072E+00 25128   0.533E+00    0.336E+00
DAV:   7    -0.103992034112E+04   -0.19858E+00   -0.11299E+00 24592   0.224E+00    0.137E+00
DAV:   8    -0.103991677618E+04    0.35649E-02   -0.11035E-01 23888   0.729E-01    0.598E-01
DAV:   9    -0.103991251761E+04    0.42586E-02   -0.21598E-02 24448   0.382E-01    0.226E-01
DAV:  10    -0.103990965477E+04    0.28628E-02   -0.61897E-03 24216   0.266E-01    0.112E-01
DAV:  11    -0.103990838937E+04    0.12654E-02   -0.44288E-03 24384   0.199E-01    0.924E-02
DAV:  12    -0.103990753634E+04    0.85302E-03   -0.97589E-04 23880   0.110E-01    0.383E-02
DAV:  13    -0.103990699725E+04    0.53909E-03   -0.59049E-04 22328   0.122E-01    0.391E-02
DAV:  14    -0.103990698112E+04    0.16132E-04   -0.70248E-04 25088   0.648E-02
   4859 T=   274. E= -.10475170E+04 F= -.10552633E+04 E0= -.10552633E+04  EK= 0.77463E+01 SP= 0.00E+00 SK= 0.00E+00
   4860 T=   267. E= -.10474399E+04 F= -.10550083E+04 E0= -.10550083E+04  EK= 0.75684E+01 SP= 0.00E+00 SK= 0.00E+00
   4861 T=   263. E= -.10473693E+04 F= -.10548176E+04 E0= -.10548176E+04  EK= 0.74483E+01 SP= 0.00E+00 SK= 0.00E+00
   4862 T=   264. E= -.10473529E+04 F= -.10548310E+04 E0= -.10548310E+04  EK= 0.74781E+01 SP= 0.00E+00 SK= 0.00E+00
   4863 T=   270. E= -.10473195E+04 F= -.10549586E+04 E0= -.10549586E+04  EK= 0.76391E+01 SP= 0.00E+00 SK= 0.00E+00
   4864 T=   277. E= -.10473002E+04 F= -.10551506E+04 E0= -.10551506E+04  EK= 0.78504E+01 SP= 0.00E+00 SK= 0.00E+00
   4865 T=   283. E= -.10473085E+04 F= -.10553129E+04 E0= -.10553129E+04  EK= 0.80044E+01 SP= 0.00E+00 SK= 0.00E+00
   4866 T=   285. E= -.10473096E+04 F= -.10553893E+04 E0= -.10553893E+04  EK= 0.80797E+01 SP= 0.00E+00 SK= 0.00E+00
   4867 T=   284. E= -.10473224E+04 F= -.10553651E+04 E0= -.10553651E+04  EK= 0.80427E+01 SP= 0.00E+00 SK= 0.00E+00
   4868 T=   281. E= -.10472845E+04 F= -.10552280E+04 E0= -.10552280E+04  EK= 0.79434E+01 SP= 0.00E+00 SK= 0.00E+00
       N       E                     dE             d eps       ncg     rms          rms(c)
DAV:   1    -0.103176868902E+04    0.81383E+01   -0.31925E+03 20644   0.104E+02
DAV:   2    -0.104070650157E+04   -0.89378E+01   -0.89351E+01 24976   0.158E+01
DAV:   3    -0.104078651862E+04   -0.80017E-01   -0.80009E-01 25096   0.158E+00
DAV:   4    -0.104078812145E+04   -0.16028E-02   -0.16027E-02 25088   0.219E-01    0.118E+01
DAV:   5    -0.103972443630E+04    0.10637E+01   -0.23451E+00 25256   0.380E+00    0.643E+00
DAV:   6    -0.103974615164E+04   -0.21715E-01   -0.15438E+00 24888   0.266E+00    0.197E+00
DAV:   7    -0.103978598067E+04   -0.39829E-01   -0.31596E-01 25872   0.142E+00    0.665E-01
DAV:   8    -0.103978413802E+04    0.18427E-02   -0.39173E-02 23800   0.462E-01    0.352E-01
DAV:   9    -0.103978211510E+04    0.20229E-02   -0.18133E-02 23696   0.281E-01    0.195E-01
DAV:  10    -0.103978024948E+04    0.18656E-02   -0.34877E-03 29536   0.219E-01    0.606E-02
DAV:  11    -0.103977972735E+04    0.52213E-03   -0.20869E-03 23568   0.115E-01    0.701E-02
DAV:  12    -0.103977914413E+04    0.58321E-03   -0.44434E-04 21944   0.817E-02    0.230E-02
DAV:  13    -0.103977894250E+04    0.20163E-03   -0.36574E-04 21560   0.701E-02    0.319E-02
DAV:  14    -0.103977891683E+04    0.25669E-04   -0.24520E-04 19328   0.435E-02
   4869 T=   276. E= -.10472690E+04 F= -.10550683E+04 E0= -.10550683E+04  EK= 0.77993E+01 SP= 0.00E+00 SK= 0.00E+00
   4870 T=   271. E= -.10473792E+04 F= -.10550630E+04 E0= -.10550630E+04  EK= 0.76838E+01 SP= 0.00E+00 SK= 0.00E+00
   4871 T=   272. E= -.10473697E+04 F= -.10550777E+04 E0= -.10550777E+04  EK= 0.77080E+01 SP= 0.00E+00 SK= 0.00E+00
   4872 T=   276. E= -.10473032E+04 F= -.10551210E+04 E0= -.10551210E+04  EK= 0.78177E+01 SP= 0.00E+00 SK= 0.00E+00
   4873 T=   280. E= -.10471962E+04 F= -.10551165E+04 E0= -.10551165E+04  EK= 0.79203E+01 SP= 0.00E+00 SK= 0.00E+00
   4874 T=   282. E= -.10470884E+04 F= -.10550701E+04 E0= -.10550701E+04  EK= 0.79817E+01 SP= 0.00E+00 SK= 0.00E+00
   4875 T=   289. E= -.10468679E+04 F= -.10550627E+04 E0= -.10550627E+04  EK= 0.81948E+01 SP= 0.00E+00 SK= 0.00E+00
   4876 T=   291. E= -.10467581E+04 F= -.10550055E+04 E0= -.10550055E+04  EK= 0.82474E+01 SP= 0.00E+00 SK= 0.00E+00
   4877 T=   287. E= -.10467608E+04 F= -.10548759E+04 E0= -.10548759E+04  EK= 0.81151E+01 SP= 0.00E+00 SK= 0.00E+00
   4878 T=   289. E= -.10466132E+04 F= -.10547911E+04 E0= -.10547911E+04  EK= 0.81779E+01 SP= 0.00E+00 SK= 0.00E+00
   4879 T=   293. E= -.10464664E+04 F= -.10547629E+04 E0= -.10547629E+04  EK= 0.82966E+01 SP= 0.00E+00 SK= 0.00E+00
   4880 T=   293. E= -.10465022E+04 F= -.10548060E+04 E0= -.10548060E+04  EK= 0.83038E+01 SP= 0.00E+00 SK= 0.00E+00
       N       E                     dE             d eps       ncg     rms          rms(c)
DAV:   1    -0.102704611178E+04    0.12733E+02   -0.46486E+03 20644   0.125E+02
DAV:   2    -0.104075494378E+04   -0.13709E+02   -0.13704E+02 24840   0.194E+01
DAV:   3    -0.104088278220E+04   -0.12784E+00   -0.12783E+00 25000   0.196E+00
DAV:   4    -0.104088538032E+04   -0.25981E-02   -0.25979E-02 25008   0.272E-01    0.134E+01
DAV:   5    -0.103945055416E+04    0.14348E+01   -0.27261E+00 25840   0.428E+00    0.739E+00
DAV:   6    -0.103946235357E+04   -0.11799E-01   -0.23940E+00 25200   0.344E+00    0.209E+00
DAV:   7    -0.103950882940E+04   -0.46476E-01   -0.41872E-01 24456   0.156E+00    0.745E-01
DAV:   8    -0.103950874216E+04    0.87235E-04   -0.48913E-02 24128   0.472E-01    0.382E-01
DAV:   9    -0.103950624402E+04    0.24981E-02   -0.13952E-02 24272   0.315E-01    0.187E-01
DAV:  10    -0.103950461539E+04    0.16286E-02   -0.30175E-03 25576   0.194E-01    0.857E-02
DAV:  11    -0.103950400820E+04    0.60718E-03   -0.26537E-03 24128   0.137E-01    0.671E-02
DAV:  12    -0.103950351618E+04    0.49202E-03   -0.78735E-04 23688   0.109E-01    0.358E-02
DAV:  13    -0.103950337990E+04    0.13628E-03   -0.37764E-04 22416   0.612E-02    0.377E-02
DAV:  14    -0.103950333023E+04    0.49666E-04   -0.21897E-04 18000   0.431E-02
   4881 T=   291. E= -.10465195E+04 F= -.10547499E+04 E0= -.10547499E+04  EK= 0.82303E+01 SP= 0.00E+00 SK= 0.00E+00
   4882 T=   288. E= -.10465377E+04 F= -.10547032E+04 E0= -.10547032E+04  EK= 0.81655E+01 SP= 0.00E+00 SK= 0.00E+00
   4883 T=   285. E= -.10465289E+04 F= -.10546040E+04 E0= -.10546040E+04  EK= 0.80751E+01 SP= 0.00E+00 SK= 0.00E+00
   4884 T=   283. E= -.10465222E+04 F= -.10545211E+04 E0= -.10545211E+04  EK= 0.79989E+01 SP= 0.00E+00 SK= 0.00E+00
   4885 T=   284. E= -.10464915E+04 F= -.10545409E+04 E0= -.10545409E+04  EK= 0.80493E+01 SP= 0.00E+00 SK= 0.00E+00
   4886 T=   287. E= -.10464715E+04 F= -.10546089E+04 E0= -.10546089E+04  EK= 0.81374E+01 SP= 0.00E+00 SK= 0.00E+00
   4887 T=   290. E= -.10464314E+04 F= -.10546538E+04 E0= -.10546538E+04  EK= 0.82224E+01 SP= 0.00E+00 SK= 0.00E+00
   4888 T=   294. E= -.10463461E+04 F= -.10546736E+04 E0= -.10546736E+04  EK= 0.83275E+01 SP= 0.00E+00 SK= 0.00E+00
   4889 T=   295. E= -.10462572E+04 F= -.10546038E+04 E0= -.10546038E+04  EK= 0.83466E+01 SP= 0.00E+00 SK= 0.00E+00
   4890 T=   295. E= -.10461115E+04 F= -.10544731E+04 E0= -.10544731E+04  EK= 0.83616E+01 SP= 0.00E+00 SK= 0.00E+00
       N       E                     dE             d eps       ncg     rms          rms(c)
DAV:   1    -0.103074828225E+04    0.87551E+01   -0.34143E+03 20644   0.108E+02
DAV:   2    -0.104010582605E+04   -0.93575E+01   -0.93545E+01 24984   0.162E+01
DAV:   3    -0.104019169531E+04   -0.85869E-01   -0.85861E-01 25056   0.161E+00
DAV:   4    -0.104019347984E+04   -0.17845E-02   -0.17844E-02 25008   0.226E-01    0.121E+01
DAV:   5    -0.103898670071E+04    0.12068E+01   -0.25017E+00 25552   0.412E+00    0.655E+00
DAV:   6    -0.103899961220E+04   -0.12911E-01   -0.17248E+00 24912   0.288E+00    0.203E+00
DAV:   7    -0.103904146748E+04   -0.41855E-01   -0.33668E-01 25512   0.146E+00    0.662E-01
DAV:   8    -0.103903989470E+04    0.15728E-02   -0.39148E-02 23976   0.467E-01    0.368E-01
DAV:   9    -0.103903754670E+04    0.23480E-02   -0.21024E-02 24008   0.332E-01    0.217E-01
DAV:  10    -0.103903554345E+04    0.20032E-02   -0.42723E-03 28792   0.232E-01    0.806E-02
DAV:  11    -0.103903486233E+04    0.68112E-03   -0.27971E-03 24040   0.147E-01    0.759E-02
DAV:  12    -0.103903423537E+04    0.62696E-03   -0.55658E-04 24056   0.110E-01    0.326E-02
DAV:  13    -0.103903394726E+04    0.28811E-03   -0.45714E-04 22232   0.944E-02    0.280E-02
DAV:  14    -0.103903392895E+04    0.18313E-04   -0.39355E-04 24104   0.515E-02
   4891 T=   292. E= -.10460082E+04 F= -.10542627E+04 E0= -.10542627E+04  EK= 0.82545E+01 SP= 0.00E+00 SK= 0.00E+00
   4892 T=   289. E= -.10460774E+04 F= -.10542567E+04 E0= -.10542567E+04  EK= 0.81793E+01 SP= 0.00E+00 SK= 0.00E+00
   4893 T=   288. E= -.10460610E+04 F= -.10542176E+04 E0= -.10542176E+04  EK= 0.81566E+01 SP= 0.00E+00 SK= 0.00E+00
   4894 T=   287. E= -.10461317E+04 F= -.10542670E+04 E0= -.10542670E+04  EK= 0.81353E+01 SP= 0.00E+00 SK= 0.00E+00
   4895 T=   287. E= -.10461567E+04 F= -.10542761E+04 E0= -.10542761E+04  EK= 0.81194E+01 SP= 0.00E+00 SK= 0.00E+00
   4896 T=   289. E= -.10461114E+04 F= -.10542963E+04 E0= -.10542963E+04  EK= 0.81849E+01 SP= 0.00E+00 SK= 0.00E+00
   4897 T=   289. E= -.10461219E+04 F= -.10543083E+04 E0= -.10543083E+04  EK= 0.81863E+01 SP= 0.00E+00 SK= 0.00E+00
   4898 T=   290. E= -.10461099E+04 F= -.10543080E+04 E0= -.10543080E+04  EK= 0.81981E+01 SP= 0.00E+00 SK= 0.00E+00
   4899 T=   290. E= -.10460780E+04 F= -.10542843E+04 E0= -.10542843E+04  EK= 0.82063E+01 SP= 0.00E+00 SK= 0.00E+00
   4900 T=   291. E= -.10460215E+04 F= -.10542476E+04 E0= -.10542476E+04  EK= 0.82261E+01 SP= 0.00E+00 SK= 0.00E+00
       N       E                     dE             d eps       ncg     rms          rms(c)
DAV:   1    -0.103125458752E+04    0.77794E+01   -0.32062E+03 20644   0.104E+02
DAV:   2    -0.104007461006E+04   -0.88200E+01   -0.88172E+01 24928   0.157E+01
DAV:   3    -0.104015688478E+04   -0.82275E-01   -0.82267E-01 25000   0.158E+00
DAV:   4    -0.104015862153E+04   -0.17367E-02   -0.17366E-02 24992   0.222E-01    0.122E+01
DAV:   5    -0.103892112814E+04    0.12375E+01   -0.30545E+00 25472   0.429E+00    0.646E+00
DAV:   6    -0.103896198820E+04   -0.40860E-01   -0.14675E+00 24928   0.263E+00    0.230E+00
DAV:   7    -0.103900456333E+04   -0.42575E-01   -0.32637E-01 26360   0.146E+00    0.663E-01
DAV:   8    -0.103900057603E+04    0.39873E-02   -0.43458E-02 24640   0.514E-01    0.370E-01
DAV:   9    -0.103899578310E+04    0.47929E-02   -0.21337E-02 23960   0.347E-01    0.209E-01
DAV:  10    -0.103899327043E+04    0.25127E-02   -0.44366E-03 28080   0.235E-01    0.968E-02
DAV:  11    -0.103899202958E+04    0.12408E-02   -0.30548E-03 23992   0.174E-01    0.823E-02
DAV:  12    -0.103899117682E+04    0.85276E-03   -0.80769E-04 25688   0.140E-01    0.393E-02
DAV:  13    -0.103899092232E+04    0.25450E-03   -0.83539E-04 24032   0.108E-01    0.317E-02
DAV:  14    -0.103899091451E+04    0.78171E-05   -0.43604E-04 24360   0.497E-02
   4901 T=   293. E= -.10459376E+04 F= -.10542229E+04 E0= -.10542229E+04  EK= 0.82853E+01 SP= 0.00E+00 SK= 0.00E+00
   4902 T=   292. E= -.10460094E+04 F= -.10542738E+04 E0= -.10542738E+04  EK= 0.82644E+01 SP= 0.00E+00 SK= 0.00E+00
   4903 T=   291. E= -.10460675E+04 F= -.10543070E+04 E0= -.10543070E+04  EK= 0.82395E+01 SP= 0.00E+00 SK= 0.00E+00
   4904 T=   294. E= -.10460256E+04 F= -.10543459E+04 E0= -.10543459E+04  EK= 0.83203E+01 SP= 0.00E+00 SK= 0.00E+00
   4905 T=   295. E= -.10459866E+04 F= -.10543413E+04 E0= -.10543413E+04  EK= 0.83547E+01 SP= 0.00E+00 SK= 0.00E+00
   4906 T=   296. E= -.10459600E+04 F= -.10543479E+04 E0= -.10543479E+04  EK= 0.83879E+01 SP= 0.00E+00 SK= 0.00E+00
   4907 T=   296. E= -.10459743E+04 F= -.10543405E+04 E0= -.10543405E+04  EK= 0.83662E+01 SP= 0.00E+00 SK= 0.00E+00
   4908 T=   295. E= -.10459622E+04 F= -.10543225E+04 E0= -.10543225E+04  EK= 0.83604E+01 SP= 0.00E+00 SK= 0.00E+00
   4909 T=   299. E= -.10458508E+04 F= -.10543247E+04 E0= -.10543247E+04  EK= 0.84739E+01 SP= 0.00E+00 SK= 0.00E+00
   4910 T=   298. E= -.10458843E+04 F= -.10543109E+04 E0= -.10543109E+04  EK= 0.84266E+01 SP= 0.00E+00 SK= 0.00E+00
   4911 T=   295. E= -.10459778E+04 F= -.10543192E+04 E0= -.10543192E+04  EK= 0.83414E+01 SP= 0.00E+00 SK= 0.00E+00
   4912 T=   294. E= -.10460627E+04 F= -.10543857E+04 E0= -.10543857E+04  EK= 0.83230E+01 SP= 0.00E+00 SK= 0.00E+00
   4913 T=   294. E= -.10461612E+04 F= -.10544721E+04 E0= -.10544721E+04  EK= 0.83109E+01 SP= 0.00E+00 SK= 0.00E+00
   4914 T=   293. E= -.10462180E+04 F= -.10545172E+04 E0= -.10545172E+04  EK= 0.82992E+01 SP= 0.00E+00 SK= 0.00E+00
   4915 T=   292. E= -.10461907E+04 F= -.10544503E+04 E0= -.10544503E+04  EK= 0.82596E+01 SP= 0.00E+00 SK= 0.00E+00
   4916 T=   291. E= -.10461190E+04 F= -.10543451E+04 E0= -.10543451E+04  EK= 0.82261E+01 SP= 0.00E+00 SK= 0.00E+00
   4917 T=   286. E= -.10461862E+04 F= -.10542941E+04 E0= -.10542941E+04  EK= 0.81079E+01 SP= 0.00E+00 SK= 0.00E+00
   4918 T=   284. E= -.10462854E+04 F= -.10543217E+04 E0= -.10543217E+04  EK= 0.80363E+01 SP= 0.00E+00 SK= 0.00E+00
   4919 T=   285. E= -.10463735E+04 F= -.10544450E+04 E0= -.10544450E+04  EK= 0.80715E+01 SP= 0.00E+00 SK= 0.00E+00
   4920 T=   290. E= -.10464238E+04 F= -.10546197E+04 E0= -.10546197E+04  EK= 0.81959E+01 SP= 0.00E+00 SK= 0.00E+00
   4921 T=   296. E= -.10463174E+04 F= -.10547010E+04 E0= -.10547010E+04  EK= 0.83836E+01 SP= 0.00E+00 SK= 0.00E+00
   4922 T=   296. E= -.10462858E+04 F= -.10546763E+04 E0= -.10546763E+04  EK= 0.83905E+01 SP= 0.00E+00 SK= 0.00E+00
   4923 T=   289. E= -.10463918E+04 F= -.10545674E+04 E0= -.10545674E+04  EK= 0.81755E+01 SP= 0.00E+00 SK= 0.00E+00
   4924 T=   288. E= -.10463918E+04 F= -.10545319E+04 E0= -.10545319E+04  EK= 0.81401E+01 SP= 0.00E+00 SK= 0.00E+00
       N       E                     dE             d eps       ncg     rms          rms(c)
DAV:   1    -0.977184320276E+03    0.61807E+02   -0.13726E+04 20644   0.212E+02
DAV:   2    -0.104228417380E+04   -0.65100E+02   -0.65055E+02 24576   0.404E+01
DAV:   3    -0.104297614704E+04   -0.69197E+00   -0.69182E+00 25008   0.460E+00
DAV:   4    -0.104298888704E+04   -0.12740E-01   -0.12738E-01 24912   0.609E-01    0.226E+01
DAV:   5    -0.103935105611E+04    0.36378E+01   -0.81484E+00 24720   0.616E+00    0.126E+01
DAV:   6    -0.103926300548E+04    0.88051E-01   -0.52971E+00 25136   0.481E+00    0.358E+00
DAV:   7    -0.103944072687E+04   -0.17772E+00   -0.95372E-01 24448   0.224E+00    0.125E+00
DAV:   8    -0.103944404209E+04   -0.33152E-02   -0.10392E-01 23232   0.672E-01    0.615E-01
DAV:   9    -0.103944138928E+04    0.26528E-02   -0.28268E-02 23752   0.412E-01    0.234E-01
DAV:  10    -0.103943924550E+04    0.21438E-02   -0.55807E-03 25784   0.262E-01    0.123E-01
DAV:  11    -0.103943827514E+04    0.97036E-03   -0.52925E-03 23760   0.193E-01    0.104E-01
DAV:  12    -0.103943725453E+04    0.10206E-02   -0.17599E-03 25072   0.147E-01    0.539E-02
DAV:  13    -0.103943685794E+04    0.39659E-03   -0.64865E-04 23952   0.998E-02    0.537E-02
DAV:  14    -0.103943678134E+04    0.76602E-04   -0.71066E-04 24912   0.722E-02
   4925 T=   291. E= -.10463522E+04 F= -.10545853E+04 E0= -.10545853E+04  EK= 0.82331E+01 SP= 0.00E+00 SK= 0.00E+00
   4926 T=   292. E= -.10464139E+04 F= -.10546685E+04 E0= -.10546685E+04  EK= 0.82546E+01 SP= 0.00E+00 SK= 0.00E+00
   4927 T=   293. E= -.10464811E+04 F= -.10547673E+04 E0= -.10547673E+04  EK= 0.82861E+01 SP= 0.00E+00 SK= 0.00E+00
   4928 T=   295. E= -.10465178E+04 F= -.10548646E+04 E0= -.10548646E+04  EK= 0.83468E+01 SP= 0.00E+00 SK= 0.00E+00
   4929 T=   295. E= -.10466154E+04 F= -.10549772E+04 E0= -.10549772E+04  EK= 0.83618E+01 SP= 0.00E+00 SK= 0.00E+00
   4930 T=   299. E= -.10466033E+04 F= -.10550638E+04 E0= -.10550638E+04  EK= 0.84605E+01 SP= 0.00E+00 SK= 0.00E+00
   4931 T=   306. E= -.10464508E+04 F= -.10551136E+04 E0= -.10551136E+04  EK= 0.86628E+01 SP= 0.00E+00 SK= 0.00E+00
   4932 T=   310. E= -.10463594E+04 F= -.10551262E+04 E0= -.10551262E+04  EK= 0.87668E+01 SP= 0.00E+00 SK= 0.00E+00
   4933 T=   311. E= -.10463294E+04 F= -.10551208E+04 E0= -.10551208E+04  EK= 0.87914E+01 SP= 0.00E+00 SK= 0.00E+00
   4934 T=   312. E= -.10463144E+04 F= -.10551336E+04 E0= -.10551336E+04  EK= 0.88192E+01 SP= 0.00E+00 SK= 0.00E+00
       N       E                     dE             d eps       ncg     rms          rms(c)
DAV:   1    -0.103073793473E+04    0.86989E+01   -0.38720E+03 20644   0.115E+02
DAV:   2    -0.104128826027E+04   -0.10550E+02   -0.10547E+02 24808   0.173E+01
DAV:   3    -0.104138556575E+04   -0.97305E-01   -0.97296E-01 25048   0.173E+00
DAV:   4    -0.104138758627E+04   -0.20205E-02   -0.20204E-02 25056   0.243E-01    0.130E+01
DAV:   5    -0.103990339341E+04    0.14842E+01   -0.30249E+00 25632   0.433E+00    0.697E+00
DAV:   6    -0.103987959711E+04    0.23796E-01   -0.20136E+00 25120   0.303E+00    0.215E+00
DAV:   7    -0.103992558849E+04   -0.45991E-01   -0.35177E-01 24600   0.143E+00    0.708E-01
DAV:   8    -0.103992458364E+04    0.10049E-02   -0.36488E-02 24112   0.442E-01    0.378E-01
DAV:   9    -0.103992184348E+04    0.27402E-02   -0.18099E-02 24112   0.344E-01    0.196E-01
DAV:  10    -0.103992010597E+04    0.17375E-02   -0.41104E-03 27496   0.212E-01    0.844E-02
DAV:  11    -0.103991944936E+04    0.65661E-03   -0.23550E-03 23616   0.124E-01    0.647E-02
DAV:  12    -0.103991882469E+04    0.62467E-03   -0.29702E-04 19160   0.105E-01    0.313E-02
DAV:  13    -0.103991857939E+04    0.24530E-03   -0.68466E-04 22640   0.985E-02    0.312E-02
DAV:  14    -0.103991856176E+04    0.17630E-04   -0.32778E-04 22544   0.455E-02
   4935 T=   306. E= -.10463865E+04 F= -.10550492E+04 E0= -.10550492E+04  EK= 0.86627E+01 SP= 0.00E+00 SK= 0.00E+00
   4936 T=   301. E= -.10465494E+04 F= -.10550598E+04 E0= -.10550598E+04  EK= 0.85104E+01 SP= 0.00E+00 SK= 0.00E+00
   4937 T=   303. E= -.10466079E+04 F= -.10551781E+04 E0= -.10551781E+04  EK= 0.85702E+01 SP= 0.00E+00 SK= 0.00E+00
   4938 T=   309. E= -.10465797E+04 F= -.10553170E+04 E0= -.10553170E+04  EK= 0.87373E+01 SP= 0.00E+00 SK= 0.00E+00
   4939 T=   315. E= -.10464546E+04 F= -.10553747E+04 E0= -.10553747E+04  EK= 0.89201E+01 SP= 0.00E+00 SK= 0.00E+00
   4940 T=   311. E= -.10464759E+04 F= -.10552749E+04 E0= -.10552749E+04  EK= 0.87989E+01 SP= 0.00E+00 SK= 0.00E+00
   4941 T=   300. E= -.10466650E+04 F= -.10551449E+04 E0= -.10551449E+04  EK= 0.84799E+01 SP= 0.00E+00 SK= 0.00E+00
   4942 T=   297. E= -.10466891E+04 F= -.10550938E+04 E0= -.10550938E+04  EK= 0.84047E+01 SP= 0.00E+00 SK= 0.00E+00
   4943 T=   301. E= -.10466286E+04 F= -.10551406E+04 E0= -.10551406E+04  EK= 0.85119E+01 SP= 0.00E+00 SK= 0.00E+00
   4944 T=   304. E= -.10466192E+04 F= -.10552340E+04 E0= -.10552340E+04  EK= 0.86148E+01 SP= 0.00E+00 SK= 0.00E+00
       N       E                     dE             d eps       ncg     rms          rms(c)
DAV:   1    -0.103036988778E+04    0.95487E+01   -0.39253E+03 20644   0.115E+02
DAV:   2    -0.104146988113E+04   -0.11100E+02   -0.11097E+02 24952   0.174E+01
DAV:   3    -0.104157188811E+04   -0.10201E+00   -0.10200E+00 24976   0.175E+00
DAV:   4    -0.104157397432E+04   -0.20862E-02   -0.20861E-02 24944   0.246E-01    0.129E+01
DAV:   5    -0.104020482972E+04    0.13691E+01   -0.27733E+00 25200   0.403E+00    0.700E+00
DAV:   6    -0.104021099793E+04   -0.61682E-02   -0.17891E+00 25096   0.287E+00    0.208E+00
DAV:   7    -0.104026817824E+04   -0.57180E-01   -0.33706E-01 24592   0.132E+00    0.695E-01
DAV:   8    -0.104026699332E+04    0.11849E-02   -0.29538E-02 23912   0.407E-01    0.339E-01
DAV:   9    -0.104026602636E+04    0.96696E-03   -0.12749E-02 23912   0.265E-01    0.156E-01
DAV:  10    -0.104026499933E+04    0.10270E-02   -0.29796E-03 28360   0.183E-01    0.576E-02
DAV:  11    -0.104026474373E+04    0.25560E-03   -0.12209E-03 23872   0.842E-02    0.538E-02
DAV:  12    -0.104026438643E+04    0.35730E-03   -0.20873E-04 18248   0.704E-02    0.198E-02
DAV:  13    -0.104026425717E+04    0.12926E-03   -0.34968E-04 21736   0.684E-02    0.312E-02
DAV:  14    -0.104026423830E+04    0.18868E-04   -0.27011E-04 20304   0.451E-02
   4945 T=   307. E= -.10466371E+04 F= -.10553310E+04 E0= -.10553310E+04  EK= 0.86938E+01 SP= 0.00E+00 SK= 0.00E+00
   4946 T=   308. E= -.10467030E+04 F= -.10554189E+04 E0= -.10554189E+04  EK= 0.87159E+01 SP= 0.00E+00 SK= 0.00E+00
   4947 T=   307. E= -.10467088E+04 F= -.10553906E+04 E0= -.10553906E+04  EK= 0.86819E+01 SP= 0.00E+00 SK= 0.00E+00
   4948 T=   304. E= -.10467070E+04 F= -.10553012E+04 E0= -.10553012E+04  EK= 0.85941E+01 SP= 0.00E+00 SK= 0.00E+00
   4949 T=   302. E= -.10465966E+04 F= -.10551495E+04 E0= -.10551495E+04  EK= 0.85529E+01 SP= 0.00E+00 SK= 0.00E+00
   4950 T=   303. E= -.10463526E+04 F= -.10549402E+04 E0= -.10549402E+04  EK= 0.85876E+01 SP= 0.00E+00 SK= 0.00E+00
   4951 T=   304. E= -.10461891E+04 F= -.10547924E+04 E0= -.10547924E+04  EK= 0.86033E+01 SP= 0.00E+00 SK= 0.00E+00
   4952 T=   305. E= -.10461434E+04 F= -.10547669E+04 E0= -.10547669E+04  EK= 0.86235E+01 SP= 0.00E+00 SK= 0.00E+00
   4953 T=   301. E= -.10463012E+04 F= -.10548291E+04 E0= -.10548291E+04  EK= 0.85280E+01 SP= 0.00E+00 SK= 0.00E+00
   4954 T=   296. E= -.10464548E+04 F= -.10548333E+04 E0= -.10548333E+04  EK= 0.83785E+01 SP= 0.00E+00 SK= 0.00E+00
   4955 T=   288. E= -.10465793E+04 F= -.10547367E+04 E0= -.10547367E+04  EK= 0.81574E+01 SP= 0.00E+00 SK= 0.00E+00
   4956 T=   281. E= -.10466189E+04 F= -.10545767E+04 E0= -.10545767E+04  EK= 0.79579E+01 SP= 0.00E+00 SK= 0.00E+00
   4957 T=   275. E= -.10466240E+04 F= -.10544107E+04 E0= -.10544107E+04  EK= 0.77867E+01 SP= 0.00E+00 SK= 0.00E+00
   4958 T=   269. E= -.10467313E+04 F= -.10543393E+04 E0= -.10543393E+04  EK= 0.76081E+01 SP= 0.00E+00 SK= 0.00E+00
   4959 T=   267. E= -.10468132E+04 F= -.10543740E+04 E0= -.10543740E+04  EK= 0.75609E+01 SP= 0.00E+00 SK= 0.00E+00
   4960 T=   268. E= -.10468571E+04 F= -.10544483E+04 E0= -.10544483E+04  EK= 0.75912E+01 SP= 0.00E+00 SK= 0.00E+00
   4961 T=   271. E= -.10468971E+04 F= -.10545629E+04 E0= -.10545629E+04  EK= 0.76658E+01 SP= 0.00E+00 SK= 0.00E+00
   4962 T=   280. E= -.10468380E+04 F= -.10547760E+04 E0= -.10547760E+04  EK= 0.79380E+01 SP= 0.00E+00 SK= 0.00E+00
   4963 T=   289. E= -.10467437E+04 F= -.10549198E+04 E0= -.10549198E+04  EK= 0.81761E+01 SP= 0.00E+00 SK= 0.00E+00
   4964 T=   291. E= -.10467685E+04 F= -.10550175E+04 E0= -.10550175E+04  EK= 0.82490E+01 SP= 0.00E+00 SK= 0.00E+00
   4965 T=   291. E= -.10467766E+04 F= -.10550175E+04 E0= -.10550175E+04  EK= 0.82409E+01 SP= 0.00E+00 SK= 0.00E+00
   4966 T=   290. E= -.10467474E+04 F= -.10549648E+04 E0= -.10549648E+04  EK= 0.82175E+01 SP= 0.00E+00 SK= 0.00E+00
   4967 T=   291. E= -.10467456E+04 F= -.10549855E+04 E0= -.10549855E+04  EK= 0.82399E+01 SP= 0.00E+00 SK= 0.00E+00
   4968 T=   294. E= -.10467445E+04 F= -.10550684E+04 E0= -.10550684E+04  EK= 0.83239E+01 SP= 0.00E+00 SK= 0.00E+00
   4969 T=   294. E= -.10467979E+04 F= -.10551092E+04 E0= -.10551092E+04  EK= 0.83112E+01 SP= 0.00E+00 SK= 0.00E+00
   4970 T=   291. E= -.10468192E+04 F= -.10550497E+04 E0= -.10550497E+04  EK= 0.82305E+01 SP= 0.00E+00 SK= 0.00E+00
   4971 T=   288. E= -.10467871E+04 F= -.10549414E+04 E0= -.10549414E+04  EK= 0.81542E+01 SP= 0.00E+00 SK= 0.00E+00
   4972 T=   287. E= -.10467127E+04 F= -.10548355E+04 E0= -.10548355E+04  EK= 0.81228E+01 SP= 0.00E+00 SK= 0.00E+00
   4973 T=   289. E= -.10466252E+04 F= -.10548131E+04 E0= -.10548131E+04  EK= 0.81879E+01 SP= 0.00E+00 SK= 0.00E+00
   4974 T=   289. E= -.10466633E+04 F= -.10548422E+04 E0= -.10548422E+04  EK= 0.81788E+01 SP= 0.00E+00 SK= 0.00E+00
   4975 T=   290. E= -.10467528E+04 F= -.10549495E+04 E0= -.10549495E+04  EK= 0.81967E+01 SP= 0.00E+00 SK= 0.00E+00
   4976 T=   294. E= -.10467543E+04 F= -.10550718E+04 E0= -.10550718E+04  EK= 0.83175E+01 SP= 0.00E+00 SK= 0.00E+00
   4977 T=   298. E= -.10467395E+04 F= -.10551651E+04 E0= -.10551651E+04  EK= 0.84257E+01 SP= 0.00E+00 SK= 0.00E+00
   4978 T=   298. E= -.10467510E+04 F= -.10551915E+04 E0= -.10551915E+04  EK= 0.84406E+01 SP= 0.00E+00 SK= 0.00E+00
   4979 T=   293. E= -.10468395E+04 F= -.10551320E+04 E0= -.10551320E+04  EK= 0.82925E+01 SP= 0.00E+00 SK= 0.00E+00
   4980 T=   289. E= -.10468336E+04 F= -.10550014E+04 E0= -.10550014E+04  EK= 0.81679E+01 SP= 0.00E+00 SK= 0.00E+00
   4981 T=   289. E= -.10467420E+04 F= -.10549338E+04 E0= -.10549338E+04  EK= 0.81918E+01 SP= 0.00E+00 SK= 0.00E+00
   4982 T=   294. E= -.10466051E+04 F= -.10549380E+04 E0= -.10549380E+04  EK= 0.83329E+01 SP= 0.00E+00 SK= 0.00E+00
   4983 T=   299. E= -.10465132E+04 F= -.10549681E+04 E0= -.10549681E+04  EK= 0.84550E+01 SP= 0.00E+00 SK= 0.00E+00
   4984 T=   300. E= -.10464807E+04 F= -.10549844E+04 E0= -.10549844E+04  EK= 0.85037E+01 SP= 0.00E+00 SK= 0.00E+00
   4985 T=   301. E= -.10464312E+04 F= -.10549580E+04 E0= -.10549580E+04  EK= 0.85268E+01 SP= 0.00E+00 SK= 0.00E+00
   4986 T=   298. E= -.10464489E+04 F= -.10548956E+04 E0= -.10548956E+04  EK= 0.84467E+01 SP= 0.00E+00 SK= 0.00E+00
   4987 T=   295. E= -.10464320E+04 F= -.10547869E+04 E0= -.10547869E+04  EK= 0.83549E+01 SP= 0.00E+00 SK= 0.00E+00
   4988 T=   292. E= -.10464287E+04 F= -.10546887E+04 E0= -.10546887E+04  EK= 0.82600E+01 SP= 0.00E+00 SK= 0.00E+00
   4989 T=   290. E= -.10464571E+04 F= -.10546589E+04 E0= -.10546589E+04  EK= 0.82018E+01 SP= 0.00E+00 SK= 0.00E+00
   4990 T=   296. E= -.10463402E+04 F= -.10547067E+04 E0= -.10547067E+04  EK= 0.83666E+01 SP= 0.00E+00 SK= 0.00E+00
   4991 T=   296. E= -.10462591E+04 F= -.10546481E+04 E0= -.10546481E+04  EK= 0.83889E+01 SP= 0.00E+00 SK= 0.00E+00
   4992 T=   297. E= -.10461034E+04 F= -.10545018E+04 E0= -.10545018E+04  EK= 0.83984E+01 SP= 0.00E+00 SK= 0.00E+00
   4993 T=   296. E= -.10459333E+04 F= -.10543177E+04 E0= -.10543177E+04  EK= 0.83844E+01 SP= 0.00E+00 SK= 0.00E+00
   4994 T=   294. E= -.10458821E+04 F= -.10541932E+04 E0= -.10541932E+04  EK= 0.83112E+01 SP= 0.00E+00 SK= 0.00E+00
   4995 T=   294. E= -.10458615E+04 F= -.10541855E+04 E0= -.10541855E+04  EK= 0.83240E+01 SP= 0.00E+00 SK= 0.00E+00
   4996 T=   296. E= -.10458224E+04 F= -.10542128E+04 E0= -.10542128E+04  EK= 0.83905E+01 SP= 0.00E+00 SK= 0.00E+00
   4997 T=   296. E= -.10458093E+04 F= -.10541927E+04 E0= -.10541927E+04  EK= 0.83834E+01 SP= 0.00E+00 SK= 0.00E+00
   4998 T=   292. E= -.10458104E+04 F= -.10540740E+04 E0= -.10540740E+04  EK= 0.82635E+01 SP= 0.00E+00 SK= 0.00E+00
   4999 T=   289. E= -.10457171E+04 F= -.10539053E+04 E0= -.10539053E+04  EK= 0.81882E+01 SP= 0.00E+00 SK= 0.00E+00
   5000 T=   287. E= -.10456716E+04 F= -.10537901E+04 E0= -.10537901E+04  EK= 0.81185E+01 SP= 0.00E+00 SK= 0.00E+00
