H72 O36
1.0
  12.4716006000000004    0.0000000000000000    0.0000000000000008
  -6.2358002999999984   10.8007229454532485    0.0000000000000008
   0.0000000000000000    0.0000000000000000   12.1036126999999993
H O
144 72
direct
   0.0047916200000000    0.2221324700000000    0.3952835650000000 H+
   0.0047916200000000    0.2221324700000000    0.8952835649999999 H+
   0.9952083800000001    0.7778675300000001    0.1047164350000000 H+
   0.9952083800000001    0.7778675300000001    0.6047164349999999 H+
   0.7778675300000000    0.7826591500000000    0.3952835650000000 H+
   0.7778675300000000    0.7826591500000000    0.8952835650000001 H+
   0.2221324700000000    0.2173408500000000    0.1047164350000000 H+
   0.2221324700000000    0.2173408500000000    0.6047164349999999 H+
   0.2173408500000000    0.9952083800000000    0.3952835650000000 H+
   0.2173408500000000    0.9952083800000000    0.8952835650000001 H+
   0.7826591499999999    0.0047916200000000    0.1047164350000000 H+
   0.7826591499999999    0.0047916200000000    0.6047164349999999 H+
   0.6714582866666666    0.5554658033333333    0.0619502316666667 H+
   0.6714582866666666    0.5554658033333333    0.5619502316666666 H+
   0.6618750466666666    0.1112008633333333    0.2713831016666666 H+
   0.6618750466666666    0.1112008633333333    0.7713831016666666 H+
   0.4445341966666665    0.1159924833333333    0.0619502316666667 H+
   0.4445341966666665    0.1159924833333333    0.5619502316666667 H+
   0.8887991366666665    0.5506741833333333    0.2713831016666666 H+
   0.8887991366666665    0.5506741833333333    0.7713831016666666 H+
   0.8840075166666667    0.3285417133333334    0.0619502316666667 H+
   0.8840075166666667    0.3285417133333334    0.5619502316666666 H+
   0.4493258166666665    0.3381249533333334    0.2713831016666666 H+
   0.4493258166666665    0.3381249533333334    0.7713831016666666 H+
   0.3381249533333334    0.8887991366666668    0.2286168983333333 H+
   0.3381249533333334    0.8887991366666668    0.7286168983333332 H+
   0.3285417133333333    0.4445341966666666    0.4380497683333333 H+
   0.3285417133333333    0.4445341966666666    0.9380497683333331 H+
   0.1112008633333334    0.4493258166666667    0.2286168983333333 H+
   0.1112008633333334    0.4493258166666667    0.7286168983333332 H+
   0.5554658033333333    0.8840075166666668    0.4380497683333333 H+
   0.5554658033333333    0.8840075166666668    0.9380497683333332 H+
   0.5506741833333333    0.6618750466666666    0.2286168983333333 H+
   0.5506741833333333    0.6618750466666666    0.7286168983333332 H+
   0.1159924833333333    0.6714582866666666    0.4380497683333333 H+
   0.1159924833333333    0.6714582866666666    0.9380497683333331 H+
   0.0250806000000000    0.5974143400000000    0.1160132750000000 H+
   0.0250806000000000    0.5974143400000000    0.6160132749999999 H+
   0.9749194000000000    0.4025856600000000    0.3839867249999999 H+
   0.9749194000000000    0.4025856600000000    0.8839867249999999 H+
   0.4025856600000000    0.4276662600000000    0.1160132750000000 H+
   0.4025856600000000    0.4276662600000000    0.6160132749999999 H+
   0.5974143400000000    0.5723337400000000    0.3839867249999999 H+
   0.5974143400000000    0.5723337400000000    0.8839867249999999 H+
   0.5723337400000000    0.9749194000000001    0.1160132750000000 H+
   0.5723337400000000    0.9749194000000001    0.6160132750000000 H+
   0.4276662600000000    0.0250806000000000    0.3839867250000000 H+
   0.4276662600000000    0.0250806000000000    0.8839867250000000 H+
   0.6917472666666666    0.9307476733333334    0.2826799416666667 H+
   0.6917472666666666    0.9307476733333334    0.7826799416666667 H+
   0.6415860666666666    0.7359189933333333    0.0506533916666667 H+
   0.6415860666666666    0.7359189933333333    0.5506533916666666 H+
   0.0692523266666666    0.7609995933333333    0.2826799416666667 H+
   0.0692523266666666    0.7609995933333333    0.7826799416666665 H+
   0.2640810066666668    0.9056670733333334    0.0506533916666667 H+
   0.2640810066666668    0.9056670733333334    0.5506533916666666 H+
   0.2390004066666669    0.3082527333333333    0.2826799416666667 H+
   0.2390004066666669    0.3082527333333333    0.7826799416666665 H+
   0.0943329266666666    0.3584139333333333    0.0506533916666667 H+
   0.0943329266666666    0.3584139333333333    0.5506533916666666 H+
   0.3584139333333333    0.2640810066666668    0.4493466083333332 H+
   0.3584139333333333    0.2640810066666668    0.9493466083333333 H+
   0.3082527333333333    0.0692523266666666    0.2173200583333333 H+
   0.3082527333333333    0.0692523266666666    0.7173200583333332 H+
   0.7359189933333332    0.0943329266666666    0.4493466083333332 H+
   0.7359189933333332    0.0943329266666666    0.9493466083333333 H+
   0.9307476733333332    0.2390004066666669    0.2173200583333333 H+
   0.9307476733333332    0.2390004066666669    0.7173200583333333 H+
   0.9056670733333333    0.6415860666666667    0.4493466083333333 H+
   0.9056670733333333    0.6415860666666667    0.9493466083333333 H+
   0.7609995933333334    0.6917472666666667    0.2173200583333333 H+
   0.7609995933333334    0.6917472666666667    0.7173200583333333 H+
   0.0517020400000000    0.8511076000000001    0.4961099849999999 H+
   0.0517020400000000    0.8511076000000001    0.9961099849999999 H+
   0.9482979599999999    0.1488924000000001    0.0038900150000000 H+
   0.9482979599999999    0.1488924000000001    0.5038900150000000 H+
   0.1488924000000000    0.2005944400000001    0.4961099850000000 H+
   0.1488924000000000    0.2005944400000001    0.9961099849999999 H+
   0.8511075999999999    0.7994055600000000    0.0038900150000000 H+
   0.8511075999999999    0.7994055600000000    0.5038900150000000 H+
   0.7994055600000000    0.9482979600000001    0.4961099849999999 H+
   0.7994055600000000    0.9482979600000001    0.9961099849999999 H+
   0.2005944400000000    0.0517020400000000    0.0038900150000000 H+
   0.2005944400000000    0.0517020400000000    0.5038900150000000 H+
   0.7183687066666667    0.1844409333333332    0.1627766516666666 H+
   0.7183687066666667    0.1844409333333332    0.6627766516666667 H+
   0.6149646266666666    0.4822257333333334    0.1705566816666667 H+
   0.6149646266666666    0.4822257333333334    0.6705566816666666 H+
   0.8155590666666667    0.5339277733333333    0.1627766516666667 H+
   0.8155590666666667    0.5339277733333333    0.6627766516666665 H+
   0.5177742666666667    0.1327388933333333    0.1705566816666667 H+
   0.5177742666666667    0.1327388933333333    0.6705566816666666 H+
   0.4660722266666669    0.2816312933333334    0.1627766516666667 H+
   0.4660722266666669    0.2816312933333334    0.6627766516666667 H+
   0.8672611066666667    0.3850353733333334    0.1705566816666667 H+
   0.8672611066666667    0.3850353733333334    0.6705566816666666 H+
   0.3850353733333333    0.5177742666666667    0.3294433183333332 H+
   0.3850353733333333    0.5177742666666667    0.8294433183333332 H+
   0.2816312933333333    0.8155590666666667    0.3372233483333333 H+
   0.2816312933333333    0.8155590666666667    0.8372233483333333 H+
   0.4822257333333334    0.8672611066666668    0.3294433183333332 H+
   0.4822257333333334    0.8672611066666668    0.8294433183333332 H+
   0.1844409333333332    0.4660722266666668    0.3372233483333333 H+
   0.1844409333333332    0.4660722266666668    0.8372233483333331 H+
   0.1327388933333333    0.6149646266666666    0.3294433183333332 H+
   0.1327388933333333    0.6149646266666666    0.8294433183333332 H+
   0.5339277733333334    0.7183687066666666    0.3372233483333333 H+
   0.5339277733333334    0.7183687066666666    0.8372233483333332 H+
   0.1025364000000000    0.2144297500000000    0.2423430400000000 H+
   0.1025364000000000    0.2144297500000000    0.7423430400000000 H+
   0.8974636000000000    0.7855702500000000    0.2576569600000000 H+
   0.8974636000000000    0.7855702500000000    0.7576569599999999 H+
   0.7855702500000001    0.8881066500000001    0.2423430400000000 H+
   0.7855702500000001    0.8881066500000001    0.7423430400000001 H+
   0.2144297500000000    0.1118933500000000    0.2576569600000000 H+
   0.2144297500000000    0.1118933500000000    0.7576569600000000 H+
   0.1118933500000000    0.8974636000000001    0.2423430400000000 H+
   0.1118933500000000    0.8974636000000001    0.7423430400000000 H+
   0.8881066500000000    0.1025364000000000    0.2576569600000000 H+
   0.8881066500000000    0.1025364000000000    0.7576569599999999 H+
   0.7692030666666666    0.5477630833333333    0.4090097066666666 H+
   0.7692030666666666    0.5477630833333333    0.9090097066666666 H+
   0.5641302666666667    0.1189035833333333    0.4243236266666667 H+
   0.5641302666666667    0.1189035833333333    0.9243236266666666 H+
   0.4522369166666667    0.2214399833333333    0.4090097066666667 H+
   0.4522369166666667    0.2214399833333333    0.9090097066666667 H+
   0.8810964166666665    0.4452266833333334    0.4243236266666666 H+
   0.8810964166666665    0.4452266833333334    0.9243236266666666 H+
   0.7785600166666666    0.2307969333333333    0.4090097066666667 H+
   0.7785600166666666    0.2307969333333333    0.9090097066666666 H+
   0.5547733166666665    0.4358697333333333    0.4243236266666666 H+
   0.5547733166666665    0.4358697333333333    0.9243236266666666 H+
   0.4358697333333334    0.8810964166666667    0.0756763733333333 H+
   0.4358697333333334    0.8810964166666667    0.5756763733333333 H+
   0.2307969333333333    0.4522369166666667    0.0909902933333333 H+
   0.2307969333333333    0.4522369166666667    0.5909902933333333 H+
   0.1189035833333334    0.5547733166666667    0.0756763733333333 H+
   0.1189035833333334    0.5547733166666667    0.5756763733333332 H+
   0.5477630833333333    0.7785600166666666    0.0909902933333333 H+
   0.5477630833333333    0.7785600166666666    0.5909902933333333 H+
   0.4452266833333334    0.5641302666666668    0.0756763733333333 H+
   0.4452266833333334    0.5641302666666668    0.5756763733333333 H+
   0.2214399833333333    0.7692030666666666    0.0909902933333333 H+
   0.2214399833333333    0.7692030666666666    0.5909902933333333 H+
   0.0247874100000000    0.2201867100000000    0.4739925649999999 O2-
   0.0247874100000000    0.2201867100000000    0.9739925649999999 O2-
   0.9752125900000000    0.7798132900000000    0.0260074350000000 O2-
   0.9752125900000000    0.7798132900000000    0.5260074350000000 O2-
   0.7798132900000000    0.8046007000000001    0.4739925649999999 O2-
   0.7798132900000000    0.8046007000000001    0.9739925650000000 O2-
   0.2201867100000000    0.1953993000000000    0.0260074350000000 O2-
   0.2201867100000000    0.1953993000000000    0.5260074350000000 O2-
   0.1953993000000000    0.9752125900000000    0.4739925650000000 O2-
   0.1953993000000000    0.9752125900000000    0.9739925650000000 O2-
   0.8046006999999998    0.0247874100000000    0.0260074350000000 O2-
   0.8046006999999998    0.0247874100000000    0.5260074350000000 O2-
   0.6914540766666666    0.5535200433333334    0.1406592316666666 O2-
   0.6914540766666666    0.5535200433333334    0.6406592316666666 O2-
   0.6418792566666666    0.1131466233333333    0.1926741016666666 O2-
   0.6418792566666666    0.1131466233333333    0.6926741016666667 O2-
   0.4464799566666667    0.1379340333333333    0.1406592316666666 O2-
   0.4464799566666667    0.1379340333333333    0.6406592316666665 O2-
   0.8868533766666666    0.5287326333333334    0.1926741016666666 O2-
   0.8868533766666666    0.5287326333333334    0.6926741016666665 O2-
   0.8620659666666666    0.3085459233333334    0.1406592316666666 O2-
   0.8620659666666666    0.3085459233333334    0.6406592316666666 O2-
   0.4712673666666666    0.3581207433333334    0.1926741016666666 O2-
   0.4712673666666666    0.3581207433333334    0.6926741016666667 O2-
   0.3581207433333334    0.8868533766666667    0.3073258983333333 O2-
   0.3581207433333334    0.8868533766666667    0.8073258983333332 O2-
   0.3085459233333334    0.4464799566666667    0.3593407683333333 O2-
   0.3085459233333334    0.4464799566666667    0.8593407683333332 O2-
   0.1131466233333333    0.4712673666666667    0.3073258983333333 O2-
   0.1131466233333333    0.4712673666666667    0.8073258983333333 O2-
   0.5535200433333334    0.8620659666666667    0.3593407683333333 O2-
   0.5535200433333334    0.8620659666666667    0.8593407683333333 O2-
   0.5287326333333334    0.6418792566666667    0.3073258983333333 O2-
   0.5287326333333334    0.6418792566666667    0.8073258983333332 O2-
   0.1379340333333333    0.6914540766666666    0.3593407683333333 O2-
   0.1379340333333333    0.6914540766666666    0.8593407683333332 O2-
   0.0422354700000000    0.8109999800000000    0.2407135300000000 O2-
   0.0422354700000000    0.8109999800000000    0.7407135300000000 O2-
   0.9577645299999998    0.1890000200000000    0.2592864700000000 O2-
   0.9577645299999998    0.1890000200000000    0.7592864699999999 O2-
   0.1890000200000000    0.2312354900000000    0.2407135300000000 O2-
   0.1890000200000000    0.2312354900000000    0.7407135300000001 O2-
   0.8109999800000001    0.7687645100000001    0.2592864699999999 O2-
   0.8109999800000001    0.7687645100000001    0.7592864699999999 O2-
   0.7687645100000001    0.9577645300000001    0.2407135300000000 O2-
   0.7687645100000001    0.9577645300000001    0.7407135300000000 O2-
   0.2312354900000000    0.0422354700000000    0.2592864700000000 O2-
   0.2312354900000000    0.0422354700000000    0.7592864699999999 O2-
   0.7089021366666666    0.1443333133333333    0.4073801966666666 O2-
   0.7089021366666666    0.1443333133333333    0.9073801966666666 O2-
   0.6244311966666667    0.5223333533333334    0.4259531366666667 O2-
   0.6244311966666667    0.5223333533333334    0.9259531366666666 O2-
   0.8556666866666668    0.5645688233333335    0.4073801966666666 O2-
   0.8556666866666668    0.5645688233333335    0.9073801966666665 O2-
   0.4776666466666666    0.1020978433333333    0.4259531366666666 O2-
   0.4776666466666666    0.1020978433333333    0.9259531366666667 O2-
   0.4354311766666665    0.2910978633333333    0.4073801966666667 O2-
   0.4354311766666665    0.2910978633333333    0.9073801966666666 O2-
   0.8979021566666667    0.3755688033333333    0.4259531366666666 O2-
   0.8979021566666667    0.3755688033333333    0.9259531366666666 O2-
   0.3755688033333333    0.4776666466666666    0.0740468633333333 O2-
   0.3755688033333333    0.4776666466666666    0.5740468633333333 O2-
   0.2910978633333334    0.8556666866666668    0.0926198033333333 O2-
   0.2910978633333334    0.8556666866666668    0.5926198033333333 O2-
   0.5223333533333334    0.8979021566666667    0.0740468633333333 O2-
   0.5223333533333334    0.8979021566666667    0.5740468633333332 O2-
   0.1443333133333334    0.4354311766666666    0.0926198033333333 O2-
   0.1443333133333334    0.4354311766666666    0.5926198033333332 O2-
   0.1020978433333333    0.6244311966666667    0.0740468633333333 O2-
   0.1020978433333333    0.6244311966666667    0.5740468633333333 O2-
   0.5645688233333334    0.7089021366666667    0.0926198033333333 O2-
   0.5645688233333334    0.7089021366666667    0.5926198033333333 O2-
