       N       E                     dE             d eps       ncg     rms          rms(c)
DAV:   1     0.298270113872E+04    0.29827E+04   -0.21727E+05 12302   0.161E+03
DAV:   2    -0.423278277452E+03   -0.34060E+04   -0.32906E+04 15109   0.341E+02
DAV:   3    -0.759556949527E+03   -0.33628E+03   -0.33462E+03 14860   0.110E+02
DAV:   4    -0.765104716957E+03   -0.55478E+01   -0.55372E+01 14444   0.155E+01
DAV:   5    -0.765220948568E+03   -0.11623E+00   -0.11617E+00 14868   0.208E+00    0.488E+01
DAV:   6    -0.704388735423E+03    0.60832E+02   -0.21342E+02 14348   0.274E+01    0.181E+01
DAV:   7    -0.702910494999E+03    0.14782E+01   -0.88280E+00 14044   0.509E+00    0.115E+01
DAV:   8    -0.701954497256E+03    0.95600E+00   -0.22296E+00 14004   0.338E+00    0.156E+00
DAV:   9    -0.701906218319E+03    0.48279E-01   -0.24512E-01 13988   0.996E-01    0.599E-01
DAV:  10    -0.701889233786E+03    0.16985E-01   -0.56579E-02 12812   0.623E-01    0.170E-01
DAV:  11    -0.701882729143E+03    0.65046E-02   -0.76748E-03 13620   0.233E-01    0.808E-02
DAV:  12    -0.701882208082E+03    0.52106E-03   -0.13443E-03 12956   0.882E-02    0.238E-02
DAV:  13    -0.701882135111E+03    0.72972E-04   -0.11181E-04  9956   0.252E-02
      1 T=   198. E= -.70643554E+03 F= -.71011418E+03 E0= -.71011418E+03  EK= 0.36786E+01 SP= 0.00E+00 SK= 0.00E+00
      2 T=   193. E= -.70639802E+03 F= -.70998354E+03 E0= -.70998354E+03  EK= 0.35855E+01 SP= 0.00E+00 SK= 0.00E+00
       N       E                     dE             d eps       ncg     rms          rms(c)
DAV:   1    -0.701218719495E+03    0.66349E+00   -0.96215E+01 12346   0.224E+01
DAV:   2    -0.701462157890E+03   -0.24344E+00   -0.24343E+00 14308   0.329E+00
DAV:   3    -0.701464501626E+03   -0.23437E-02   -0.23437E-02 14612   0.314E-01
DAV:   4    -0.701464555689E+03   -0.54063E-04   -0.54063E-04 11748   0.466E-02    0.200E+00
DAV:   5    -0.701411724464E+03    0.52831E-01   -0.96032E-02 15572   0.995E-01    0.106E+00
DAV:   6    -0.701403393216E+03    0.83312E-02   -0.74136E-02 14676   0.750E-01    0.352E-01
DAV:   7    -0.701403374066E+03    0.19150E-04   -0.16354E-02 14108   0.392E-01    0.143E-01
DAV:   8    -0.701403052385E+03    0.32168E-03   -0.21865E-03 13996   0.148E-01    0.613E-02
DAV:   9    -0.701402821148E+03    0.23124E-03   -0.52584E-04 12604   0.669E-02    0.338E-02
DAV:  10    -0.701402709946E+03    0.11120E-03   -0.12477E-04 10132   0.555E-02    0.128E-02
DAV:  11    -0.701402675458E+03    0.34488E-04   -0.15169E-04  9596   0.422E-02
      3 T=   177. E= -.70633853E+03 F= -.70962996E+03 E0= -.70962996E+03  EK= 0.32914E+01 SP= 0.00E+00 SK= 0.00E+00
       N       E                     dE             d eps       ncg     rms          rms(c)
DAV:   1    -0.700994487693E+03    0.40822E+00   -0.21379E+01 12212   0.104E+01    0.956E-01
DAV:   2    -0.701034748030E+03   -0.40260E-01   -0.46591E-01 14300   0.147E+00    0.574E-01
DAV:   3    -0.701032035798E+03    0.27122E-02   -0.99311E-03 14812   0.265E-01    0.357E-01
DAV:   4    -0.701030818764E+03    0.12170E-02   -0.69207E-03 14372   0.238E-01    0.102E-01
DAV:   5    -0.701030810349E+03    0.84150E-05   -0.15917E-03 14596   0.110E-01    0.652E-02
DAV:   6    -0.701030753941E+03    0.56407E-04   -0.56920E-04 14092   0.604E-02
      4 T=   158. E= -.70631778E+03 F= -.70925375E+03 E0= -.70925375E+03  EK= 0.29360E+01 SP= 0.00E+00 SK= 0.00E+00
       N       E                     dE             d eps       ncg     rms          rms(c)
DAV:   1    -0.700760719253E+03    0.27009E+00   -0.19928E+01 12190   0.100E+01    0.934E-01
DAV:   2    -0.700796814745E+03   -0.36095E-01   -0.42023E-01 14180   0.138E+00    0.519E-01
DAV:   3    -0.700794733647E+03    0.20811E-02   -0.74396E-03 14788   0.225E-01    0.323E-01
DAV:   4    -0.700793852883E+03    0.88076E-03   -0.67537E-03 14244   0.232E-01    0.858E-02
DAV:   5    -0.700793855820E+03   -0.29370E-05   -0.14621E-03 14572   0.998E-02    0.660E-02
DAV:   6    -0.700793794494E+03    0.61326E-04   -0.49135E-04 13428   0.561E-02
      5 T=   143. E= -.70634307E+03 F= -.70901184E+03 E0= -.70901184E+03  EK= 0.26688E+01 SP= 0.00E+00 SK= 0.00E+00
       N       E                     dE             d eps       ncg     rms          rms(c)
DAV:   1    -0.700661531064E+03    0.13232E+00   -0.19185E+01 12192   0.982E+00    0.918E-01
DAV:   2    -0.700697214441E+03   -0.35683E-01   -0.41944E-01 14204   0.139E+00    0.522E-01
DAV:   3    -0.700694809238E+03    0.24052E-02   -0.71050E-03 14788   0.227E-01    0.326E-01
DAV:   4    -0.700693803517E+03    0.10057E-02   -0.72210E-03 14260   0.242E-01    0.864E-02
DAV:   5    -0.700693815666E+03   -0.12149E-04   -0.16055E-03 14580   0.104E-01    0.673E-02
DAV:   6    -0.700693749299E+03    0.66368E-04   -0.56847E-04 13572   0.615E-02
      6 T=   134. E= -.70640563E+03 F= -.70890708E+03 E0= -.70890708E+03  EK= 0.25015E+01 SP= 0.00E+00 SK= 0.00E+00
       N       E                     dE             d eps       ncg     rms          rms(c)
DAV:   1    -0.700642123898E+03    0.51692E-01   -0.18801E+01 12192   0.974E+00    0.920E-01
DAV:   2    -0.700679930219E+03   -0.37806E-01   -0.44663E-01 14380   0.144E+00    0.554E-01
DAV:   3    -0.700676959897E+03    0.29703E-02   -0.89722E-03 14836   0.257E-01    0.346E-01
DAV:   4    -0.700675647199E+03    0.13127E-02   -0.68365E-03 14236   0.233E-01    0.984E-02
DAV:   5    -0.700675631720E+03    0.15479E-04   -0.15789E-03 14700   0.113E-01    0.616E-02
DAV:   6    -0.700675576264E+03    0.55456E-04   -0.61389E-04 14052   0.657E-02
      7 T=   130. E= -.70645690E+03 F= -.70888483E+03 E0= -.70888483E+03  EK= 0.24279E+01 SP= 0.00E+00 SK= 0.00E+00
       N       E                     dE             d eps       ncg     rms          rms(c)
DAV:   1    -0.700609178911E+03    0.66453E-01   -0.19224E+01 12196   0.988E+00    0.919E-01
DAV:   2    -0.700650789920E+03   -0.41611E-01   -0.48759E-01 14508   0.151E+00    0.589E-01
DAV:   3    -0.700647144549E+03    0.36454E-02   -0.10596E-02 14876   0.281E-01    0.371E-01
DAV:   4    -0.700645330360E+03    0.18142E-02   -0.67113E-03 14252   0.238E-01    0.112E-01
DAV:   5    -0.700645250327E+03    0.80033E-04   -0.19398E-03 14668   0.133E-01    0.614E-02
DAV:   6    -0.700645172375E+03    0.77952E-04   -0.68045E-04 14116   0.715E-02
      8 T=   127. E= -.70647935E+03 F= -.70885134E+03 E0= -.70885134E+03  EK= 0.23720E+01 SP= 0.00E+00 SK= 0.00E+00
       N       E                     dE             d eps       ncg     rms          rms(c)
DAV:   1    -0.700514256548E+03    0.13099E+00   -0.19448E+01 12304   0.996E+00    0.917E-01
DAV:   2    -0.700559550890E+03   -0.45294E-01   -0.52309E-01 14628   0.157E+00    0.616E-01
DAV:   3    -0.700555492997E+03    0.40579E-02   -0.11749E-02 14908   0.295E-01    0.394E-01
DAV:   4    -0.700553339313E+03    0.21537E-02   -0.72686E-03 14268   0.243E-01    0.124E-01
DAV:   5    -0.700553185836E+03    0.15348E-03   -0.20594E-03 14916   0.142E-01    0.634E-02
DAV:   6    -0.700553099968E+03    0.85868E-04   -0.83860E-04 14164   0.817E-02
      9 T=   125. E= -.70643220E+03 F= -.70875760E+03 E0= -.70875760E+03  EK= 0.23254E+01 SP= 0.00E+00 SK= 0.00E+00
       N       E                     dE             d eps       ncg     rms          rms(c)
DAV:   1    -0.700338425249E+03    0.21476E+00   -0.18785E+01 12320   0.980E+00    0.887E-01
DAV:   2    -0.700382783065E+03   -0.44358E-01   -0.50413E-01 14644   0.154E+00    0.611E-01
DAV:   3    -0.700378808384E+03    0.39747E-02   -0.11475E-02 14908   0.293E-01    0.393E-01
DAV:   4    -0.700376655498E+03    0.21529E-02   -0.72287E-03 14252   0.241E-01    0.126E-01
DAV:   5    -0.700376483020E+03    0.17248E-03   -0.19983E-03 14780   0.139E-01    0.634E-02
DAV:   6    -0.700376391498E+03    0.91522E-04   -0.85419E-04 14180   0.834E-02
     10 T=   120. E= -.70634977E+03 F= -.70858079E+03 E0= -.70858079E+03  EK= 0.22310E+01 SP= 0.00E+00 SK= 0.00E+00
       N       E                     dE             d eps       ncg     rms          rms(c)
DAV:   1    -0.700110311335E+03    0.26617E+00   -0.17191E+01 12234   0.938E+00    0.851E-01
DAV:   2    -0.700149771167E+03   -0.39460E-01   -0.44930E-01 14556   0.145E+00    0.581E-01
DAV:   3    -0.700146273896E+03    0.34973E-02   -0.10545E-02 14884   0.278E-01    0.369E-01
DAV:   4    -0.700144503979E+03    0.17699E-02   -0.62223E-03 14204   0.220E-01    0.118E-01
DAV:   5    -0.700144361223E+03    0.14276E-03   -0.16173E-03 14796   0.125E-01    0.575E-02
DAV:   6    -0.700144289924E+03    0.71299E-04   -0.67922E-04 14148   0.736E-02
     11 T=   111. E= -.70628214E+03 F= -.70835021E+03 E0= -.70835021E+03  EK= 0.20681E+01 SP= 0.00E+00 SK= 0.00E+00
       N       E                     dE             d eps       ncg     rms          rms(c)
DAV:   1    -0.699912407681E+03    0.23195E+00   -0.14835E+01 12198   0.872E+00    0.809E-01
DAV:   2    -0.699944897424E+03   -0.32490E-01   -0.37455E-01 14452   0.132E+00    0.533E-01
DAV:   3    -0.699942136692E+03    0.27607E-02   -0.93938E-03 14868   0.262E-01    0.329E-01
DAV:   4    -0.699940970202E+03    0.11665E-02   -0.48285E-03 14172   0.188E-01    0.108E-01
DAV:   5    -0.699940877484E+03    0.92718E-04   -0.10787E-03 14644   0.103E-01    0.486E-02
DAV:   6    -0.699940839804E+03    0.37680E-04   -0.48577E-04 14164   0.606E-02
     12 T=   104. E= -.70621632E+03 F= -.70814962E+03 E0= -.70814962E+03  EK= 0.19333E+01 SP= 0.00E+00 SK= 0.00E+00
     13 T=    98. E= -.70618432E+03 F= -.70801022E+03 E0= -.70801022E+03  EK= 0.18259E+01 SP= 0.00E+00 SK= 0.00E+00
     14 T=    99. E= -.70615503E+03 F= -.70799857E+03 E0= -.70799857E+03  EK= 0.18435E+01 SP= 0.00E+00 SK= 0.00E+00
     15 T=   107. E= -.70610385E+03 F= -.70810251E+03 E0= -.70810251E+03  EK= 0.19987E+01 SP= 0.00E+00 SK= 0.00E+00
     16 T=   117. E= -.70606655E+03 F= -.70824354E+03 E0= -.70824354E+03  EK= 0.21770E+01 SP= 0.00E+00 SK= 0.00E+00
       N       E                     dE             d eps       ncg     rms          rms(c)
DAV:   1    -0.699580510496E+03    0.36037E+00   -0.28198E+02 12190   0.380E+01
DAV:   2    -0.700235316282E+03   -0.65481E+00   -0.65477E+00 14284   0.539E+00
DAV:   3    -0.700242060609E+03   -0.67443E-02   -0.67443E-02 14588   0.524E-01
DAV:   4    -0.700242227457E+03   -0.16685E-03   -0.16685E-03 14132   0.792E-02    0.337E+00
DAV:   5    -0.700098962749E+03    0.14326E+00   -0.31738E-01 14676   0.158E+00    0.175E+00
DAV:   6    -0.700083904171E+03    0.15059E-01   -0.16886E-01 14644   0.109E+00    0.666E-01
DAV:   7    -0.700083566528E+03    0.33764E-03   -0.32069E-02 13988   0.521E-01    0.226E-01
DAV:   8    -0.700082730658E+03    0.83587E-03   -0.43504E-03 14084   0.195E-01    0.103E-01
DAV:   9    -0.700081875996E+03    0.85466E-03   -0.14023E-03 13100   0.136E-01    0.453E-02
DAV:  10    -0.700081680328E+03    0.19567E-03   -0.50944E-04 14628   0.794E-02    0.348E-02
DAV:  11    -0.700081533295E+03    0.14703E-03   -0.19506E-04  9428   0.543E-02    0.158E-02
DAV:  12    -0.700081419914E+03    0.11338E-03   -0.62725E-05  9700   0.672E-02    0.159E-02
DAV:  13    -0.700081390203E+03    0.29711E-04   -0.13565E-04 10148   0.592E-02
     17 T=   125. E= -.70598989E+03 F= -.70830942E+03 E0= -.70830942E+03  EK= 0.23195E+01 SP= 0.00E+00 SK= 0.00E+00
     18 T=   124. E= -.70592156E+03 F= -.70822698E+03 E0= -.70822698E+03  EK= 0.23054E+01 SP= 0.00E+00 SK= 0.00E+00
     19 T=   115. E= -.70587879E+03 F= -.70802729E+03 E0= -.70802729E+03  EK= 0.21485E+01 SP= 0.00E+00 SK= 0.00E+00
     20 T=   107. E= -.70582749E+03 F= -.70782716E+03 E0= -.70782716E+03  EK= 0.19997E+01 SP= 0.00E+00 SK= 0.00E+00
       N       E                     dE             d eps       ncg     rms          rms(c)
DAV:   1    -0.699071522428E+03    0.10099E+01   -0.21235E+02 12230   0.333E+01
DAV:   2    -0.699643589821E+03   -0.57207E+00   -0.57204E+00 14332   0.501E+00
DAV:   3    -0.699649101010E+03   -0.55112E-02   -0.55111E-02 14612   0.484E-01
DAV:   4    -0.699649230568E+03   -0.12956E-03   -0.12956E-03 14164   0.712E-02    0.318E+00
DAV:   5    -0.699510183399E+03    0.13905E+00   -0.29281E-01 15596   0.166E+00    0.162E+00
DAV:   6    -0.699492245985E+03    0.17937E-01   -0.16432E-01 14588   0.104E+00    0.603E-01
DAV:   7    -0.699491414820E+03    0.83116E-03   -0.35061E-02 14900   0.605E-01    0.218E-01
DAV:   8    -0.699490745871E+03    0.66895E-03   -0.53900E-03 14468   0.217E-01    0.115E-01
DAV:   9    -0.699490027432E+03    0.71844E-03   -0.20111E-03 13828   0.126E-01    0.689E-02
DAV:  10    -0.699489649133E+03    0.37830E-03   -0.42689E-04 12452   0.104E-01    0.273E-02
DAV:  11    -0.699489517656E+03    0.13148E-03   -0.48654E-04 13404   0.794E-02    0.297E-02
DAV:  12    -0.699489435507E+03    0.82148E-04   -0.11176E-04  9804   0.457E-02
     21 T=   105. E= -.70576504E+03 F= -.70771597E+03 E0= -.70771597E+03  EK= 0.19509E+01 SP= 0.00E+00 SK= 0.00E+00
     22 T=   111. E= -.70568722E+03 F= -.70775160E+03 E0= -.70775160E+03  EK= 0.20644E+01 SP= 0.00E+00 SK= 0.00E+00
     23 T=   121. E= -.70562450E+03 F= -.70787889E+03 E0= -.70787889E+03  EK= 0.22544E+01 SP= 0.00E+00 SK= 0.00E+00
     24 T=   127. E= -.70560313E+03 F= -.70796050E+03 E0= -.70796050E+03  EK= 0.23574E+01 SP= 0.00E+00 SK= 0.00E+00
     25 T=   128. E= -.70557303E+03 F= -.70795374E+03 E0= -.70795374E+03  EK= 0.23807E+01 SP= 0.00E+00 SK= 0.00E+00
     26 T=   126. E= -.70552865E+03 F= -.70787391E+03 E0= -.70787391E+03  EK= 0.23453E+01 SP= 0.00E+00 SK= 0.00E+00
     27 T=   119. E= -.70554494E+03 F= -.70776855E+03 E0= -.70776855E+03  EK= 0.22236E+01 SP= 0.00E+00 SK= 0.00E+00
     28 T=   119. E= -.70553389E+03 F= -.70775115E+03 E0= -.70775115E+03  EK= 0.22173E+01 SP= 0.00E+00 SK= 0.00E+00
       N       E                     dE             d eps       ncg     rms          rms(c)
DAV:   1    -0.697967780625E+03    0.15217E+01   -0.79238E+02 12190   0.637E+01
DAV:   2    -0.700065078661E+03   -0.20973E+01   -0.20970E+01 14372   0.947E+00
DAV:   3    -0.700085939191E+03   -0.20861E-01   -0.20860E-01 14612   0.957E-01
DAV:   4    -0.700086442415E+03   -0.50322E-03   -0.50322E-03 14268   0.139E-01    0.554E+00
DAV:   5    -0.699676995803E+03    0.40945E+00   -0.73147E-01 15372   0.258E+00    0.294E+00
DAV:   6    -0.699610267732E+03    0.66728E-01   -0.55638E-01 14668   0.197E+00    0.951E-01
DAV:   7    -0.699611086952E+03   -0.81922E-03   -0.10943E-01 13868   0.942E-01    0.387E-01
DAV:   8    -0.699608722662E+03    0.23643E-02   -0.11431E-02 14164   0.309E-01    0.189E-01
DAV:   9    -0.699606816340E+03    0.19063E-02   -0.41358E-03 13692   0.193E-01    0.914E-02
DAV:  10    -0.699606037700E+03    0.77864E-03   -0.90413E-04 15836   0.132E-01    0.424E-02
DAV:  11    -0.699605749762E+03    0.28794E-03   -0.72390E-04 14012   0.946E-02    0.365E-02
DAV:  12    -0.699605550223E+03    0.19954E-03   -0.17353E-04 10260   0.730E-02    0.147E-02
DAV:  13    -0.699605495022E+03    0.55201E-04   -0.16141E-04  9772   0.550E-02
     29 T=   128. E= -.70544284E+03 F= -.70781619E+03 E0= -.70781619E+03  EK= 0.23734E+01 SP= 0.00E+00 SK= 0.00E+00
     30 T=   138. E= -.70536382E+03 F= -.70793120E+03 E0= -.70793120E+03  EK= 0.25674E+01 SP= 0.00E+00 SK= 0.00E+00
     31 T=   148. E= -.70529263E+03 F= -.70805017E+03 E0= -.70805017E+03  EK= 0.27575E+01 SP= 0.00E+00 SK= 0.00E+00
     32 T=   154. E= -.70523722E+03 F= -.70810265E+03 E0= -.70810265E+03  EK= 0.28654E+01 SP= 0.00E+00 SK= 0.00E+00
     33 T=   153. E= -.70522328E+03 F= -.70806861E+03 E0= -.70806861E+03  EK= 0.28453E+01 SP= 0.00E+00 SK= 0.00E+00
     34 T=   148. E= -.70521192E+03 F= -.70796959E+03 E0= -.70796959E+03  EK= 0.27577E+01 SP= 0.00E+00 SK= 0.00E+00
     35 T=   142. E= -.70520149E+03 F= -.70785372E+03 E0= -.70785372E+03  EK= 0.26522E+01 SP= 0.00E+00 SK= 0.00E+00
       N       E                     dE             d eps       ncg     rms          rms(c)
DAV:   1    -0.698233712716E+03    0.13718E+01   -0.69445E+02 12190   0.599E+01
DAV:   2    -0.699990055917E+03   -0.17563E+01   -0.17561E+01 14300   0.876E+00
DAV:   3    -0.700008279792E+03   -0.18224E-01   -0.18223E-01 14612   0.894E-01
DAV:   4    -0.700008707354E+03   -0.42756E-03   -0.42756E-03 14332   0.131E-01    0.548E+00
DAV:   5    -0.699613291468E+03    0.39542E+00   -0.83344E-01 14820   0.263E+00    0.285E+00
DAV:   6    -0.699564207752E+03    0.49084E-01   -0.48799E-01 14636   0.184E+00    0.102E+00
DAV:   7    -0.699564076289E+03    0.13146E-03   -0.10628E-01 14100   0.972E-01    0.384E-01
DAV:   8    -0.699561479003E+03    0.25973E-02   -0.13853E-02 14180   0.352E-01    0.191E-01
DAV:   9    -0.699559038819E+03    0.24402E-02   -0.46213E-03 13708   0.208E-01    0.849E-02
DAV:  10    -0.699558353503E+03    0.68532E-03   -0.11187E-03 15004   0.134E-01    0.526E-02
DAV:  11    -0.699557915810E+03    0.43769E-03   -0.75205E-04 13844   0.110E-01    0.370E-02
DAV:  12    -0.699557714338E+03    0.20147E-03   -0.23260E-04 10932   0.779E-02    0.268E-02
DAV:  13    -0.699557599930E+03    0.11441E-03   -0.19408E-04 10596   0.731E-02    0.151E-02
DAV:  14    -0.699557589314E+03    0.10616E-04   -0.13818E-04 10452   0.402E-02
     36 T=   140. E= -.70517506E+03 F= -.70779005E+03 E0= -.70779005E+03  EK= 0.26150E+01 SP= 0.00E+00 SK= 0.00E+00
     37 T=   142. E= -.70508835E+03 F= -.70773989E+03 E0= -.70773989E+03  EK= 0.26515E+01 SP= 0.00E+00 SK= 0.00E+00
     38 T=   143. E= -.70502465E+03 F= -.70769123E+03 E0= -.70769123E+03  EK= 0.26666E+01 SP= 0.00E+00 SK= 0.00E+00
     39 T=   143. E= -.70495745E+03 F= -.70762241E+03 E0= -.70762241E+03  EK= 0.26650E+01 SP= 0.00E+00 SK= 0.00E+00
     40 T=   139. E= -.70490761E+03 F= -.70749661E+03 E0= -.70749661E+03  EK= 0.25890E+01 SP= 0.00E+00 SK= 0.00E+00
       N       E                     dE             d eps       ncg     rms          rms(c)
DAV:   1    -0.698359645804E+03    0.11980E+01   -0.36118E+02 12224   0.435E+01
DAV:   2    -0.699362572946E+03   -0.10029E+01   -0.10029E+01 14380   0.664E+00
DAV:   3    -0.699372232127E+03   -0.96592E-02   -0.96590E-02 14628   0.649E-01
DAV:   4    -0.699372458402E+03   -0.22628E-03   -0.22627E-03 14260   0.952E-02    0.425E+00
DAV:   5    -0.699135518449E+03    0.23694E+00   -0.50592E-01 15620   0.228E+00    0.218E+00
DAV:   6    -0.699106630671E+03    0.28888E-01   -0.28274E-01 14628   0.147E+00    0.811E-01
DAV:   7    -0.699105653418E+03    0.97725E-03   -0.65284E-02 14708   0.809E-01    0.288E-01
DAV:   8    -0.699104063900E+03    0.15895E-02   -0.95080E-03 14892   0.309E-01    0.143E-01
DAV:   9    -0.699102540845E+03    0.15231E-02   -0.27852E-03 13892   0.176E-01    0.756E-02
DAV:  10    -0.699101904703E+03    0.63614E-03   -0.78756E-04 15324   0.131E-01    0.363E-02
DAV:  11    -0.699101533830E+03    0.37087E-03   -0.50247E-04 13828   0.113E-01    0.319E-02
DAV:  12    -0.699101362516E+03    0.17131E-03   -0.28395E-04 11916   0.862E-02    0.208E-02
DAV:  13    -0.699101291329E+03    0.71188E-04   -0.14144E-04  9948   0.649E-02
     41 T=   135. E= -.70480627E+03 F= -.70732691E+03 E0= -.70732691E+03  EK= 0.25206E+01 SP= 0.00E+00 SK= 0.00E+00
     42 T=   133. E= -.70474630E+03 F= -.70723001E+03 E0= -.70723001E+03  EK= 0.24837E+01 SP= 0.00E+00 SK= 0.00E+00
     43 T=   133. E= -.70473548E+03 F= -.70721413E+03 E0= -.70721413E+03  EK= 0.24786E+01 SP= 0.00E+00 SK= 0.00E+00
     44 T=   136. E= -.70475010E+03 F= -.70728283E+03 E0= -.70728283E+03  EK= 0.25327E+01 SP= 0.00E+00 SK= 0.00E+00
     45 T=   141. E= -.70475663E+03 F= -.70737664E+03 E0= -.70737664E+03  EK= 0.26200E+01 SP= 0.00E+00 SK= 0.00E+00
     46 T=   144. E= -.70476685E+03 F= -.70745186E+03 E0= -.70745186E+03  EK= 0.26850E+01 SP= 0.00E+00 SK= 0.00E+00
     47 T=   145. E= -.70479145E+03 F= -.70748669E+03 E0= -.70748669E+03  EK= 0.26952E+01 SP= 0.00E+00 SK= 0.00E+00
     48 T=   144. E= -.70479699E+03 F= -.70748502E+03 E0= -.70748502E+03  EK= 0.26880E+01 SP= 0.00E+00 SK= 0.00E+00
     49 T=   147. E= -.70473496E+03 F= -.70746604E+03 E0= -.70746604E+03  EK= 0.27311E+01 SP= 0.00E+00 SK= 0.00E+00
     50 T=   151. E= -.70467403E+03 F= -.70748460E+03 E0= -.70748460E+03  EK= 0.28106E+01 SP= 0.00E+00 SK= 0.00E+00
       N       E                     dE             d eps       ncg     rms          rms(c)
DAV:   1    -0.697128511042E+03    0.19729E+01   -0.10444E+03 12190   0.733E+01
DAV:   2    -0.699718565169E+03   -0.25901E+01   -0.25897E+01 14316   0.106E+01
DAV:   3    -0.699745985368E+03   -0.27420E-01   -0.27419E-01 14612   0.110E+00
DAV:   4    -0.699746641435E+03   -0.65607E-03   -0.65606E-03 14340   0.161E-01    0.650E+00
DAV:   5    -0.699335620451E+03    0.41102E+00   -0.87086E-01 15172   0.285E+00    0.349E+00
DAV:   6    -0.699294499663E+03    0.41121E-01   -0.62745E-01 14500   0.210E+00    0.111E+00
DAV:   7    -0.699298844560E+03   -0.43449E-02   -0.13811E-01 14644   0.115E+00    0.430E-01
DAV:   8    -0.699296564540E+03    0.22800E-02   -0.18788E-02 13756   0.390E-01    0.217E-01
DAV:   9    -0.699294727826E+03    0.18367E-02   -0.68968E-03 13708   0.207E-01    0.123E-01
DAV:  10    -0.699293745202E+03    0.98262E-03   -0.15166E-03 16124   0.172E-01    0.385E-02
DAV:  11    -0.699293540357E+03    0.20484E-03   -0.99147E-04 14212   0.944E-02    0.462E-02
DAV:  12    -0.699293343404E+03    0.19695E-03   -0.21281E-04 10364   0.585E-02    0.151E-02
DAV:  13    -0.699293283309E+03    0.60094E-04   -0.13313E-04  9660   0.502E-02
     51 T=   155. E= -.70462893E+03 F= -.70751372E+03 E0= -.70751372E+03  EK= 0.28848E+01 SP= 0.00E+00 SK= 0.00E+00
     52 T=   159. E= -.70465174E+03 F= -.70761803E+03 E0= -.70761803E+03  EK= 0.29663E+01 SP= 0.00E+00 SK= 0.00E+00
     53 T=   164. E= -.70462745E+03 F= -.70767773E+03 E0= -.70767773E+03  EK= 0.30503E+01 SP= 0.00E+00 SK= 0.00E+00
     54 T=   166. E= -.70457067E+03 F= -.70766603E+03 E0= -.70766603E+03  EK= 0.30954E+01 SP= 0.00E+00 SK= 0.00E+00
     55 T=   166. E= -.70447769E+03 F= -.70755975E+03 E0= -.70755975E+03  EK= 0.30821E+01 SP= 0.00E+00 SK= 0.00E+00
       N       E                     dE             d eps       ncg     rms          rms(c)
DAV:   1    -0.698351119426E+03    0.94222E+00   -0.41542E+02 12206   0.466E+01
DAV:   2    -0.699430162746E+03   -0.10790E+01   -0.10790E+01 14380   0.695E+00
DAV:   3    -0.699440978095E+03   -0.10815E-01   -0.10815E-01 14636   0.685E-01
DAV:   4    -0.699441231382E+03   -0.25329E-03   -0.25329E-03 14260   0.101E-01    0.463E+00
DAV:   5    -0.699141670104E+03    0.29956E+00   -0.67698E-01 15292   0.261E+00    0.230E+00
DAV:   6    -0.699115526261E+03    0.26144E-01   -0.35394E-01 14556   0.155E+00    0.935E-01
DAV:   7    -0.699114187489E+03    0.13388E-02   -0.73056E-02 14332   0.828E-01    0.327E-01
DAV:   8    -0.699112697891E+03    0.14896E-02   -0.10043E-02 14828   0.329E-01    0.154E-01
DAV:   9    -0.699111696967E+03    0.10009E-02   -0.43906E-03 13500   0.174E-01    0.939E-02
DAV:  10    -0.699111275048E+03    0.42192E-03   -0.66249E-04 14700   0.102E-01    0.405E-02
DAV:  11    -0.699111084044E+03    0.19100E-03   -0.49667E-04 13580   0.753E-02    0.252E-02
DAV:  12    -0.699111006394E+03    0.77649E-04   -0.10577E-04  9804   0.475E-02
     56 T=   160. E= -.70438037E+03 F= -.70735253E+03 E0= -.70735253E+03  EK= 0.29722E+01 SP= 0.00E+00 SK= 0.00E+00
     57 T=   153. E= -.70432344E+03 F= -.70717592E+03 E0= -.70717592E+03  EK= 0.28525E+01 SP= 0.00E+00 SK= 0.00E+00
     58 T=   150. E= -.70424351E+03 F= -.70703908E+03 E0= -.70703908E+03  EK= 0.27956E+01 SP= 0.00E+00 SK= 0.00E+00
     59 T=   148. E= -.70419390E+03 F= -.70695168E+03 E0= -.70695168E+03  EK= 0.27578E+01 SP= 0.00E+00 SK= 0.00E+00
     60 T=   147. E= -.70419456E+03 F= -.70693685E+03 E0= -.70693685E+03  EK= 0.27423E+01 SP= 0.00E+00 SK= 0.00E+00
     61 T=   149. E= -.70420208E+03 F= -.70697402E+03 E0= -.70697402E+03  EK= 0.27719E+01 SP= 0.00E+00 SK= 0.00E+00
     62 T=   150. E= -.70422788E+03 F= -.70702222E+03 E0= -.70702222E+03  EK= 0.27943E+01 SP= 0.00E+00 SK= 0.00E+00
     63 T=   151. E= -.70425932E+03 F= -.70707190E+03 E0= -.70707190E+03  EK= 0.28126E+01 SP= 0.00E+00 SK= 0.00E+00
     64 T=   152. E= -.70426028E+03 F= -.70708621E+03 E0= -.70708621E+03  EK= 0.28259E+01 SP= 0.00E+00 SK= 0.00E+00
     65 T=   151. E= -.70427097E+03 F= -.70707438E+03 E0= -.70707438E+03  EK= 0.28034E+01 SP= 0.00E+00 SK= 0.00E+00
       N       E                     dE             d eps       ncg     rms          rms(c)
DAV:   1    -0.696586185533E+03    0.25249E+01   -0.10412E+03 12190   0.727E+01
DAV:   2    -0.699217709992E+03   -0.26315E+01   -0.26311E+01 14292   0.105E+01
DAV:   3    -0.699245173746E+03   -0.27464E-01   -0.27463E-01 14628   0.110E+00
DAV:   4    -0.699245827767E+03   -0.65402E-03   -0.65401E-03 14300   0.161E-01    0.660E+00
DAV:   5    -0.698827957818E+03    0.41787E+00   -0.92807E-01 15132   0.294E+00    0.354E+00
DAV:   6    -0.698793007462E+03    0.34950E-01   -0.61571E-01 14716   0.225E+00    0.115E+00
DAV:   7    -0.698800006826E+03   -0.69994E-02   -0.13641E-01 14084   0.107E+00    0.438E-01
DAV:   8    -0.698797030402E+03    0.29764E-02   -0.14634E-02 14212   0.345E-01    0.210E-01
DAV:   9    -0.698794488204E+03    0.25422E-02   -0.39872E-03 13996   0.230E-01    0.895E-02
DAV:  10    -0.698793247306E+03    0.12409E-02   -0.12419E-03 16004   0.186E-01    0.453E-02
DAV:  11    -0.698792765875E+03    0.48143E-03   -0.11545E-03 14324   0.142E-01    0.461E-02
DAV:  12    -0.698792485876E+03    0.28000E-03   -0.47374E-04 12980   0.110E-01    0.278E-02
DAV:  13    -0.698792392339E+03    0.93537E-04   -0.18475E-04 10044   0.760E-02
     66 T=   147. E= -.70428320E+03 F= -.70701636E+03 E0= -.70701636E+03  EK= 0.27332E+01 SP= 0.00E+00 SK= 0.00E+00
     67 T=   147. E= -.70431533E+03 F= -.70706049E+03 E0= -.70706049E+03  EK= 0.27452E+01 SP= 0.00E+00 SK= 0.00E+00
     68 T=   150. E= -.70428589E+03 F= -.70707976E+03 E0= -.70707976E+03  EK= 0.27939E+01 SP= 0.00E+00 SK= 0.00E+00
     69 T=   150. E= -.70431938E+03 F= -.70710772E+03 E0= -.70710772E+03  EK= 0.27883E+01 SP= 0.00E+00 SK= 0.00E+00
     70 T=   153. E= -.70430312E+03 F= -.70715343E+03 E0= -.70715343E+03  EK= 0.28503E+01 SP= 0.00E+00 SK= 0.00E+00
     71 T=   159. E= -.70424954E+03 F= -.70720498E+03 E0= -.70720498E+03  EK= 0.29554E+01 SP= 0.00E+00 SK= 0.00E+00
     72 T=   164. E= -.70420249E+03 F= -.70726216E+03 E0= -.70726216E+03  EK= 0.30597E+01 SP= 0.00E+00 SK= 0.00E+00
     73 T=   168. E= -.70415804E+03 F= -.70728998E+03 E0= -.70728998E+03  EK= 0.31319E+01 SP= 0.00E+00 SK= 0.00E+00
     74 T=   171. E= -.70408871E+03 F= -.70727778E+03 E0= -.70727778E+03  EK= 0.31891E+01 SP= 0.00E+00 SK= 0.00E+00
     75 T=   172. E= -.70405895E+03 F= -.70725230E+03 E0= -.70725230E+03  EK= 0.31933E+01 SP= 0.00E+00 SK= 0.00E+00
       N       E                     dE             d eps       ncg     rms          rms(c)
DAV:   1    -0.696241697494E+03    0.25508E+01   -0.12958E+03 12190   0.812E+01
DAV:   2    -0.699471166103E+03   -0.32295E+01   -0.32289E+01 14236   0.117E+01
DAV:   3    -0.699505335172E+03   -0.34169E-01   -0.34168E-01 14628   0.123E+00
DAV:   4    -0.699506106385E+03   -0.77121E-03   -0.77120E-03 14300   0.178E-01    0.692E+00
DAV:   5    -0.699003667215E+03    0.50244E+00   -0.10694E+00 14500   0.297E+00    0.372E+00
DAV:   6    -0.698963275969E+03    0.40391E-01   -0.72577E-01 14548   0.213E+00    0.122E+00
DAV:   7    -0.698968060131E+03   -0.47842E-02   -0.13527E-01 13988   0.112E+00    0.428E-01
DAV:   8    -0.698966344525E+03    0.17156E-02   -0.18310E-02 13788   0.382E-01    0.217E-01
DAV:   9    -0.698964467477E+03    0.18770E-02   -0.65628E-03 13612   0.211E-01    0.112E-01
DAV:  10    -0.698963694057E+03    0.77342E-03   -0.98223E-04 15548   0.128E-01    0.515E-02
DAV:  11    -0.698963396658E+03    0.29740E-03   -0.91366E-04 13748   0.932E-02    0.379E-02
DAV:  12    -0.698963197154E+03    0.19950E-03   -0.14600E-04  9788   0.594E-02    0.148E-02
DAV:  13    -0.698963126297E+03    0.70857E-04   -0.17798E-04 10028   0.509E-02
     76 T=   170. E= -.70403671E+03 F= -.70720892E+03 E0= -.70720892E+03  EK= 0.31722E+01 SP= 0.00E+00 SK= 0.00E+00
     77 T=   171. E= -.70402571E+03 F= -.70720725E+03 E0= -.70720725E+03  EK= 0.31815E+01 SP= 0.00E+00 SK= 0.00E+00
     78 T=   174. E= -.70399629E+03 F= -.70723746E+03 E0= -.70723746E+03  EK= 0.32412E+01 SP= 0.00E+00 SK= 0.00E+00
     79 T=   178. E= -.70397734E+03 F= -.70728834E+03 E0= -.70728834E+03  EK= 0.33110E+01 SP= 0.00E+00 SK= 0.00E+00
     80 T=   180. E= -.70394659E+03 F= -.70730352E+03 E0= -.70730352E+03  EK= 0.33569E+01 SP= 0.00E+00 SK= 0.00E+00
     81 T=   184. E= -.70387074E+03 F= -.70728801E+03 E0= -.70728801E+03  EK= 0.34173E+01 SP= 0.00E+00 SK= 0.00E+00
       N       E                     dE             d eps       ncg     rms          rms(c)
DAV:   1    -0.697591099045E+03    0.13721E+01   -0.70985E+02 12190   0.603E+01
DAV:   2    -0.699407071359E+03   -0.18160E+01   -0.18158E+01 14316   0.886E+00
DAV:   3    -0.699425447611E+03   -0.18376E-01   -0.18376E-01 14636   0.899E-01
DAV:   4    -0.699425881775E+03   -0.43416E-03   -0.43416E-03 14332   0.132E-01    0.537E+00
DAV:   5    -0.699052816306E+03    0.37307E+00   -0.72993E-01 15908   0.276E+00    0.279E+00
DAV:   6    -0.699010431535E+03    0.42385E-01   -0.50226E-01 14636   0.190E+00    0.980E-01
DAV:   7    -0.699012887766E+03   -0.24562E-02   -0.97596E-02 14084   0.906E-01    0.350E-01
DAV:   8    -0.699011628284E+03    0.12595E-02   -0.97333E-03 14420   0.307E-01    0.176E-01
DAV:   9    -0.699010706277E+03    0.92201E-03   -0.46787E-03 13628   0.199E-01    0.103E-01
DAV:  10    -0.699010200418E+03    0.50586E-03   -0.10592E-03 15836   0.126E-01    0.317E-02
DAV:  11    -0.699010060328E+03    0.14009E-03   -0.42531E-04 13140   0.633E-02    0.240E-02
DAV:  12    -0.699009954775E+03    0.10555E-03   -0.59697E-05  9652   0.514E-02    0.108E-02
DAV:  13    -0.699009917657E+03    0.37118E-04   -0.10381E-04  9740   0.495E-02
     82 T=   185. E= -.70378233E+03 F= -.70723420E+03 E0= -.70723420E+03  EK= 0.34519E+01 SP= 0.00E+00 SK= 0.00E+00
     83 T=   185. E= -.70373585E+03 F= -.70718772E+03 E0= -.70718772E+03  EK= 0.34519E+01 SP= 0.00E+00 SK= 0.00E+00
     84 T=   188. E= -.70365304E+03 F= -.70716003E+03 E0= -.70716003E+03  EK= 0.35070E+01 SP= 0.00E+00 SK= 0.00E+00
     85 T=   190. E= -.70360671E+03 F= -.70714764E+03 E0= -.70714764E+03  EK= 0.35409E+01 SP= 0.00E+00 SK= 0.00E+00
     86 T=   188. E= -.70362031E+03 F= -.70711394E+03 E0= -.70711394E+03  EK= 0.34936E+01 SP= 0.00E+00 SK= 0.00E+00
     87 T=   186. E= -.70358503E+03 F= -.70705004E+03 E0= -.70705004E+03  EK= 0.34650E+01 SP= 0.00E+00 SK= 0.00E+00
       N       E                     dE             d eps       ncg     rms          rms(c)
DAV:   1    -0.697454860119E+03    0.15551E+01   -0.64650E+02 12190   0.578E+01
DAV:   2    -0.699068299173E+03   -0.16134E+01   -0.16133E+01 14396   0.842E+00
DAV:   3    -0.699084608156E+03   -0.16309E-01   -0.16309E-01 14628   0.845E-01
DAV:   4    -0.699084989149E+03   -0.38099E-03   -0.38099E-03 14308   0.125E-01    0.532E+00
DAV:   5    -0.698763800066E+03    0.32119E+00   -0.72968E-01 15676   0.271E+00    0.277E+00
DAV:   6    -0.698744139984E+03    0.19660E-01   -0.44011E-01 14516   0.167E+00    0.994E-01
DAV:   7    -0.698749298468E+03   -0.51585E-02   -0.82996E-02 14436   0.869E-01    0.329E-01
DAV:   8    -0.698748497347E+03    0.80112E-03   -0.10527E-02 14684   0.328E-01    0.158E-01
DAV:   9    -0.698748097188E+03    0.40016E-03   -0.44930E-03 13604   0.163E-01    0.104E-01
DAV:  10    -0.698747697470E+03    0.39972E-03   -0.10030E-03 15060   0.121E-01    0.246E-02
DAV:  11    -0.698747622404E+03    0.75067E-04   -0.35048E-04 12460   0.535E-02
     88 T=   187. E= -.70350013E+03 F= -.70697321E+03 E0= -.70697321E+03  EK= 0.34731E+01 SP= 0.00E+00 SK= 0.00E+00
     89 T=   187. E= -.70346216E+03 F= -.70694407E+03 E0= -.70694407E+03  EK= 0.34819E+01 SP= 0.00E+00 SK= 0.00E+00
     90 T=   186. E= -.70342981E+03 F= -.70689582E+03 E0= -.70689582E+03  EK= 0.34660E+01 SP= 0.00E+00 SK= 0.00E+00
     91 T=   183. E= -.70342589E+03 F= -.70683817E+03 E0= -.70683817E+03  EK= 0.34123E+01 SP= 0.00E+00 SK= 0.00E+00
     92 T=   181. E= -.70342530E+03 F= -.70679346E+03 E0= -.70679346E+03  EK= 0.33682E+01 SP= 0.00E+00 SK= 0.00E+00
     93 T=   181. E= -.70337692E+03 F= -.70674118E+03 E0= -.70674118E+03  EK= 0.33643E+01 SP= 0.00E+00 SK= 0.00E+00
     94 T=   180. E= -.70336704E+03 F= -.70670921E+03 E0= -.70670921E+03  EK= 0.33422E+01 SP= 0.00E+00 SK= 0.00E+00
     95 T=   177. E= -.70336302E+03 F= -.70666031E+03 E0= -.70666031E+03  EK= 0.32973E+01 SP= 0.00E+00 SK= 0.00E+00
     96 T=   176. E= -.70332431E+03 F= -.70660205E+03 E0= -.70660205E+03  EK= 0.32777E+01 SP= 0.00E+00 SK= 0.00E+00
     97 T=   173. E= -.70331094E+03 F= -.70653017E+03 E0= -.70653017E+03  EK= 0.32192E+01 SP= 0.00E+00 SK= 0.00E+00
       N       E                     dE             d eps       ncg     rms          rms(c)
DAV:   1    -0.694549475153E+03    0.41982E+01   -0.15787E+03 12190   0.891E+01
DAV:   2    -0.698787914272E+03   -0.42384E+01   -0.42376E+01 14196   0.133E+01
DAV:   3    -0.698832324061E+03   -0.44410E-01   -0.44408E-01 14628   0.139E+00
DAV:   4    -0.698833343363E+03   -0.10193E-02   -0.10193E-02 14260   0.200E-01    0.745E+00
DAV:   5    -0.698230070093E+03    0.60327E+00   -0.13353E+00 15708   0.363E+00    0.395E+00
DAV:   6    -0.698185647619E+03    0.44422E-01   -0.80797E-01 14652   0.240E+00    0.141E+00
DAV:   7    -0.698194186322E+03   -0.85387E-02   -0.16837E-01 14284   0.123E+00    0.463E-01
DAV:   8    -0.698191582238E+03    0.26041E-02   -0.20458E-02 14332   0.448E-01    0.230E-01
DAV:   9    -0.698189892710E+03    0.16895E-02   -0.88834E-03 13748   0.246E-01    0.136E-01
DAV:  10    -0.698189037598E+03    0.85511E-03   -0.17596E-03 16572   0.167E-01    0.492E-02
DAV:  11    -0.698188718253E+03    0.31935E-03   -0.94183E-04 13980   0.102E-01    0.419E-02
DAV:  12    -0.698188511031E+03    0.20722E-03   -0.15831E-04  9852   0.711E-02    0.220E-02
DAV:  13    -0.698188379212E+03    0.13182E-03   -0.18579E-04 10684   0.801E-02    0.169E-02
DAV:  14    -0.698188371506E+03    0.77057E-05   -0.16497E-04 10372   0.410E-02
     98 T=   167. E= -.70331062E+03 F= -.70642261E+03 E0= -.70642261E+03  EK= 0.31120E+01 SP= 0.00E+00 SK= 0.00E+00
     99 T=   164. E= -.70337035E+03 F= -.70642611E+03 E0= -.70642611E+03  EK= 0.30558E+01 SP= 0.00E+00 SK= 0.00E+00
       N       E                     dE             d eps       ncg     rms          rms(c)
DAV:   1    -0.697948724794E+03    0.23965E+00   -0.90525E+01 12254   0.215E+01
DAV:   2    -0.698180699873E+03   -0.23198E+00   -0.23197E+00 14436   0.321E+00
DAV:   3    -0.698182861739E+03   -0.21619E-02   -0.21619E-02 14628   0.299E-01
DAV:   4    -0.698182912695E+03   -0.50956E-04   -0.50955E-04 11532   0.448E-02    0.194E+00
DAV:   5    -0.698125773055E+03    0.57140E-01   -0.11040E-01 15356   0.106E+00    0.988E-01
DAV:   6    -0.698118316099E+03    0.74570E-02   -0.76934E-02 14684   0.724E-01    0.360E-01
DAV:   7    -0.698118003583E+03    0.31252E-03   -0.15834E-02 14116   0.389E-01    0.148E-01
DAV:   8    -0.698117668602E+03    0.33498E-03   -0.21190E-03 14356   0.149E-01    0.707E-02
DAV:   9    -0.698117391442E+03    0.27716E-03   -0.91982E-04 13564   0.869E-02    0.442E-02
DAV:  10    -0.698117259898E+03    0.13154E-03   -0.15102E-04 10348   0.573E-02    0.196E-02
DAV:  11    -0.698117214949E+03    0.44949E-04   -0.23624E-04 10956   0.493E-02
    100 T=   163. E= -.70330949E+03 F= -.70634826E+03 E0= -.70634826E+03  EK= 0.30388E+01 SP= 0.00E+00 SK= 0.00E+00
    101 T=   162. E= -.70336557E+03 F= -.70637226E+03 E0= -.70637226E+03  EK= 0.30067E+01 SP= 0.00E+00 SK= 0.00E+00
    102 T=   161. E= -.70336898E+03 F= -.70637409E+03 E0= -.70637409E+03  EK= 0.30051E+01 SP= 0.00E+00 SK= 0.00E+00
    103 T=   163. E= -.70336255E+03 F= -.70639297E+03 E0= -.70639297E+03  EK= 0.30304E+01 SP= 0.00E+00 SK= 0.00E+00
    104 T=   166. E= -.70332394E+03 F= -.70642228E+03 E0= -.70642228E+03  EK= 0.30983E+01 SP= 0.00E+00 SK= 0.00E+00
    105 T=   171. E= -.70328624E+03 F= -.70647751E+03 E0= -.70647751E+03  EK= 0.31913E+01 SP= 0.00E+00 SK= 0.00E+00
    106 T=   176. E= -.70323402E+03 F= -.70651656E+03 E0= -.70651656E+03  EK= 0.32825E+01 SP= 0.00E+00 SK= 0.00E+00
    107 T=   177. E= -.70320097E+03 F= -.70650452E+03 E0= -.70650452E+03  EK= 0.33035E+01 SP= 0.00E+00 SK= 0.00E+00
    108 T=   175. E= -.70320883E+03 F= -.70646958E+03 E0= -.70646958E+03  EK= 0.32607E+01 SP= 0.00E+00 SK= 0.00E+00
    109 T=   178. E= -.70315692E+03 F= -.70647354E+03 E0= -.70647354E+03  EK= 0.33166E+01 SP= 0.00E+00 SK= 0.00E+00
       N       E                     dE             d eps       ncg     rms          rms(c)
DAV:   1    -0.694716517166E+03    0.34007E+01   -0.14754E+03 12190   0.864E+01
DAV:   2    -0.698742445365E+03   -0.40259E+01   -0.40253E+01 14236   0.129E+01
DAV:   3    -0.698784459884E+03   -0.42015E-01   -0.42013E-01 14628   0.135E+00
DAV:   4    -0.698785438800E+03   -0.97892E-03   -0.97890E-03 14292   0.195E-01    0.711E+00
DAV:   5    -0.698247671907E+03    0.53777E+00   -0.11209E+00 15132   0.328E+00    0.381E+00
DAV:   6    -0.698188724406E+03    0.58948E-01   -0.74382E-01 14516   0.234E+00    0.128E+00
DAV:   7    -0.698193066538E+03   -0.43421E-02   -0.17174E-01 14516   0.125E+00    0.478E-01
DAV:   8    -0.698189101696E+03    0.39648E-02   -0.21676E-02 14604   0.455E-01    0.226E-01
DAV:   9    -0.698186190540E+03    0.29112E-02   -0.72317E-03 13836   0.241E-01    0.119E-01
DAV:  10    -0.698184993082E+03    0.11975E-02   -0.19154E-03 15964   0.178E-01    0.467E-02
DAV:  11    -0.698184514011E+03    0.47907E-03   -0.96474E-04 13972   0.109E-01    0.494E-02
DAV:  12    -0.698184132848E+03    0.38116E-03   -0.23209E-04 11092   0.937E-02    0.183E-02
DAV:  13    -0.698184002707E+03    0.13014E-03   -0.28966E-04 12332   0.851E-02    0.258E-02
DAV:  14    -0.698183994940E+03    0.77670E-05   -0.22628E-04 11116   0.429E-02
    110 T=   181. E= -.70306252E+03 F= -.70642831E+03 E0= -.70642831E+03  EK= 0.33658E+01 SP= 0.00E+00 SK= 0.00E+00
    111 T=   187. E= -.70317495E+03 F= -.70666113E+03 E0= -.70666113E+03  EK= 0.34862E+01 SP= 0.00E+00 SK= 0.00E+00
    112 T=   198. E= -.70312334E+03 F= -.70680950E+03 E0= -.70680950E+03  EK= 0.36862E+01 SP= 0.00E+00 SK= 0.00E+00
    113 T=   202. E= -.70313814E+03 F= -.70689940E+03 E0= -.70689940E+03  EK= 0.37613E+01 SP= 0.00E+00 SK= 0.00E+00
    114 T=   200. E= -.70318524E+03 F= -.70690005E+03 E0= -.70690005E+03  EK= 0.37148E+01 SP= 0.00E+00 SK= 0.00E+00
    115 T=   194. E= -.70320599E+03 F= -.70682237E+03 E0= -.70682237E+03  EK= 0.36164E+01 SP= 0.00E+00 SK= 0.00E+00
    116 T=   190. E= -.70317325E+03 F= -.70671160E+03 E0= -.70671160E+03  EK= 0.35383E+01 SP= 0.00E+00 SK= 0.00E+00
    117 T=   186. E= -.70316370E+03 F= -.70662273E+03 E0= -.70662273E+03  EK= 0.34590E+01 SP= 0.00E+00 SK= 0.00E+00
    118 T=   182. E= -.70323098E+03 F= -.70661435E+03 E0= -.70661435E+03  EK= 0.33834E+01 SP= 0.00E+00 SK= 0.00E+00
    119 T=   181. E= -.70330599E+03 F= -.70667017E+03 E0= -.70667017E+03  EK= 0.33642E+01 SP= 0.00E+00 SK= 0.00E+00
       N       E                     dE             d eps       ncg     rms          rms(c)
DAV:   1    -0.694730909006E+03    0.34531E+01   -0.15576E+03 12190   0.884E+01
DAV:   2    -0.699022046148E+03   -0.42911E+01   -0.42902E+01 14332   0.133E+01
DAV:   3    -0.699066074076E+03   -0.44028E-01   -0.44026E-01 14628   0.141E+00
DAV:   4    -0.699067069423E+03   -0.99535E-03   -0.99533E-03 14348   0.201E-01    0.756E+00
DAV:   5    -0.698516403394E+03    0.55067E+00   -0.10638E+00 15404   0.323E+00    0.415E+00
DAV:   6    -0.698460122603E+03    0.56281E-01   -0.90113E-01 14604   0.264E+00    0.120E+00
DAV:   7    -0.698472132481E+03   -0.12010E-01   -0.18667E-01 14228   0.119E+00    0.512E-01
DAV:   8    -0.698468694195E+03    0.34383E-02   -0.17617E-02 14060   0.362E-01    0.261E-01
DAV:   9    -0.698465751562E+03    0.29426E-02   -0.63917E-03 14020   0.268E-01    0.122E-01
DAV:  10    -0.698464085020E+03    0.16665E-02   -0.17421E-03 15748   0.200E-01    0.544E-02
DAV:  11    -0.698463476301E+03    0.60872E-03   -0.15079E-03 14364   0.145E-01    0.540E-02
DAV:  12    -0.698463071448E+03    0.40485E-03   -0.57219E-04 13236   0.110E-01    0.294E-02
DAV:  13    -0.698462926305E+03    0.14514E-03   -0.19656E-04  9876   0.781E-02    0.293E-02
DAV:  14    -0.698462908030E+03    0.18275E-04   -0.27593E-04 12308   0.526E-02
    120 T=   186. E= -.70323624E+03 F= -.70670341E+03 E0= -.70670341E+03  EK= 0.34672E+01 SP= 0.00E+00 SK= 0.00E+00
    121 T=   195. E= -.70323323E+03 F= -.70687010E+03 E0= -.70687010E+03  EK= 0.36369E+01 SP= 0.00E+00 SK= 0.00E+00
    122 T=   197. E= -.70321757E+03 F= -.70687653E+03 E0= -.70687653E+03  EK= 0.36590E+01 SP= 0.00E+00 SK= 0.00E+00
    123 T=   192. E= -.70323482E+03 F= -.70680010E+03 E0= -.70680010E+03  EK= 0.35653E+01 SP= 0.00E+00 SK= 0.00E+00
    124 T=   187. E= -.70317572E+03 F= -.70665148E+03 E0= -.70665148E+03  EK= 0.34758E+01 SP= 0.00E+00 SK= 0.00E+00
    125 T=   179. E= -.70316609E+03 F= -.70649910E+03 E0= -.70649910E+03  EK= 0.33330E+01 SP= 0.00E+00 SK= 0.00E+00
    126 T=   171. E= -.70322140E+03 F= -.70641089E+03 E0= -.70641089E+03  EK= 0.31895E+01 SP= 0.00E+00 SK= 0.00E+00
    127 T=   172. E= -.70320260E+03 F= -.70641168E+03 E0= -.70641168E+03  EK= 0.32091E+01 SP= 0.00E+00 SK= 0.00E+00
    128 T=   181. E= -.70312532E+03 F= -.70649274E+03 E0= -.70649274E+03  EK= 0.33674E+01 SP= 0.00E+00 SK= 0.00E+00
    129 T=   187. E= -.70311058E+03 F= -.70659722E+03 E0= -.70659722E+03  EK= 0.34866E+01 SP= 0.00E+00 SK= 0.00E+00
       N       E                     dE             d eps       ncg     rms          rms(c)
DAV:   1    -0.695237400423E+03    0.32255E+01   -0.15287E+03 12190   0.884E+01
DAV:   2    -0.698957256171E+03   -0.37199E+01   -0.37192E+01 14260   0.126E+01
DAV:   3    -0.698997107065E+03   -0.39851E-01   -0.39849E-01 14620   0.133E+00
DAV:   4    -0.698998042111E+03   -0.93505E-03   -0.93503E-03 14340   0.193E-01    0.741E+00
DAV:   5    -0.698415131093E+03    0.58291E+00   -0.10947E+00 15396   0.324E+00    0.403E+00
DAV:   6    -0.698343460336E+03    0.71671E-01   -0.92591E-01 14636   0.252E+00    0.121E+00
DAV:   7    -0.698346879727E+03   -0.34194E-02   -0.17822E-01 13900   0.125E+00    0.467E-01
DAV:   8    -0.698343254166E+03    0.36256E-02   -0.20073E-02 14084   0.408E-01    0.236E-01
DAV:   9    -0.698340516196E+03    0.27380E-02   -0.81211E-03 13612   0.248E-01    0.135E-01
DAV:  10    -0.698339192493E+03    0.13237E-02   -0.18706E-03 16308   0.178E-01    0.480E-02
DAV:  11    -0.698338769518E+03    0.42298E-03   -0.10564E-03 14092   0.102E-01    0.425E-02
DAV:  12    -0.698338461311E+03    0.30821E-03   -0.15970E-04 10116   0.717E-02    0.188E-02
DAV:  13    -0.698338352448E+03    0.10886E-03   -0.28663E-04 11692   0.727E-02    0.258E-02
DAV:  14    -0.698338337744E+03    0.14704E-04   -0.15076E-04 10340   0.397E-02
    130 T=   191. E= -.70301816E+03 F= -.70658126E+03 E0= -.70658126E+03  EK= 0.35631E+01 SP= 0.00E+00 SK= 0.00E+00
    131 T=   193. E= -.70304289E+03 F= -.70662972E+03 E0= -.70662972E+03  EK= 0.35868E+01 SP= 0.00E+00 SK= 0.00E+00
    132 T=   188. E= -.70300100E+03 F= -.70649796E+03 E0= -.70649796E+03  EK= 0.34970E+01 SP= 0.00E+00 SK= 0.00E+00
    133 T=   182. E= -.70297094E+03 F= -.70634994E+03 E0= -.70634994E+03  EK= 0.33790E+01 SP= 0.00E+00 SK= 0.00E+00
    134 T=   178. E= -.70294112E+03 F= -.70625488E+03 E0= -.70625488E+03  EK= 0.33138E+01 SP= 0.00E+00 SK= 0.00E+00
    135 T=   179. E= -.70294193E+03 F= -.70627219E+03 E0= -.70627219E+03  EK= 0.33303E+01 SP= 0.00E+00 SK= 0.00E+00
    136 T=   182. E= -.70296691E+03 F= -.70636068E+03 E0= -.70636068E+03  EK= 0.33938E+01 SP= 0.00E+00 SK= 0.00E+00
    137 T=   189. E= -.70295992E+03 F= -.70647937E+03 E0= -.70647937E+03  EK= 0.35195E+01 SP= 0.00E+00 SK= 0.00E+00
    138 T=   196. E= -.70290870E+03 F= -.70656454E+03 E0= -.70656454E+03  EK= 0.36558E+01 SP= 0.00E+00 SK= 0.00E+00
    139 T=   206. E= -.70279317E+03 F= -.70662211E+03 E0= -.70662211E+03  EK= 0.38289E+01 SP= 0.00E+00 SK= 0.00E+00
       N       E                     dE             d eps       ncg     rms          rms(c)
DAV:   1    -0.695460415695E+03    0.28779E+01   -0.13706E+03 12190   0.835E+01
DAV:   2    -0.698814300616E+03   -0.33539E+01   -0.33533E+01 14300   0.120E+01
DAV:   3    -0.698849908716E+03   -0.35608E-01   -0.35607E-01 14628   0.126E+00
DAV:   4    -0.698850744625E+03   -0.83591E-03   -0.83590E-03 14324   0.183E-01    0.719E+00
DAV:   5    -0.698393308819E+03    0.45744E+00   -0.94264E-01 15188   0.307E+00    0.396E+00
DAV:   6    -0.698357678139E+03    0.35631E-01   -0.81535E-01 14660   0.246E+00    0.117E+00
DAV:   7    -0.698361231085E+03   -0.35529E-02   -0.16309E-01 14236   0.123E+00    0.459E-01
DAV:   8    -0.698358021993E+03    0.32091E-02   -0.21075E-02 14252   0.388E-01    0.242E-01
DAV:   9    -0.698354813675E+03    0.32083E-02   -0.69993E-03 13884   0.264E-01    0.130E-01
DAV:  10    -0.698352827240E+03    0.19864E-02   -0.19362E-03 16052   0.224E-01    0.513E-02
DAV:  11    -0.698352311244E+03    0.51600E-03   -0.18959E-03 14612   0.149E-01    0.622E-02
DAV:  12    -0.698351931333E+03    0.37991E-03   -0.60877E-04 13932   0.930E-02    0.262E-02
DAV:  13    -0.698351736118E+03    0.19521E-03   -0.14082E-04  9900   0.907E-02    0.269E-02
DAV:  14    -0.698351726049E+03    0.10070E-04   -0.29753E-04 12516   0.523E-02
    140 T=   211. E= -.70265225E+03 F= -.70658496E+03 E0= -.70658496E+03  EK= 0.39327E+01 SP= 0.00E+00 SK= 0.00E+00
    141 T=   212. E= -.70269230E+03 F= -.70663977E+03 E0= -.70663977E+03  EK= 0.39475E+01 SP= 0.00E+00 SK= 0.00E+00
    142 T=   209. E= -.70268149E+03 F= -.70657648E+03 E0= -.70657648E+03  EK= 0.38950E+01 SP= 0.00E+00 SK= 0.00E+00
    143 T=   204. E= -.70269021E+03 F= -.70649164E+03 E0= -.70649164E+03  EK= 0.38014E+01 SP= 0.00E+00 SK= 0.00E+00
    144 T=   202. E= -.70269250E+03 F= -.70645763E+03 E0= -.70645763E+03  EK= 0.37651E+01 SP= 0.00E+00 SK= 0.00E+00
    145 T=   207. E= -.70265332E+03 F= -.70650452E+03 E0= -.70650452E+03  EK= 0.38512E+01 SP= 0.00E+00 SK= 0.00E+00
    146 T=   212. E= -.70261088E+03 F= -.70655829E+03 E0= -.70655829E+03  EK= 0.39474E+01 SP= 0.00E+00 SK= 0.00E+00
    147 T=   212. E= -.70260752E+03 F= -.70655435E+03 E0= -.70655435E+03  EK= 0.39468E+01 SP= 0.00E+00 SK= 0.00E+00
    148 T=   208. E= -.70259350E+03 F= -.70647159E+03 E0= -.70647159E+03  EK= 0.38781E+01 SP= 0.00E+00 SK= 0.00E+00
    149 T=   208. E= -.70250612E+03 F= -.70637420E+03 E0= -.70637420E+03  EK= 0.38681E+01 SP= 0.00E+00 SK= 0.00E+00
       N       E                     dE             d eps       ncg     rms          rms(c)
DAV:   1    -0.694541205656E+03    0.38105E+01   -0.16855E+03 12190   0.928E+01
DAV:   2    -0.698701154244E+03   -0.41599E+01   -0.41591E+01 14260   0.134E+01
DAV:   3    -0.698745379639E+03   -0.44225E-01   -0.44223E-01 14612   0.140E+00
DAV:   4    -0.698746398375E+03   -0.10187E-02   -0.10187E-02 14308   0.203E-01    0.795E+00
DAV:   5    -0.698075834879E+03    0.67056E+00   -0.14336E+00 14892   0.364E+00    0.425E+00
DAV:   6    -0.698019487931E+03    0.56347E-01   -0.94470E-01 14516   0.249E+00    0.142E+00
DAV:   7    -0.698029234831E+03   -0.97469E-02   -0.17401E-01 14108   0.122E+00    0.484E-01
DAV:   8    -0.698027314935E+03    0.19199E-02   -0.19152E-02 13940   0.400E-01    0.251E-01
DAV:   9    -0.698025789811E+03    0.15251E-02   -0.92463E-03 13556   0.250E-01    0.140E-01
DAV:  10    -0.698024943758E+03    0.84605E-03   -0.16158E-03 16300   0.155E-01    0.462E-02
DAV:  11    -0.698024731845E+03    0.21191E-03   -0.82780E-04 13740   0.814E-02    0.340E-02
DAV:  12    -0.698024569529E+03    0.16232E-03   -0.10011E-04  9620   0.518E-02    0.142E-02
DAV:  13    -0.698024512717E+03    0.56812E-04   -0.15921E-04  9940   0.475E-02
    150 T=   210. E= -.70237066E+03 F= -.70628054E+03 E0= -.70628054E+03  EK= 0.39099E+01 SP= 0.00E+00 SK= 0.00E+00
    151 T=   212. E= -.70229345E+03 F= -.70623732E+03 E0= -.70623732E+03  EK= 0.39439E+01 SP= 0.00E+00 SK= 0.00E+00
    152 T=   213. E= -.70226360E+03 F= -.70622701E+03 E0= -.70622701E+03  EK= 0.39634E+01 SP= 0.00E+00 SK= 0.00E+00
    153 T=   208. E= -.70234826E+03 F= -.70622870E+03 E0= -.70622870E+03  EK= 0.38804E+01 SP= 0.00E+00 SK= 0.00E+00
    154 T=   206. E= -.70241706E+03 F= -.70625494E+03 E0= -.70625494E+03  EK= 0.38379E+01 SP= 0.00E+00 SK= 0.00E+00
    155 T=   210. E= -.70238657E+03 F= -.70629108E+03 E0= -.70629108E+03  EK= 0.39045E+01 SP= 0.00E+00 SK= 0.00E+00
    156 T=   216. E= -.70232999E+03 F= -.70634128E+03 E0= -.70634128E+03  EK= 0.40113E+01 SP= 0.00E+00 SK= 0.00E+00
    157 T=   218. E= -.70234996E+03 F= -.70641474E+03 E0= -.70641474E+03  EK= 0.40648E+01 SP= 0.00E+00 SK= 0.00E+00
    158 T=   217. E= -.70242829E+03 F= -.70647346E+03 E0= -.70647346E+03  EK= 0.40452E+01 SP= 0.00E+00 SK= 0.00E+00
    159 T=   215. E= -.70246874E+03 F= -.70647568E+03 E0= -.70647568E+03  EK= 0.40069E+01 SP= 0.00E+00 SK= 0.00E+00
       N       E                     dE             d eps       ncg     rms          rms(c)
DAV:   1    -0.694714201084E+03    0.33104E+01   -0.15877E+03 12190   0.902E+01
DAV:   2    -0.698674620530E+03   -0.39604E+01   -0.39596E+01 14284   0.130E+01
DAV:   3    -0.698715945685E+03   -0.41325E-01   -0.41323E-01 14636   0.135E+00
DAV:   4    -0.698716898043E+03   -0.95236E-03   -0.95234E-03 14316   0.197E-01    0.782E+00
DAV:   5    -0.698173197122E+03    0.54370E+00   -0.10981E+00 15044   0.318E+00    0.430E+00
DAV:   6    -0.698119208332E+03    0.53989E-01   -0.93323E-01 14660   0.257E+00    0.122E+00
DAV:   7    -0.698126720218E+03   -0.75119E-02   -0.18857E-01 14124   0.130E+00    0.501E-01
DAV:   8    -0.698123116505E+03    0.36037E-02   -0.23353E-02 13948   0.423E-01    0.248E-01
DAV:   9    -0.698120222459E+03    0.28940E-02   -0.74908E-03 13884   0.248E-01    0.133E-01
DAV:  10    -0.698118418376E+03    0.18041E-02   -0.22859E-03 16076   0.228E-01    0.482E-02
DAV:  11    -0.698117995422E+03    0.42295E-03   -0.14726E-03 14620   0.119E-01    0.541E-02
DAV:  12    -0.698117615189E+03    0.38023E-03   -0.35264E-04 12636   0.758E-02    0.227E-02
DAV:  13    -0.698117462383E+03    0.15281E-03   -0.17807E-04 10300   0.842E-02    0.322E-02
DAV:  14    -0.698117447846E+03    0.14536E-04   -0.29839E-04 12780   0.527E-02
    160 T=   215. E= -.70236046E+03 F= -.70636462E+03 E0= -.70636462E+03  EK= 0.40042E+01 SP= 0.00E+00 SK= 0.00E+00
    161 T=   211. E= -.70242051E+03 F= -.70635223E+03 E0= -.70635223E+03  EK= 0.39317E+01 SP= 0.00E+00 SK= 0.00E+00
    162 T=   208. E= -.70246462E+03 F= -.70632759E+03 E0= -.70632759E+03  EK= 0.38630E+01 SP= 0.00E+00 SK= 0.00E+00
    163 T=   210. E= -.70248041E+03 F= -.70639148E+03 E0= -.70639148E+03  EK= 0.39111E+01 SP= 0.00E+00 SK= 0.00E+00
    164 T=   215. E= -.70251124E+03 F= -.70651174E+03 E0= -.70651174E+03  EK= 0.40005E+01 SP= 0.00E+00 SK= 0.00E+00
    165 T=   221. E= -.70249271E+03 F= -.70659925E+03 E0= -.70659925E+03  EK= 0.41065E+01 SP= 0.00E+00 SK= 0.00E+00
    166 T=   220. E= -.70249675E+03 F= -.70659374E+03 E0= -.70659374E+03  EK= 0.40970E+01 SP= 0.00E+00 SK= 0.00E+00
    167 T=   214. E= -.70252904E+03 F= -.70651709E+03 E0= -.70651709E+03  EK= 0.39881E+01 SP= 0.00E+00 SK= 0.00E+00
    168 T=   207. E= -.70256950E+03 F= -.70642740E+03 E0= -.70642740E+03  EK= 0.38579E+01 SP= 0.00E+00 SK= 0.00E+00
    169 T=   207. E= -.70253149E+03 F= -.70638635E+03 E0= -.70638635E+03  EK= 0.38549E+01 SP= 0.00E+00 SK= 0.00E+00
       N       E                     dE             d eps       ncg     rms          rms(c)
DAV:   1    -0.694567365537E+03    0.35501E+01   -0.16511E+03 12190   0.917E+01
DAV:   2    -0.698720845573E+03   -0.41535E+01   -0.41526E+01 14284   0.133E+01
DAV:   3    -0.698765163950E+03   -0.44318E-01   -0.44316E-01 14636   0.140E+00
DAV:   4    -0.698766213148E+03   -0.10492E-02   -0.10492E-02 14364   0.205E-01    0.795E+00
DAV:   5    -0.698185125055E+03    0.58109E+00   -0.10856E+00 14972   0.334E+00    0.439E+00
DAV:   6    -0.698128378678E+03    0.56746E-01   -0.10831E+00 14636   0.286E+00    0.123E+00
DAV:   7    -0.698134381778E+03   -0.60031E-02   -0.21350E-01 13860   0.134E+00    0.495E-01
DAV:   8    -0.698131115784E+03    0.32660E-02   -0.21436E-02 14228   0.416E-01    0.257E-01
DAV:   9    -0.698128542853E+03    0.25729E-02   -0.97951E-03 13772   0.295E-01    0.156E-01
DAV:  10    -0.698126988418E+03    0.15544E-02   -0.25683E-03 16380   0.209E-01    0.505E-02
DAV:  11    -0.698126525591E+03    0.46283E-03   -0.13383E-03 14172   0.123E-01    0.492E-02
DAV:  12    -0.698126180939E+03    0.34465E-03   -0.29743E-04 11444   0.852E-02    0.230E-02
DAV:  13    -0.698126008884E+03    0.17206E-03   -0.23940E-04 11188   0.885E-02    0.285E-02
DAV:  14    -0.698125989562E+03    0.19323E-04   -0.24129E-04 11564   0.522E-02
    170 T=   210. E= -.70247826E+03 F= -.70638037E+03 E0= -.70638037E+03  EK= 0.39021E+01 SP= 0.00E+00 SK= 0.00E+00
    171 T=   210. E= -.70252442E+03 F= -.70642510E+03 E0= -.70642510E+03  EK= 0.39007E+01 SP= 0.00E+00 SK= 0.00E+00
    172 T=   211. E= -.70251060E+03 F= -.70644570E+03 E0= -.70644570E+03  EK= 0.39351E+01 SP= 0.00E+00 SK= 0.00E+00
    173 T=   210. E= -.70251726E+03 F= -.70642219E+03 E0= -.70642219E+03  EK= 0.39049E+01 SP= 0.00E+00 SK= 0.00E+00
    174 T=   203. E= -.70256498E+03 F= -.70633637E+03 E0= -.70633637E+03  EK= 0.37714E+01 SP= 0.00E+00 SK= 0.00E+00
    175 T=   191. E= -.70264106E+03 F= -.70620456E+03 E0= -.70620456E+03  EK= 0.35635E+01 SP= 0.00E+00 SK= 0.00E+00
    176 T=   182. E= -.70269804E+03 F= -.70607670E+03 E0= -.70607670E+03  EK= 0.33787E+01 SP= 0.00E+00 SK= 0.00E+00
    177 T=   176. E= -.70269646E+03 F= -.70597790E+03 E0= -.70597790E+03  EK= 0.32814E+01 SP= 0.00E+00 SK= 0.00E+00
    178 T=   176. E= -.70265210E+03 F= -.70592267E+03 E0= -.70592267E+03  EK= 0.32706E+01 SP= 0.00E+00 SK= 0.00E+00
    179 T=   175. E= -.70263294E+03 F= -.70589647E+03 E0= -.70589647E+03  EK= 0.32635E+01 SP= 0.00E+00 SK= 0.00E+00
       N       E                     dE             d eps       ncg     rms          rms(c)
DAV:   1    -0.694094883033E+03    0.40311E+01   -0.16270E+03 12190   0.910E+01
DAV:   2    -0.698224602083E+03   -0.41297E+01   -0.41288E+01 14324   0.133E+01
DAV:   3    -0.698267104574E+03   -0.42502E-01   -0.42501E-01 14628   0.138E+00
DAV:   4    -0.698268064929E+03   -0.96035E-03   -0.96033E-03 14356   0.200E-01    0.780E+00
DAV:   5    -0.697642022064E+03    0.62604E+00   -0.12329E+00 15444   0.351E+00    0.423E+00
DAV:   6    -0.697585049256E+03    0.56973E-01   -0.99638E-01 14636   0.263E+00    0.130E+00
DAV:   7    -0.697593233780E+03   -0.81845E-02   -0.18720E-01 13996   0.131E+00    0.471E-01
DAV:   8    -0.697590422411E+03    0.28114E-02   -0.20961E-02 14220   0.437E-01    0.239E-01
DAV:   9    -0.697588301054E+03    0.21214E-02   -0.95408E-03 13852   0.275E-01    0.151E-01
DAV:  10    -0.697587023340E+03    0.12777E-02   -0.22717E-03 16988   0.198E-01    0.489E-02
DAV:  11    -0.697586605061E+03    0.41828E-03   -0.10979E-03 14044   0.115E-01    0.427E-02
DAV:  12    -0.697586260789E+03    0.34427E-03   -0.17073E-04 10604   0.920E-02    0.191E-02
DAV:  13    -0.697586121566E+03    0.13922E-03   -0.28892E-04 11708   0.933E-02    0.233E-02
DAV:  14    -0.697586115171E+03    0.63956E-05   -0.25828E-04 11620   0.499E-02
    180 T=   175. E= -.70259635E+03 F= -.70585469E+03 E0= -.70585469E+03  EK= 0.32583E+01 SP= 0.00E+00 SK= 0.00E+00
    181 T=   176. E= -.70269188E+03 F= -.70596210E+03 E0= -.70596210E+03  EK= 0.32702E+01 SP= 0.00E+00 SK= 0.00E+00
    182 T=   176. E= -.70275243E+03 F= -.70603714E+03 E0= -.70603714E+03  EK= 0.32847E+01 SP= 0.00E+00 SK= 0.00E+00
    183 T=   180. E= -.70272031E+03 F= -.70607285E+03 E0= -.70607285E+03  EK= 0.33525E+01 SP= 0.00E+00 SK= 0.00E+00
    184 T=   183. E= -.70264785E+03 F= -.70606005E+03 E0= -.70606005E+03  EK= 0.34122E+01 SP= 0.00E+00 SK= 0.00E+00
    185 T=   179. E= -.70265354E+03 F= -.70598618E+03 E0= -.70598618E+03  EK= 0.33326E+01 SP= 0.00E+00 SK= 0.00E+00
    186 T=   170. E= -.70270773E+03 F= -.70587678E+03 E0= -.70587678E+03  EK= 0.31691E+01 SP= 0.00E+00 SK= 0.00E+00
    187 T=   166. E= -.70273545E+03 F= -.70581854E+03 E0= -.70581854E+03  EK= 0.30831E+01 SP= 0.00E+00 SK= 0.00E+00
    188 T=   169. E= -.70271683E+03 F= -.70586455E+03 E0= -.70586455E+03  EK= 0.31477E+01 SP= 0.00E+00 SK= 0.00E+00
    189 T=   178. E= -.70270100E+03 F= -.70601414E+03 E0= -.70601414E+03  EK= 0.33131E+01 SP= 0.00E+00 SK= 0.00E+00
       N       E                     dE             d eps       ncg     rms          rms(c)
DAV:   1    -0.695104860706E+03    0.24813E+01   -0.13321E+03 12190   0.826E+01
DAV:   2    -0.698323066102E+03   -0.32182E+01   -0.32175E+01 14364   0.117E+01
DAV:   3    -0.698357685854E+03   -0.34620E-01   -0.34618E-01 14636   0.123E+00
DAV:   4    -0.698358508402E+03   -0.82255E-03   -0.82253E-03 14340   0.180E-01    0.718E+00
DAV:   5    -0.697885947849E+03    0.47256E+00   -0.91931E-01 15364   0.306E+00    0.393E+00
DAV:   6    -0.697844625949E+03    0.41322E-01   -0.78262E-01 14644   0.238E+00    0.116E+00
DAV:   7    -0.697850658659E+03   -0.60327E-02   -0.15217E-01 13932   0.117E+00    0.438E-01
DAV:   8    -0.697848166870E+03    0.24918E-02   -0.17684E-02 14276   0.395E-01    0.213E-01
DAV:   9    -0.697846215802E+03    0.19511E-02   -0.64608E-03 13772   0.232E-01    0.123E-01
DAV:  10    -0.697845097059E+03    0.11187E-02   -0.17091E-03 16556   0.183E-01    0.404E-02
DAV:  11    -0.697844771109E+03    0.32595E-03   -0.91278E-04 14108   0.103E-01    0.443E-02
DAV:  12    -0.697844482506E+03    0.28860E-03   -0.21119E-04 10812   0.767E-02    0.169E-02
DAV:  13    -0.697844385613E+03    0.96893E-04   -0.21149E-04 10420   0.763E-02
    190 T=   186. E= -.70267342E+03 F= -.70613232E+03 E0= -.70613232E+03  EK= 0.34589E+01 SP= 0.00E+00 SK= 0.00E+00
    191 T=   191. E= -.70272392E+03 F= -.70628274E+03 E0= -.70628274E+03  EK= 0.35588E+01 SP= 0.00E+00 SK= 0.00E+00
    192 T=   189. E= -.70276191E+03 F= -.70628889E+03 E0= -.70628889E+03  EK= 0.35270E+01 SP= 0.00E+00 SK= 0.00E+00
    193 T=   183. E= -.70280624E+03 F= -.70621364E+03 E0= -.70621364E+03  EK= 0.34074E+01 SP= 0.00E+00 SK= 0.00E+00
    194 T=   178. E= -.70278702E+03 F= -.70610084E+03 E0= -.70610084E+03  EK= 0.33138E+01 SP= 0.00E+00 SK= 0.00E+00
    195 T=   176. E= -.70275148E+03 F= -.70602863E+03 E0= -.70602863E+03  EK= 0.32771E+01 SP= 0.00E+00 SK= 0.00E+00
    196 T=   174. E= -.70278560E+03 F= -.70602722E+03 E0= -.70602722E+03  EK= 0.32416E+01 SP= 0.00E+00 SK= 0.00E+00
    197 T=   177. E= -.70281235E+03 F= -.70610774E+03 E0= -.70610774E+03  EK= 0.32954E+01 SP= 0.00E+00 SK= 0.00E+00
    198 T=   187. E= -.70275928E+03 F= -.70624067E+03 E0= -.70624067E+03  EK= 0.34814E+01 SP= 0.00E+00 SK= 0.00E+00
    199 T=   194. E= -.70275512E+03 F= -.70636467E+03 E0= -.70636467E+03  EK= 0.36096E+01 SP= 0.00E+00 SK= 0.00E+00
       N       E                     dE             d eps       ncg     rms          rms(c)
DAV:   1    -0.694910427473E+03    0.29341E+01   -0.14979E+03 12190   0.871E+01
DAV:   2    -0.698679179293E+03   -0.37688E+01   -0.37680E+01 14308   0.127E+01
DAV:   3    -0.698717250805E+03   -0.38072E-01   -0.38070E-01 14628   0.130E+00
DAV:   4    -0.698718102670E+03   -0.85187E-03   -0.85185E-03 14348   0.188E-01    0.749E+00
DAV:   5    -0.698146116801E+03    0.57199E+00   -0.11286E+00 15524   0.326E+00    0.404E+00
DAV:   6    -0.698091181750E+03    0.54935E-01   -0.88648E-01 14668   0.252E+00    0.122E+00
DAV:   7    -0.698100080310E+03   -0.88986E-02   -0.17317E-01 14012   0.117E+00    0.453E-01
DAV:   8    -0.698097151084E+03    0.29292E-02   -0.15268E-02 14236   0.385E-01    0.221E-01
DAV:   9    -0.698095298530E+03    0.18526E-02   -0.66267E-03 13740   0.241E-01    0.120E-01
DAV:  10    -0.698094380351E+03    0.91818E-03   -0.16845E-03 16452   0.160E-01    0.392E-02
DAV:  11    -0.698094056538E+03    0.32381E-03   -0.60600E-04 13900   0.877E-02    0.346E-02
DAV:  12    -0.698093798931E+03    0.25761E-03   -0.11956E-04  9756   0.805E-02    0.140E-02
DAV:  13    -0.698093721948E+03    0.76983E-04   -0.27149E-04 11524   0.782E-02
    200 T=   193. E= -.70280403E+03 F= -.70639091E+03 E0= -.70639091E+03  EK= 0.35869E+01 SP= 0.00E+00 SK= 0.00E+00
    201 T=   193. E= -.70286080E+03 F= -.70645050E+03 E0= -.70645050E+03  EK= 0.35897E+01 SP= 0.00E+00 SK= 0.00E+00
    202 T=   194. E= -.70284431E+03 F= -.70646276E+03 E0= -.70646276E+03  EK= 0.36185E+01 SP= 0.00E+00 SK= 0.00E+00
    203 T=   195. E= -.70286916E+03 F= -.70650744E+03 E0= -.70650744E+03  EK= 0.36383E+01 SP= 0.00E+00 SK= 0.00E+00
    204 T=   200. E= -.70285997E+03 F= -.70657583E+03 E0= -.70657583E+03  EK= 0.37159E+01 SP= 0.00E+00 SK= 0.00E+00
    205 T=   202. E= -.70288776E+03 F= -.70664419E+03 E0= -.70664419E+03  EK= 0.37564E+01 SP= 0.00E+00 SK= 0.00E+00
    206 T=   205. E= -.70288099E+03 F= -.70670280E+03 E0= -.70670280E+03  EK= 0.38218E+01 SP= 0.00E+00 SK= 0.00E+00
    207 T=   206. E= -.70288099E+03 F= -.70671264E+03 E0= -.70671264E+03  EK= 0.38317E+01 SP= 0.00E+00 SK= 0.00E+00
    208 T=   202. E= -.70292367E+03 F= -.70667440E+03 E0= -.70667440E+03  EK= 0.37507E+01 SP= 0.00E+00 SK= 0.00E+00
    209 T=   197. E= -.70292239E+03 F= -.70658745E+03 E0= -.70658745E+03  EK= 0.36651E+01 SP= 0.00E+00 SK= 0.00E+00
       N       E                     dE             d eps       ncg     rms          rms(c)
DAV:   1    -0.694778893231E+03    0.33149E+01   -0.15615E+03 12190   0.893E+01
DAV:   2    -0.698637116238E+03   -0.38582E+01   -0.38575E+01 14220   0.128E+01
DAV:   3    -0.698678591032E+03   -0.41475E-01   -0.41473E-01 14644   0.135E+00
DAV:   4    -0.698679580424E+03   -0.98939E-03   -0.98937E-03 14316   0.198E-01    0.763E+00
DAV:   5    -0.698180290766E+03    0.49929E+00   -0.10130E+00 15412   0.325E+00    0.419E+00
DAV:   6    -0.698144188078E+03    0.36103E-01   -0.88320E-01 14628   0.254E+00    0.122E+00
DAV:   7    -0.698151139904E+03   -0.69518E-02   -0.16665E-01 13972   0.120E+00    0.453E-01
DAV:   8    -0.698148254695E+03    0.28852E-02   -0.17675E-02 14140   0.373E-01    0.244E-01
DAV:   9    -0.698145754700E+03    0.25000E-02   -0.94457E-03 13772   0.283E-01    0.152E-01
DAV:  10    -0.698144366427E+03    0.13883E-02   -0.22998E-03 16556   0.194E-01    0.507E-02
DAV:  11    -0.698143956124E+03    0.41030E-03   -0.12280E-03 14052   0.111E-01    0.458E-02
DAV:  12    -0.698143643934E+03    0.31219E-03   -0.20110E-04 10284   0.749E-02    0.218E-02
DAV:  13    -0.698143529105E+03    0.11483E-03   -0.29824E-04 12284   0.716E-02    0.254E-02
DAV:  14    -0.698143515268E+03    0.13837E-04   -0.13484E-04 10292   0.374E-02
    210 T=   193. E= -.70284540E+03 F= -.70643509E+03 E0= -.70643509E+03  EK= 0.35897E+01 SP= 0.00E+00 SK= 0.00E+00
    211 T=   185. E= -.70297490E+03 F= -.70642325E+03 E0= -.70642325E+03  EK= 0.34483E+01 SP= 0.00E+00 SK= 0.00E+00
    212 T=   179. E= -.70307998E+03 F= -.70640413E+03 E0= -.70640413E+03  EK= 0.33241E+01 SP= 0.00E+00 SK= 0.00E+00
    213 T=   178. E= -.70310118E+03 F= -.70642313E+03 E0= -.70642313E+03  EK= 0.33220E+01 SP= 0.00E+00 SK= 0.00E+00
    214 T=   181. E= -.70310002E+03 F= -.70645989E+03 E0= -.70645989E+03  EK= 0.33599E+01 SP= 0.00E+00 SK= 0.00E+00
    215 T=   187. E= -.70301344E+03 F= -.70649348E+03 E0= -.70649348E+03  EK= 0.34800E+01 SP= 0.00E+00 SK= 0.00E+00
    216 T=   189. E= -.70297426E+03 F= -.70649911E+03 E0= -.70649911E+03  EK= 0.35249E+01 SP= 0.00E+00 SK= 0.00E+00
    217 T=   191. E= -.70295983E+03 F= -.70651173E+03 E0= -.70651173E+03  EK= 0.35519E+01 SP= 0.00E+00 SK= 0.00E+00
    218 T=   194. E= -.70292683E+03 F= -.70653536E+03 E0= -.70653536E+03  EK= 0.36085E+01 SP= 0.00E+00 SK= 0.00E+00
    219 T=   201. E= -.70285004E+03 F= -.70658257E+03 E0= -.70658257E+03  EK= 0.37325E+01 SP= 0.00E+00 SK= 0.00E+00
       N       E                     dE             d eps       ncg     rms          rms(c)
DAV:   1    -0.694942284345E+03    0.32012E+01   -0.15163E+03 12190   0.873E+01
DAV:   2    -0.698806408152E+03   -0.38641E+01   -0.38634E+01 14316   0.128E+01
DAV:   3    -0.698846098854E+03   -0.39691E-01   -0.39689E-01 14628   0.133E+00
DAV:   4    -0.698846985817E+03   -0.88696E-03   -0.88695E-03 14356   0.191E-01    0.746E+00
DAV:   5    -0.698355554628E+03    0.49143E+00   -0.10250E+00 14636   0.293E+00    0.409E+00
DAV:   6    -0.698324089098E+03    0.31466E-01   -0.84877E-01 14548   0.229E+00    0.117E+00
DAV:   7    -0.698333045508E+03   -0.89564E-02   -0.16877E-01 14052   0.127E+00    0.445E-01
DAV:   8    -0.698331098161E+03    0.19473E-02   -0.21577E-02 13988   0.458E-01    0.215E-01
DAV:   9    -0.698329691172E+03    0.14070E-02   -0.76310E-03 13892   0.226E-01    0.125E-01
DAV:  10    -0.698328951014E+03    0.74016E-03   -0.15519E-03 16612   0.154E-01    0.456E-02
DAV:  11    -0.698328743999E+03    0.20702E-03   -0.82747E-04 14068   0.848E-02    0.384E-02
DAV:  12    -0.698328531178E+03    0.21282E-03   -0.70294E-05  9724   0.641E-02    0.192E-02
DAV:  13    -0.698328425627E+03    0.10555E-03   -0.25527E-04 11332   0.795E-02    0.207E-02
DAV:  14    -0.698328419546E+03    0.60810E-05   -0.14679E-04 10356   0.367E-02
    220 T=   204. E= -.70280561E+03 F= -.70661057E+03 E0= -.70661057E+03  EK= 0.38050E+01 SP= 0.00E+00 SK= 0.00E+00
    221 T=   201. E= -.70292743E+03 F= -.70666662E+03 E0= -.70666662E+03  EK= 0.37392E+01 SP= 0.00E+00 SK= 0.00E+00
    222 T=   198. E= -.70294755E+03 F= -.70663986E+03 E0= -.70663986E+03  EK= 0.36923E+01 SP= 0.00E+00 SK= 0.00E+00
    223 T=   196. E= -.70291208E+03 F= -.70656474E+03 E0= -.70656474E+03  EK= 0.36527E+01 SP= 0.00E+00 SK= 0.00E+00
    224 T=   192. E= -.70289571E+03 F= -.70646356E+03 E0= -.70646356E+03  EK= 0.35678E+01 SP= 0.00E+00 SK= 0.00E+00
    225 T=   191. E= -.70286176E+03 F= -.70641227E+03 E0= -.70641227E+03  EK= 0.35505E+01 SP= 0.00E+00 SK= 0.00E+00
    226 T=   190. E= -.70285181E+03 F= -.70639265E+03 E0= -.70639265E+03  EK= 0.35408E+01 SP= 0.00E+00 SK= 0.00E+00
    227 T=   189. E= -.70287804E+03 F= -.70640037E+03 E0= -.70640037E+03  EK= 0.35223E+01 SP= 0.00E+00 SK= 0.00E+00
    228 T=   188. E= -.70289050E+03 F= -.70639295E+03 E0= -.70639295E+03  EK= 0.35025E+01 SP= 0.00E+00 SK= 0.00E+00
    229 T=   185. E= -.70289849E+03 F= -.70634095E+03 E0= -.70634095E+03  EK= 0.34425E+01 SP= 0.00E+00 SK= 0.00E+00
       N       E                     dE             d eps       ncg     rms          rms(c)
DAV:   1    -0.694168725060E+03    0.41597E+01   -0.16659E+03 12190   0.917E+01
DAV:   2    -0.698618565331E+03   -0.44498E+01   -0.44489E+01 14372   0.136E+01
DAV:   3    -0.698665367432E+03   -0.46802E-01   -0.46800E-01 14628   0.143E+00
DAV:   4    -0.698666439201E+03   -0.10718E-02   -0.10717E-02 14372   0.207E-01    0.770E+00
DAV:   5    -0.698090193392E+03    0.57625E+00   -0.10618E+00 15188   0.312E+00    0.422E+00
DAV:   6    -0.698029382251E+03    0.60811E-01   -0.99406E-01 14548   0.255E+00    0.116E+00
DAV:   7    -0.698037252277E+03   -0.78700E-02   -0.18163E-01 14004   0.126E+00    0.479E-01
DAV:   8    -0.698035353832E+03    0.18984E-02   -0.21027E-02 14092   0.384E-01    0.265E-01
DAV:   9    -0.698033229815E+03    0.21240E-02   -0.89800E-03 13828   0.271E-01    0.152E-01
DAV:  10    -0.698031825735E+03    0.14041E-02   -0.20264E-03 16220   0.197E-01    0.513E-02
DAV:  11    -0.698031541175E+03    0.28456E-03   -0.14301E-03 14516   0.110E-01    0.486E-02
DAV:  12    -0.698031247582E+03    0.29359E-03   -0.28287E-04 11620   0.708E-02    0.178E-02
DAV:  13    -0.698031152384E+03    0.95198E-04   -0.16399E-04 10036   0.600E-02
    230 T=   183. E= -.70289722E+03 F= -.70629944E+03 E0= -.70629944E+03  EK= 0.34022E+01 SP= 0.00E+00 SK= 0.00E+00
    231 T=   182. E= -.70296812E+03 F= -.70636252E+03 E0= -.70636252E+03  EK= 0.33944E+01 SP= 0.00E+00 SK= 0.00E+00
    232 T=   184. E= -.70298690E+03 F= -.70642070E+03 E0= -.70642070E+03  EK= 0.34338E+01 SP= 0.00E+00 SK= 0.00E+00
    233 T=   188. E= -.70298288E+03 F= -.70648341E+03 E0= -.70648341E+03  EK= 0.35005E+01 SP= 0.00E+00 SK= 0.00E+00
    234 T=   191. E= -.70297063E+03 F= -.70652815E+03 E0= -.70652815E+03  EK= 0.35575E+01 SP= 0.00E+00 SK= 0.00E+00
    235 T=   191. E= -.70297543E+03 F= -.70653650E+03 E0= -.70653650E+03  EK= 0.35611E+01 SP= 0.00E+00 SK= 0.00E+00
    236 T=   189. E= -.70300516E+03 F= -.70651759E+03 E0= -.70651759E+03  EK= 0.35124E+01 SP= 0.00E+00 SK= 0.00E+00
    237 T=   186. E= -.70302239E+03 F= -.70647926E+03 E0= -.70647926E+03  EK= 0.34569E+01 SP= 0.00E+00 SK= 0.00E+00
    238 T=   186. E= -.70298632E+03 F= -.70644767E+03 E0= -.70644767E+03  EK= 0.34614E+01 SP= 0.00E+00 SK= 0.00E+00
    239 T=   189. E= -.70292588E+03 F= -.70644391E+03 E0= -.70644391E+03  EK= 0.35180E+01 SP= 0.00E+00 SK= 0.00E+00
       N       E                     dE             d eps       ncg     rms          rms(c)
DAV:   1    -0.695028485709E+03    0.30028E+01   -0.15761E+03 12190   0.898E+01
DAV:   2    -0.698859631770E+03   -0.38311E+01   -0.38303E+01 14324   0.128E+01
DAV:   3    -0.698900546182E+03   -0.40914E-01   -0.40912E-01 14628   0.135E+00
DAV:   4    -0.698901504193E+03   -0.95801E-03   -0.95799E-03 14308   0.197E-01    0.780E+00
DAV:   5    -0.698250164007E+03    0.65134E+00   -0.13243E+00 15212   0.358E+00    0.418E+00
DAV:   6    -0.698194784337E+03    0.55380E-01   -0.98581E-01 14676   0.253E+00    0.135E+00
DAV:   7    -0.698204705200E+03   -0.99209E-02   -0.17846E-01 13868   0.127E+00    0.471E-01
DAV:   8    -0.698203074601E+03    0.16306E-02   -0.20754E-02 14292   0.443E-01    0.227E-01
DAV:   9    -0.698202051772E+03    0.10228E-02   -0.83344E-03 13596   0.230E-01    0.137E-01
DAV:  10    -0.698201336583E+03    0.71519E-03   -0.16591E-03 16580   0.157E-01    0.384E-02
DAV:  11    -0.698201186046E+03    0.15054E-03   -0.67002E-04 13868   0.731E-02    0.316E-02
DAV:  12    -0.698201052998E+03    0.13305E-03   -0.84590E-05  9676   0.488E-02    0.132E-02
DAV:  13    -0.698201009430E+03    0.43568E-04   -0.13105E-04  9724   0.435E-02
    240 T=   195. E= -.70284348E+03 F= -.70647548E+03 E0= -.70647548E+03  EK= 0.36320E+01 SP= 0.00E+00 SK= 0.00E+00
    241 T=   199. E= -.70282533E+03 F= -.70652725E+03 E0= -.70652725E+03  EK= 0.37019E+01 SP= 0.00E+00 SK= 0.00E+00
    242 T=   199. E= -.70283395E+03 F= -.70653078E+03 E0= -.70653078E+03  EK= 0.36968E+01 SP= 0.00E+00 SK= 0.00E+00
    243 T=   196. E= -.70283732E+03 F= -.70649159E+03 E0= -.70649159E+03  EK= 0.36543E+01 SP= 0.00E+00 SK= 0.00E+00
    244 T=   192. E= -.70283595E+03 F= -.70640465E+03 E0= -.70640465E+03  EK= 0.35687E+01 SP= 0.00E+00 SK= 0.00E+00
    245 T=   187. E= -.70285754E+03 F= -.70633298E+03 E0= -.70633298E+03  EK= 0.34754E+01 SP= 0.00E+00 SK= 0.00E+00
    246 T=   186. E= -.70286269E+03 F= -.70631787E+03 E0= -.70631787E+03  EK= 0.34552E+01 SP= 0.00E+00 SK= 0.00E+00
    247 T=   186. E= -.70292287E+03 F= -.70638712E+03 E0= -.70638712E+03  EK= 0.34643E+01 SP= 0.00E+00 SK= 0.00E+00
    248 T=   190. E= -.70295855E+03 F= -.70649956E+03 E0= -.70649956E+03  EK= 0.35410E+01 SP= 0.00E+00 SK= 0.00E+00
    249 T=   197. E= -.70290924E+03 F= -.70657473E+03 E0= -.70657473E+03  EK= 0.36655E+01 SP= 0.00E+00 SK= 0.00E+00
       N       E                     dE             d eps       ncg     rms          rms(c)
DAV:   1    -0.694917345254E+03    0.32837E+01   -0.15757E+03 12190   0.896E+01
DAV:   2    -0.698880196152E+03   -0.39629E+01   -0.39621E+01 14276   0.129E+01
DAV:   3    -0.698921451912E+03   -0.41256E-01   -0.41254E-01 14628   0.137E+00
DAV:   4    -0.698922378008E+03   -0.92610E-03   -0.92608E-03 14316   0.197E-01    0.763E+00
DAV:   5    -0.698402392481E+03    0.51999E+00   -0.10113E+00 14956   0.304E+00    0.420E+00
DAV:   6    -0.698353367013E+03    0.49025E-01   -0.88652E-01 14668   0.249E+00    0.117E+00
DAV:   7    -0.698360198555E+03   -0.68315E-02   -0.17786E-01 14220   0.130E+00    0.473E-01
DAV:   8    -0.698356945918E+03    0.32526E-02   -0.22712E-02 14204   0.407E-01    0.267E-01
DAV:   9    -0.698353378356E+03    0.35676E-02   -0.84116E-03 13876   0.275E-01    0.140E-01
DAV:  10    -0.698351318848E+03    0.20595E-02   -0.19265E-03 16068   0.233E-01    0.619E-02
DAV:  11    -0.698350605379E+03    0.71347E-03   -0.24854E-03 14396   0.184E-01    0.692E-02
DAV:  12    -0.698350111402E+03    0.49398E-03   -0.85677E-04 14292   0.114E-01    0.279E-02
DAV:  13    -0.698349963855E+03    0.14755E-03   -0.22854E-04 10588   0.796E-02    0.369E-02
DAV:  14    -0.698349932217E+03    0.31638E-04   -0.27222E-04 11820   0.586E-02
    250 T=   205. E= -.70281356E+03 F= -.70662013E+03 E0= -.70662013E+03  EK= 0.38066E+01 SP= 0.00E+00 SK= 0.00E+00
    251 T=   210. E= -.70276295E+03 F= -.70667530E+03 E0= -.70667530E+03  EK= 0.39124E+01 SP= 0.00E+00 SK= 0.00E+00
    252 T=   209. E= -.70277112E+03 F= -.70666155E+03 E0= -.70666155E+03  EK= 0.38904E+01 SP= 0.00E+00 SK= 0.00E+00
    253 T=   205. E= -.70278686E+03 F= -.70659863E+03 E0= -.70659863E+03  EK= 0.38118E+01 SP= 0.00E+00 SK= 0.00E+00
    254 T=   200. E= -.70278918E+03 F= -.70651687E+03 E0= -.70651687E+03  EK= 0.37277E+01 SP= 0.00E+00 SK= 0.00E+00
    255 T=   197. E= -.70279054E+03 F= -.70646436E+03 E0= -.70646436E+03  EK= 0.36738E+01 SP= 0.00E+00 SK= 0.00E+00
    256 T=   195. E= -.70278265E+03 F= -.70641726E+03 E0= -.70641726E+03  EK= 0.36346E+01 SP= 0.00E+00 SK= 0.00E+00
    257 T=   195. E= -.70274882E+03 F= -.70638625E+03 E0= -.70638625E+03  EK= 0.36374E+01 SP= 0.00E+00 SK= 0.00E+00
    258 T=   194. E= -.70273193E+03 F= -.70633913E+03 E0= -.70633913E+03  EK= 0.36072E+01 SP= 0.00E+00 SK= 0.00E+00
    259 T=   193. E= -.70272091E+03 F= -.70630495E+03 E0= -.70630495E+03  EK= 0.35840E+01 SP= 0.00E+00 SK= 0.00E+00
       N       E                     dE             d eps       ncg     rms          rms(c)
DAV:   1    -0.694639318044E+03    0.37106E+01   -0.14909E+03 12190   0.870E+01
DAV:   2    -0.698384616828E+03   -0.37453E+01   -0.37446E+01 14348   0.126E+01
DAV:   3    -0.698424182701E+03   -0.39566E-01   -0.39564E-01 14628   0.133E+00
DAV:   4    -0.698425096230E+03   -0.91353E-03   -0.91351E-03 14364   0.193E-01    0.743E+00
DAV:   5    -0.698003909888E+03    0.42119E+00   -0.81415E-01 14740   0.288E+00    0.418E+00
DAV:   6    -0.697976083559E+03    0.27826E-01   -0.87935E-01 14676   0.268E+00    0.109E+00
DAV:   7    -0.697981711176E+03   -0.56276E-02   -0.19478E-01 14308   0.136E+00    0.473E-01
DAV:   8    -0.697978669777E+03    0.30414E-02   -0.25030E-02 14300   0.414E-01    0.251E-01
DAV:   9    -0.697975648912E+03    0.30209E-02   -0.75085E-03 14044   0.263E-01    0.138E-01
DAV:  10    -0.697973601302E+03    0.20476E-02   -0.18944E-03 16260   0.249E-01    0.577E-02
DAV:  11    -0.697972969074E+03    0.63223E-03   -0.24932E-03 14708   0.187E-01    0.715E-02
DAV:  12    -0.697972512837E+03    0.45624E-03   -0.96406E-04 14180   0.113E-01    0.321E-02
DAV:  13    -0.697972302139E+03    0.21070E-03   -0.17268E-04 10508   0.100E-01    0.340E-02
DAV:  14    -0.697972286621E+03    0.15519E-04   -0.37225E-04 13452   0.614E-02
    260 T=   194. E= -.70262785E+03 F= -.70623984E+03 E0= -.70623984E+03  EK= 0.36120E+01 SP= 0.00E+00 SK= 0.00E+00
    261 T=   195. E= -.70265657E+03 F= -.70628707E+03 E0= -.70628707E+03  EK= 0.36305E+01 SP= 0.00E+00 SK= 0.00E+00
    262 T=   197. E= -.70263387E+03 F= -.70630494E+03 E0= -.70630494E+03  EK= 0.36711E+01 SP= 0.00E+00 SK= 0.00E+00
    263 T=   198. E= -.70261090E+03 F= -.70629246E+03 E0= -.70629246E+03  EK= 0.36816E+01 SP= 0.00E+00 SK= 0.00E+00
    264 T=   193. E= -.70264798E+03 F= -.70624276E+03 E0= -.70624276E+03  EK= 0.35948E+01 SP= 0.00E+00 SK= 0.00E+00
    265 T=   190. E= -.70263890E+03 F= -.70616661E+03 E0= -.70616661E+03  EK= 0.35277E+01 SP= 0.00E+00 SK= 0.00E+00
    266 T=   189. E= -.70260986E+03 F= -.70612756E+03 E0= -.70612756E+03  EK= 0.35177E+01 SP= 0.00E+00 SK= 0.00E+00
    267 T=   193. E= -.70258769E+03 F= -.70618037E+03 E0= -.70618037E+03  EK= 0.35927E+01 SP= 0.00E+00 SK= 0.00E+00
    268 T=   199. E= -.70258360E+03 F= -.70628427E+03 E0= -.70628427E+03  EK= 0.37007E+01 SP= 0.00E+00 SK= 0.00E+00
    269 T=   200. E= -.70263893E+03 F= -.70636433E+03 E0= -.70636433E+03  EK= 0.37254E+01 SP= 0.00E+00 SK= 0.00E+00
       N       E                     dE             d eps       ncg     rms          rms(c)
DAV:   1    -0.694125664378E+03    0.38466E+01   -0.16920E+03 12190   0.922E+01
DAV:   2    -0.698700589434E+03   -0.45749E+01   -0.45739E+01 14332   0.138E+01
DAV:   3    -0.698747611971E+03   -0.47023E-01   -0.47020E-01 14628   0.143E+00
DAV:   4    -0.698748672208E+03   -0.10602E-02   -0.10602E-02 14388   0.206E-01    0.765E+00
DAV:   5    -0.698173963272E+03    0.57471E+00   -0.11563E+00 14884   0.321E+00    0.413E+00
DAV:   6    -0.698119162236E+03    0.54801E-01   -0.89711E-01 14636   0.250E+00    0.124E+00
DAV:   7    -0.698127379891E+03   -0.82177E-02   -0.17517E-01 14132   0.125E+00    0.473E-01
DAV:   8    -0.698124774284E+03    0.26056E-02   -0.20984E-02 14300   0.415E-01    0.242E-01
DAV:   9    -0.698122181262E+03    0.25930E-02   -0.69073E-03 13932   0.263E-01    0.123E-01
DAV:  10    -0.698120855976E+03    0.13253E-02   -0.16878E-03 16228   0.203E-01    0.532E-02
DAV:  11    -0.698120362088E+03    0.49389E-03   -0.14573E-03 14316   0.146E-01    0.526E-02
DAV:  12    -0.698119937954E+03    0.42413E-03   -0.34421E-04 11956   0.119E-01    0.201E-02
DAV:  13    -0.698119799582E+03    0.13837E-03   -0.32174E-04 12468   0.104E-01    0.342E-02
DAV:  14    -0.698119786847E+03    0.12735E-04   -0.42098E-04 14404   0.645E-02
    270 T=   199. E= -.70267628E+03 F= -.70638764E+03 E0= -.70638764E+03  EK= 0.37114E+01 SP= 0.00E+00 SK= 0.00E+00
    271 T=   199. E= -.70268436E+03 F= -.70637976E+03 E0= -.70637976E+03  EK= 0.36954E+01 SP= 0.00E+00 SK= 0.00E+00
    272 T=   195. E= -.70268090E+03 F= -.70631707E+03 E0= -.70631707E+03  EK= 0.36362E+01 SP= 0.00E+00 SK= 0.00E+00
    273 T=   189. E= -.70269807E+03 F= -.70622074E+03 E0= -.70622074E+03  EK= 0.35227E+01 SP= 0.00E+00 SK= 0.00E+00
    274 T=   186. E= -.70268827E+03 F= -.70614767E+03 E0= -.70614767E+03  EK= 0.34594E+01 SP= 0.00E+00 SK= 0.00E+00
    275 T=   186. E= -.70269986E+03 F= -.70616779E+03 E0= -.70616779E+03  EK= 0.34679E+01 SP= 0.00E+00 SK= 0.00E+00
    276 T=   193. E= -.70269422E+03 F= -.70628488E+03 E0= -.70628488E+03  EK= 0.35907E+01 SP= 0.00E+00 SK= 0.00E+00
    277 T=   202. E= -.70268152E+03 F= -.70644236E+03 E0= -.70644236E+03  EK= 0.37608E+01 SP= 0.00E+00 SK= 0.00E+00
    278 T=   209. E= -.70266066E+03 F= -.70655468E+03 E0= -.70655468E+03  EK= 0.38940E+01 SP= 0.00E+00 SK= 0.00E+00
    279 T=   215. E= -.70256684E+03 F= -.70657611E+03 E0= -.70657611E+03  EK= 0.40093E+01 SP= 0.00E+00 SK= 0.00E+00
       N       E                     dE             d eps       ncg     rms          rms(c)
DAV:   1    -0.693928667151E+03    0.41911E+01   -0.17401E+03 12190   0.933E+01
DAV:   2    -0.698854931518E+03   -0.49263E+01   -0.49250E+01 14252   0.142E+01
DAV:   3    -0.698906828804E+03   -0.51897E-01   -0.51894E-01 14604   0.150E+00
DAV:   4    -0.698908026731E+03   -0.11979E-02   -0.11979E-02 14308   0.217E-01    0.764E+00
DAV:   5    -0.698298711528E+03    0.60932E+00   -0.11378E+00 15324   0.319E+00    0.417E+00
DAV:   6    -0.698214201013E+03    0.84511E-01   -0.95780E-01 14620   0.260E+00    0.121E+00
DAV:   7    -0.698219854323E+03   -0.56533E-02   -0.19403E-01 14204   0.127E+00    0.528E-01
DAV:   8    -0.698215710568E+03    0.41438E-02   -0.22316E-02 14292   0.399E-01    0.276E-01
DAV:   9    -0.698211800479E+03    0.39101E-02   -0.69032E-03 13964   0.281E-01    0.129E-01
DAV:  10    -0.698209521021E+03    0.22795E-02   -0.20039E-03 15692   0.232E-01    0.582E-02
DAV:  11    -0.698208867070E+03    0.65395E-03   -0.21529E-03 14620   0.163E-01    0.655E-02
DAV:  12    -0.698208397476E+03    0.46959E-03   -0.83166E-04 13780   0.117E-01    0.356E-02
DAV:  13    -0.698208186694E+03    0.21078E-03   -0.18626E-04  9948   0.994E-02    0.339E-02
DAV:  14    -0.698208174912E+03    0.11782E-04   -0.46740E-04 14052   0.642E-02
    280 T=   213. E= -.70249667E+03 F= -.70646075E+03 E0= -.70646075E+03  EK= 0.39641E+01 SP= 0.00E+00 SK= 0.00E+00
    281 T=   207. E= -.70248835E+03 F= -.70634993E+03 E0= -.70634993E+03  EK= 0.38616E+01 SP= 0.00E+00 SK= 0.00E+00
    282 T=   204. E= -.70248625E+03 F= -.70627793E+03 E0= -.70627793E+03  EK= 0.37917E+01 SP= 0.00E+00 SK= 0.00E+00
    283 T=   205. E= -.70251301E+03 F= -.70632209E+03 E0= -.70632209E+03  EK= 0.38091E+01 SP= 0.00E+00 SK= 0.00E+00
    284 T=   211. E= -.70256085E+03 F= -.70648198E+03 E0= -.70648198E+03  EK= 0.39211E+01 SP= 0.00E+00 SK= 0.00E+00
    285 T=   215. E= -.70264282E+03 F= -.70663849E+03 E0= -.70663849E+03  EK= 0.39957E+01 SP= 0.00E+00 SK= 0.00E+00
    286 T=   220. E= -.70261340E+03 F= -.70670857E+03 E0= -.70670857E+03  EK= 0.40952E+01 SP= 0.00E+00 SK= 0.00E+00
    287 T=   222. E= -.70252010E+03 F= -.70665451E+03 E0= -.70665451E+03  EK= 0.41344E+01 SP= 0.00E+00 SK= 0.00E+00
    288 T=   217. E= -.70247809E+03 F= -.70651964E+03 E0= -.70651964E+03  EK= 0.40415E+01 SP= 0.00E+00 SK= 0.00E+00
    289 T=   209. E= -.70244911E+03 F= -.70634378E+03 E0= -.70634378E+03  EK= 0.38947E+01 SP= 0.00E+00 SK= 0.00E+00
       N       E                     dE             d eps       ncg     rms          rms(c)
DAV:   1    -0.693428287947E+03    0.47799E+01   -0.19811E+03 12190   0.100E+02
DAV:   2    -0.698736242291E+03   -0.53080E+01   -0.53067E+01 14332   0.149E+01
DAV:   3    -0.698790097291E+03   -0.53855E-01   -0.53852E-01 14620   0.155E+00
DAV:   4    -0.698791309106E+03   -0.12118E-02   -0.12118E-02 14356   0.222E-01    0.834E+00
DAV:   5    -0.698020424183E+03    0.77088E+00   -0.14589E+00 15388   0.370E+00    0.449E+00
DAV:   6    -0.697925629614E+03    0.94795E-01   -0.11310E+00 14676   0.291E+00    0.137E+00
DAV:   7    -0.697936276672E+03   -0.10647E-01   -0.22667E-01 14084   0.132E+00    0.536E-01
DAV:   8    -0.697931671150E+03    0.46055E-02   -0.19661E-02 14284   0.426E-01    0.249E-01
DAV:   9    -0.697928250924E+03    0.34202E-02   -0.65784E-03 14100   0.296E-01    0.116E-01
DAV:  10    -0.697926685662E+03    0.15653E-02   -0.22106E-03 16012   0.209E-01    0.543E-02
DAV:  11    -0.697925959129E+03    0.72653E-03   -0.11484E-03 14172   0.145E-01    0.483E-02
DAV:  12    -0.697925366264E+03    0.59286E-03   -0.37035E-04 12340   0.153E-01    0.206E-02
DAV:  13    -0.697925236683E+03    0.12958E-03   -0.57636E-04 13660   0.114E-01    0.314E-02
DAV:  14    -0.697925237729E+03   -0.10464E-05   -0.39500E-04 13820   0.517E-02
    290 T=   205. E= -.70237968E+03 F= -.70618629E+03 E0= -.70618629E+03  EK= 0.38066E+01 SP= 0.00E+00 SK= 0.00E+00
    291 T=   202. E= -.70245554E+03 F= -.70620806E+03 E0= -.70620806E+03  EK= 0.37525E+01 SP= 0.00E+00 SK= 0.00E+00
    292 T=   202. E= -.70250967E+03 F= -.70626976E+03 E0= -.70626976E+03  EK= 0.37601E+01 SP= 0.00E+00 SK= 0.00E+00
    293 T=   204. E= -.70256603E+03 F= -.70636293E+03 E0= -.70636293E+03  EK= 0.37969E+01 SP= 0.00E+00 SK= 0.00E+00
    294 T=   204. E= -.70263367E+03 F= -.70643355E+03 E0= -.70643355E+03  EK= 0.37999E+01 SP= 0.00E+00 SK= 0.00E+00
    295 T=   205. E= -.70262824E+03 F= -.70643967E+03 E0= -.70643967E+03  EK= 0.38114E+01 SP= 0.00E+00 SK= 0.00E+00
    296 T=   206. E= -.70256243E+03 F= -.70639709E+03 E0= -.70639709E+03  EK= 0.38347E+01 SP= 0.00E+00 SK= 0.00E+00
    297 T=   205. E= -.70251928E+03 F= -.70632951E+03 E0= -.70632951E+03  EK= 0.38102E+01 SP= 0.00E+00 SK= 0.00E+00
    298 T=   201. E= -.70249499E+03 F= -.70624550E+03 E0= -.70624550E+03  EK= 0.37505E+01 SP= 0.00E+00 SK= 0.00E+00
    299 T=   201. E= -.70245064E+03 F= -.70619441E+03 E0= -.70619441E+03  EK= 0.37438E+01 SP= 0.00E+00 SK= 0.00E+00
       N       E                     dE             d eps       ncg     rms          rms(c)
DAV:   1    -0.694149920003E+03    0.37753E+01   -0.16701E+03 12190   0.922E+01
DAV:   2    -0.698616752712E+03   -0.44668E+01   -0.44659E+01 14268   0.137E+01
DAV:   3    -0.698662965077E+03   -0.46212E-01   -0.46210E-01 14620   0.145E+00
DAV:   4    -0.698664016228E+03   -0.10512E-02   -0.10511E-02 14356   0.209E-01    0.790E+00
DAV:   5    -0.698042041281E+03    0.62197E+00   -0.11739E+00 15468   0.333E+00    0.434E+00
DAV:   6    -0.697971742978E+03    0.70298E-01   -0.10309E+00 14708   0.281E+00    0.124E+00
DAV:   7    -0.697983335885E+03   -0.11593E-01   -0.21576E-01 13996   0.128E+00    0.532E-01
DAV:   8    -0.697979757407E+03    0.35785E-02   -0.19581E-02 13996   0.392E-01    0.259E-01
DAV:   9    -0.697977251407E+03    0.25060E-02   -0.73804E-03 13876   0.262E-01    0.129E-01
DAV:  10    -0.697975887833E+03    0.13636E-02   -0.17815E-03 15804   0.188E-01    0.501E-02
DAV:  11    -0.697975455858E+03    0.43197E-03   -0.12907E-03 14396   0.125E-01    0.489E-02
DAV:  12    -0.697975166342E+03    0.28952E-03   -0.34613E-04 12684   0.802E-02    0.220E-02
DAV:  13    -0.697975037253E+03    0.12909E-03   -0.14005E-04  9740   0.708E-02    0.285E-02
DAV:  14    -0.697975018492E+03    0.18760E-04   -0.18910E-04 10580   0.452E-02
    300 T=   204. E= -.70241090E+03 F= -.70621596E+03 E0= -.70621596E+03  EK= 0.38051E+01 SP= 0.00E+00 SK= 0.00E+00
    301 T=   210. E= -.70237797E+03 F= -.70627832E+03 E0= -.70627832E+03  EK= 0.39003E+01 SP= 0.00E+00 SK= 0.00E+00
    302 T=   214. E= -.70237968E+03 F= -.70635402E+03 E0= -.70635402E+03  EK= 0.39743E+01 SP= 0.00E+00 SK= 0.00E+00
    303 T=   215. E= -.70236198E+03 F= -.70636420E+03 E0= -.70636420E+03  EK= 0.40022E+01 SP= 0.00E+00 SK= 0.00E+00
    304 T=   214. E= -.70232333E+03 F= -.70630401E+03 E0= -.70630401E+03  EK= 0.39807E+01 SP= 0.00E+00 SK= 0.00E+00
    305 T=   212. E= -.70229494E+03 F= -.70623496E+03 E0= -.70623496E+03  EK= 0.39400E+01 SP= 0.00E+00 SK= 0.00E+00
    306 T=   207. E= -.70234555E+03 F= -.70619339E+03 E0= -.70619339E+03  EK= 0.38478E+01 SP= 0.00E+00 SK= 0.00E+00
    307 T=   204. E= -.70241239E+03 F= -.70621138E+03 E0= -.70621138E+03  EK= 0.37990E+01 SP= 0.00E+00 SK= 0.00E+00
    308 T=   208. E= -.70242000E+03 F= -.70629465E+03 E0= -.70629465E+03  EK= 0.38746E+01 SP= 0.00E+00 SK= 0.00E+00
    309 T=   211. E= -.70245146E+03 F= -.70638313E+03 E0= -.70638313E+03  EK= 0.39317E+01 SP= 0.00E+00 SK= 0.00E+00
    310 T=   213. E= -.70252147E+03 F= -.70648020E+03 E0= -.70648020E+03  EK= 0.39587E+01 SP= 0.00E+00 SK= 0.00E+00
    311 T=   214. E= -.70257717E+03 F= -.70656063E+03 E0= -.70656063E+03  EK= 0.39835E+01 SP= 0.00E+00 SK= 0.00E+00
    312 T=   217. E= -.70255359E+03 F= -.70658360E+03 E0= -.70658360E+03  EK= 0.40300E+01 SP= 0.00E+00 SK= 0.00E+00
    313 T=   216. E= -.70254871E+03 F= -.70657050E+03 E0= -.70657050E+03  EK= 0.40218E+01 SP= 0.00E+00 SK= 0.00E+00
    314 T=   210. E= -.70261721E+03 F= -.70652297E+03 E0= -.70652297E+03  EK= 0.39058E+01 SP= 0.00E+00 SK= 0.00E+00
    315 T=   207. E= -.70260267E+03 F= -.70646165E+03 E0= -.70646165E+03  EK= 0.38590E+01 SP= 0.00E+00 SK= 0.00E+00
    316 T=   204. E= -.70260100E+03 F= -.70639314E+03 E0= -.70639314E+03  EK= 0.37921E+01 SP= 0.00E+00 SK= 0.00E+00
    317 T=   200. E= -.70262942E+03 F= -.70634427E+03 E0= -.70634427E+03  EK= 0.37149E+01 SP= 0.00E+00 SK= 0.00E+00
       N       E                     dE             d eps       ncg     rms          rms(c)
DAV:   1    -0.684886379259E+03    0.13089E+02   -0.43894E+03 12190   0.148E+02
DAV:   2    -0.699090989190E+03   -0.14205E+02   -0.14198E+02 14212   0.237E+01
DAV:   3    -0.699247788317E+03   -0.15680E+00   -0.15678E+00 14628   0.263E+00
DAV:   4    -0.699251234306E+03   -0.34460E-02   -0.34458E-02 14308   0.368E-01    0.115E+01
DAV:   5    -0.698165605968E+03    0.10856E+01   -0.15599E+00 14988   0.382E+00    0.659E+00
DAV:   6    -0.698036168648E+03    0.12944E+00   -0.23916E+00 14724   0.430E+00    0.136E+00
DAV:   7    -0.698048447343E+03   -0.12279E-01   -0.46334E-01 13996   0.180E+00    0.685E-01
DAV:   8    -0.698041244553E+03    0.72028E-02   -0.43739E-02 14356   0.500E-01    0.410E-01
DAV:   9    -0.698034238636E+03    0.70059E-02   -0.16848E-02 14060   0.448E-01    0.229E-01
DAV:  10    -0.698029068203E+03    0.51704E-02   -0.45452E-03 14068   0.323E-01    0.110E-01
DAV:  11    -0.698027721865E+03    0.13463E-02   -0.56771E-03 14660   0.258E-01    0.875E-02
DAV:  12    -0.698026495457E+03    0.12264E-02   -0.94748E-04 14068   0.153E-01    0.417E-02
DAV:  13    -0.698026069243E+03    0.42621E-03   -0.83321E-04 13404   0.153E-01    0.494E-02
DAV:  14    -0.698026018325E+03    0.50918E-04   -0.82461E-04 14708   0.971E-02
    318 T=   196. E= -.70261476E+03 F= -.70627036E+03 E0= -.70627036E+03  EK= 0.36556E+01 SP= 0.00E+00 SK= 0.00E+00
    319 T=   195. E= -.70264571E+03 F= -.70626911E+03 E0= -.70626911E+03  EK= 0.36234E+01 SP= 0.00E+00 SK= 0.00E+00
    320 T=   195. E= -.70263758E+03 F= -.70626950E+03 E0= -.70626950E+03  EK= 0.36319E+01 SP= 0.00E+00 SK= 0.00E+00
    321 T=   196. E= -.70260904E+03 F= -.70625595E+03 E0= -.70625595E+03  EK= 0.36469E+01 SP= 0.00E+00 SK= 0.00E+00
    322 T=   195. E= -.70256999E+03 F= -.70619520E+03 E0= -.70619520E+03  EK= 0.36252E+01 SP= 0.00E+00 SK= 0.00E+00
    323 T=   189. E= -.70256193E+03 F= -.70607569E+03 E0= -.70607569E+03  EK= 0.35138E+01 SP= 0.00E+00 SK= 0.00E+00
    324 T=   182. E= -.70257171E+03 F= -.70595875E+03 E0= -.70595875E+03  EK= 0.33870E+01 SP= 0.00E+00 SK= 0.00E+00
    325 T=   182. E= -.70253018E+03 F= -.70591049E+03 E0= -.70591049E+03  EK= 0.33803E+01 SP= 0.00E+00 SK= 0.00E+00
    326 T=   191. E= -.70243743E+03 F= -.70599073E+03 E0= -.70599073E+03  EK= 0.35533E+01 SP= 0.00E+00 SK= 0.00E+00
    327 T=   203. E= -.70233938E+03 F= -.70612149E+03 E0= -.70612149E+03  EK= 0.37821E+01 SP= 0.00E+00 SK= 0.00E+00
       N       E                     dE             d eps       ncg     rms          rms(c)
DAV:   1    -0.694705860307E+03    0.33202E+01   -0.15483E+03 12190   0.891E+01
DAV:   2    -0.698529102727E+03   -0.38232E+01   -0.38225E+01 14316   0.128E+01
DAV:   3    -0.698569560239E+03   -0.40458E-01   -0.40456E-01 14628   0.133E+00
DAV:   4    -0.698570499031E+03   -0.93879E-03   -0.93877E-03 14364   0.194E-01    0.765E+00
DAV:   5    -0.697981886098E+03    0.58861E+00   -0.11625E+00 15084   0.334E+00    0.413E+00
DAV:   6    -0.697921635875E+03    0.60250E-01   -0.93115E-01 14684   0.260E+00    0.125E+00
DAV:   7    -0.697929553471E+03   -0.79176E-02   -0.17636E-01 14052   0.120E+00    0.479E-01
DAV:   8    -0.697926420590E+03    0.31329E-02   -0.18596E-02 14060   0.379E-01    0.227E-01
DAV:   9    -0.697923840363E+03    0.25802E-02   -0.53668E-03 14084   0.235E-01    0.110E-01
DAV:  10    -0.697922566174E+03    0.12742E-02   -0.15745E-03 15820   0.180E-01    0.467E-02
DAV:  11    -0.697922092858E+03    0.47332E-03   -0.10875E-03 14140   0.120E-01    0.441E-02
DAV:  12    -0.697921764483E+03    0.32838E-03   -0.26200E-04 11612   0.854E-02    0.189E-02
DAV:  13    -0.697921642611E+03    0.12187E-03   -0.18827E-04 10596   0.780E-02    0.254E-02
DAV:  14    -0.697921635948E+03    0.66623E-05   -0.24567E-04 12124   0.467E-02
    328 T=   211. E= -.70225791E+03 F= -.70618274E+03 E0= -.70618274E+03  EK= 0.39248E+01 SP= 0.00E+00 SK= 0.00E+00
    329 T=   210. E= -.70229742E+03 F= -.70621389E+03 E0= -.70621389E+03  EK= 0.39165E+01 SP= 0.00E+00 SK= 0.00E+00
    330 T=   207. E= -.70233154E+03 F= -.70618799E+03 E0= -.70618799E+03  EK= 0.38564E+01 SP= 0.00E+00 SK= 0.00E+00
    331 T=   207. E= -.70232870E+03 F= -.70617428E+03 E0= -.70617428E+03  EK= 0.38456E+01 SP= 0.00E+00 SK= 0.00E+00
    332 T=   207. E= -.70234316E+03 F= -.70619192E+03 E0= -.70619192E+03  EK= 0.38488E+01 SP= 0.00E+00 SK= 0.00E+00
    333 T=   208. E= -.70236141E+03 F= -.70622958E+03 E0= -.70622958E+03  EK= 0.38682E+01 SP= 0.00E+00 SK= 0.00E+00
    334 T=   209. E= -.70237315E+03 F= -.70626697E+03 E0= -.70626697E+03  EK= 0.38938E+01 SP= 0.00E+00 SK= 0.00E+00
    335 T=   210. E= -.70238024E+03 F= -.70628376E+03 E0= -.70628376E+03  EK= 0.39035E+01 SP= 0.00E+00 SK= 0.00E+00
    336 T=   210. E= -.70239739E+03 F= -.70631458E+03 E0= -.70631458E+03  EK= 0.39172E+01 SP= 0.00E+00 SK= 0.00E+00
    337 T=   209. E= -.70241583E+03 F= -.70631377E+03 E0= -.70631377E+03  EK= 0.38979E+01 SP= 0.00E+00 SK= 0.00E+00
       N       E                     dE             d eps       ncg     rms          rms(c)
DAV:   1    -0.695027124135E+03    0.28945E+01   -0.15198E+03 12190   0.884E+01
DAV:   2    -0.698560383093E+03   -0.35333E+01   -0.35325E+01 14308   0.123E+01
DAV:   3    -0.698598818235E+03   -0.38435E-01   -0.38433E-01 14628   0.130E+00
DAV:   4    -0.698599741096E+03   -0.92286E-03   -0.92284E-03 14380   0.191E-01    0.769E+00
DAV:   5    -0.698079993056E+03    0.51975E+00   -0.98741E-01 14908   0.306E+00    0.427E+00
DAV:   6    -0.698018240798E+03    0.61752E-01   -0.92799E-01 14572   0.270E+00    0.117E+00
DAV:   7    -0.698022053841E+03   -0.38130E-02   -0.21477E-01 14204   0.141E+00    0.505E-01
DAV:   8    -0.698017361024E+03    0.46928E-02   -0.26076E-02 14316   0.445E-01    0.269E-01
DAV:   9    -0.698013089370E+03    0.42717E-02   -0.97626E-03 14052   0.302E-01    0.151E-01
DAV:  10    -0.698010711575E+03    0.23778E-02   -0.25097E-03 15924   0.263E-01    0.658E-02
DAV:  11    -0.698009942206E+03    0.76937E-03   -0.28503E-03 14580   0.199E-01    0.766E-02
DAV:  12    -0.698009376848E+03    0.56536E-03   -0.10016E-03 14276   0.133E-01    0.305E-02
DAV:  13    -0.698009208794E+03    0.16805E-03   -0.34344E-04 12724   0.987E-02    0.450E-02
DAV:  14    -0.698009169093E+03    0.39701E-04   -0.37552E-04 14220   0.642E-02
    338 T=   205. E= -.70245909E+03 F= -.70628133E+03 E0= -.70628133E+03  EK= 0.38222E+01 SP= 0.00E+00 SK= 0.00E+00
    339 T=   200. E= -.70248798E+03 F= -.70621971E+03 E0= -.70621971E+03  EK= 0.37317E+01 SP= 0.00E+00 SK= 0.00E+00
    340 T=   196. E= -.70253117E+03 F= -.70617599E+03 E0= -.70617599E+03  EK= 0.36448E+01 SP= 0.00E+00 SK= 0.00E+00
    341 T=   193. E= -.70257765E+03 F= -.70616141E+03 E0= -.70616141E+03  EK= 0.35838E+01 SP= 0.00E+00 SK= 0.00E+00
    342 T=   193. E= -.70257098E+03 F= -.70616426E+03 E0= -.70616426E+03  EK= 0.35933E+01 SP= 0.00E+00 SK= 0.00E+00
    343 T=   197. E= -.70254529E+03 F= -.70621188E+03 E0= -.70621188E+03  EK= 0.36666E+01 SP= 0.00E+00 SK= 0.00E+00
    344 T=   203. E= -.70253853E+03 F= -.70631694E+03 E0= -.70631694E+03  EK= 0.37784E+01 SP= 0.00E+00 SK= 0.00E+00
    345 T=   209. E= -.70255948E+03 F= -.70644211E+03 E0= -.70644211E+03  EK= 0.38826E+01 SP= 0.00E+00 SK= 0.00E+00
    346 T=   212. E= -.70256130E+03 F= -.70650661E+03 E0= -.70650661E+03  EK= 0.39453E+01 SP= 0.00E+00 SK= 0.00E+00
    347 T=   209. E= -.70255535E+03 F= -.70645244E+03 E0= -.70645244E+03  EK= 0.38971E+01 SP= 0.00E+00 SK= 0.00E+00
       N       E                     dE             d eps       ncg     rms          rms(c)
DAV:   1    -0.694840375483E+03    0.31688E+01   -0.15269E+03 12190   0.881E+01
DAV:   2    -0.698607851856E+03   -0.37675E+01   -0.37667E+01 14340   0.127E+01
DAV:   3    -0.698647507477E+03   -0.39656E-01   -0.39654E-01 14636   0.132E+00
DAV:   4    -0.698648438715E+03   -0.93124E-03   -0.93122E-03 14388   0.192E-01    0.766E+00
DAV:   5    -0.698097427690E+03    0.55101E+00   -0.12351E+00 15372   0.350E+00    0.414E+00
DAV:   6    -0.698059790060E+03    0.37638E-01   -0.81708E-01 14380   0.240E+00    0.139E+00
DAV:   7    -0.698065526273E+03   -0.57362E-02   -0.17209E-01 14748   0.130E+00    0.469E-01
DAV:   8    -0.698061914175E+03    0.36121E-02   -0.23848E-02 14444   0.458E-01    0.250E-01
DAV:   9    -0.698058502984E+03    0.34112E-02   -0.91834E-03 13812   0.282E-01    0.138E-01
DAV:  10    -0.698057049952E+03    0.14530E-02   -0.20686E-03 16468   0.207E-01    0.574E-02
DAV:  11    -0.698056418392E+03    0.63156E-03   -0.14569E-03 14020   0.151E-01    0.527E-02
DAV:  12    -0.698056005634E+03    0.41276E-03   -0.40249E-04 12732   0.120E-01    0.233E-02
DAV:  13    -0.698055838466E+03    0.16717E-03   -0.23923E-04 11012   0.982E-02    0.192E-02
DAV:  14    -0.698055833795E+03    0.46714E-05   -0.29655E-04 12364   0.541E-02
    348 T=   201. E= -.70260587E+03 F= -.70634702E+03 E0= -.70634702E+03  EK= 0.37412E+01 SP= 0.00E+00 SK= 0.00E+00
    349 T=   193. E= -.70257988E+03 F= -.70616921E+03 E0= -.70616921E+03  EK= 0.35893E+01 SP= 0.00E+00 SK= 0.00E+00
    350 T=   188. E= -.70254651E+03 F= -.70605163E+03 E0= -.70605163E+03  EK= 0.35051E+01 SP= 0.00E+00 SK= 0.00E+00
    351 T=   189. E= -.70253861E+03 F= -.70605863E+03 E0= -.70605863E+03  EK= 0.35200E+01 SP= 0.00E+00 SK= 0.00E+00
    352 T=   191. E= -.70253585E+03 F= -.70609034E+03 E0= -.70609034E+03  EK= 0.35545E+01 SP= 0.00E+00 SK= 0.00E+00
    353 T=   191. E= -.70254133E+03 F= -.70610076E+03 E0= -.70610076E+03  EK= 0.35594E+01 SP= 0.00E+00 SK= 0.00E+00
    354 T=   188. E= -.70253743E+03 F= -.70603846E+03 E0= -.70603846E+03  EK= 0.35010E+01 SP= 0.00E+00 SK= 0.00E+00
    355 T=   181. E= -.70253215E+03 F= -.70589815E+03 E0= -.70589815E+03  EK= 0.33660E+01 SP= 0.00E+00 SK= 0.00E+00
    356 T=   172. E= -.70257689E+03 F= -.70576962E+03 E0= -.70576962E+03  EK= 0.31927E+01 SP= 0.00E+00 SK= 0.00E+00
    357 T=   166. E= -.70263863E+03 F= -.70573370E+03 E0= -.70573370E+03  EK= 0.30951E+01 SP= 0.00E+00 SK= 0.00E+00
       N       E                     dE             d eps       ncg     rms          rms(c)
DAV:   1    -0.693831638163E+03    0.42242E+01   -0.16753E+03 12190   0.923E+01
DAV:   2    -0.698215940392E+03   -0.43843E+01   -0.43834E+01 14404   0.135E+01
DAV:   3    -0.698261113063E+03   -0.45173E-01   -0.45171E-01 14620   0.140E+00
DAV:   4    -0.698262144133E+03   -0.10311E-02   -0.10310E-02 14340   0.202E-01    0.763E+00
DAV:   5    -0.697592202869E+03    0.66994E+00   -0.12459E+00 15260   0.344E+00    0.408E+00
DAV:   6    -0.697501812502E+03    0.90390E-01   -0.98240E-01 14660   0.262E+00    0.126E+00
DAV:   7    -0.697507935922E+03   -0.61234E-02   -0.20226E-01 14012   0.132E+00    0.501E-01
DAV:   8    -0.697504214926E+03    0.37210E-02   -0.22526E-02 14036   0.467E-01    0.229E-01
DAV:   9    -0.697501995941E+03    0.22190E-02   -0.76034E-03 13676   0.226E-01    0.131E-01
DAV:  10    -0.697500834053E+03    0.11619E-02   -0.20593E-03 16196   0.194E-01    0.431E-02
DAV:  11    -0.697500561971E+03    0.27208E-03   -0.95308E-04 14244   0.969E-02    0.417E-02
DAV:  12    -0.697500288915E+03    0.27306E-03   -0.13702E-04  9700   0.632E-02    0.194E-02
DAV:  13    -0.697500190083E+03    0.98831E-04   -0.27124E-04 11900   0.736E-02
    358 T=   169. E= -.70264805E+03 F= -.70579246E+03 E0= -.70579246E+03  EK= 0.31444E+01 SP= 0.00E+00 SK= 0.00E+00
    359 T=   176. E= -.70264410E+03 F= -.70591701E+03 E0= -.70591701E+03  EK= 0.32729E+01 SP= 0.00E+00 SK= 0.00E+00
    360 T=   181. E= -.70265080E+03 F= -.70601207E+03 E0= -.70601207E+03  EK= 0.33613E+01 SP= 0.00E+00 SK= 0.00E+00
    361 T=   182. E= -.70266508E+03 F= -.70605005E+03 E0= -.70605005E+03  EK= 0.33850E+01 SP= 0.00E+00 SK= 0.00E+00
    362 T=   184. E= -.70261527E+03 F= -.70603107E+03 E0= -.70603107E+03  EK= 0.34158E+01 SP= 0.00E+00 SK= 0.00E+00
    363 T=   186. E= -.70253590E+03 F= -.70600333E+03 E0= -.70600333E+03  EK= 0.34674E+01 SP= 0.00E+00 SK= 0.00E+00
    364 T=   187. E= -.70251311E+03 F= -.70600025E+03 E0= -.70600025E+03  EK= 0.34871E+01 SP= 0.00E+00 SK= 0.00E+00
    365 T=   190. E= -.70253950E+03 F= -.70607332E+03 E0= -.70607332E+03  EK= 0.35338E+01 SP= 0.00E+00 SK= 0.00E+00
    366 T=   195. E= -.70256846E+03 F= -.70619041E+03 E0= -.70619041E+03  EK= 0.36219E+01 SP= 0.00E+00 SK= 0.00E+00
    367 T=   198. E= -.70264898E+03 F= -.70632620E+03 E0= -.70632620E+03  EK= 0.36772E+01 SP= 0.00E+00 SK= 0.00E+00
       N       E                     dE             d eps       ncg     rms          rms(c)
DAV:   1    -0.695212444000E+03    0.22878E+01   -0.14726E+03 12190   0.869E+01
DAV:   2    -0.698758418711E+03   -0.35460E+01   -0.35453E+01 14396   0.124E+01
DAV:   3    -0.698796062663E+03   -0.37644E-01   -0.37642E-01 14628   0.129E+00
DAV:   4    -0.698796948688E+03   -0.88603E-03   -0.88601E-03 14372   0.188E-01    0.744E+00
DAV:   5    -0.698212633735E+03    0.58431E+00   -0.11180E+00 15108   0.327E+00    0.404E+00
DAV:   6    -0.698146233320E+03    0.66400E-01   -0.93754E-01 14588   0.247E+00    0.123E+00
DAV:   7    -0.698150927705E+03   -0.46944E-02   -0.18531E-01 14188   0.133E+00    0.465E-01
DAV:   8    -0.698147648877E+03    0.32788E-02   -0.22908E-02 14236   0.479E-01    0.228E-01
DAV:   9    -0.698145356110E+03    0.22928E-02   -0.10328E-02 13796   0.262E-01    0.162E-01
DAV:  10    -0.698143968081E+03    0.13880E-02   -0.26603E-03 16476   0.208E-01    0.474E-02
DAV:  11    -0.698143577336E+03    0.39074E-03   -0.12282E-03 14148   0.109E-01    0.467E-02
DAV:  12    -0.698143207564E+03    0.36977E-03   -0.16665E-04 10260   0.810E-02    0.226E-02
DAV:  13    -0.698143073784E+03    0.13378E-03   -0.36205E-04 12700   0.844E-02    0.240E-02
DAV:  14    -0.698143073961E+03   -0.17725E-06   -0.20004E-04 11724   0.371E-02
    368 T=   200. E= -.70270752E+03 F= -.70642729E+03 E0= -.70642729E+03  EK= 0.37198E+01 SP= 0.00E+00 SK= 0.00E+00
    369 T=   207. E= -.70271870E+03 F= -.70656335E+03 E0= -.70656335E+03  EK= 0.38446E+01 SP= 0.00E+00 SK= 0.00E+00
    370 T=   212. E= -.70264740E+03 F= -.70659110E+03 E0= -.70659110E+03  EK= 0.39437E+01 SP= 0.00E+00 SK= 0.00E+00
    371 T=   210. E= -.70263596E+03 F= -.70653906E+03 E0= -.70653906E+03  EK= 0.39031E+01 SP= 0.00E+00 SK= 0.00E+00
    372 T=   204. E= -.70264777E+03 F= -.70644838E+03 E0= -.70644838E+03  EK= 0.38006E+01 SP= 0.00E+00 SK= 0.00E+00
    373 T=   203. E= -.70263970E+03 F= -.70642063E+03 E0= -.70642063E+03  EK= 0.37809E+01 SP= 0.00E+00 SK= 0.00E+00
    374 T=   205. E= -.70266220E+03 F= -.70648648E+03 E0= -.70648648E+03  EK= 0.38243E+01 SP= 0.00E+00 SK= 0.00E+00
    375 T=   214. E= -.70265866E+03 F= -.70664419E+03 E0= -.70664419E+03  EK= 0.39855E+01 SP= 0.00E+00 SK= 0.00E+00
    376 T=   226. E= -.70262851E+03 F= -.70682646E+03 E0= -.70682646E+03  EK= 0.41980E+01 SP= 0.00E+00 SK= 0.00E+00
    377 T=   231. E= -.70264873E+03 F= -.70694941E+03 E0= -.70694941E+03  EK= 0.43007E+01 SP= 0.00E+00 SK= 0.00E+00
       N       E                     dE             d eps       ncg     rms          rms(c)
DAV:   1    -0.695807570850E+03    0.23355E+01   -0.14432E+03 12190   0.864E+01
DAV:   2    -0.699138273746E+03   -0.33307E+01   -0.33301E+01 14356   0.120E+01
DAV:   3    -0.699174074998E+03   -0.35801E-01   -0.35800E-01 14628   0.126E+00
DAV:   4    -0.699174902489E+03   -0.82749E-03   -0.82748E-03 14380   0.184E-01    0.761E+00
DAV:   5    -0.698692538577E+03    0.48236E+00   -0.10098E+00 15036   0.312E+00    0.424E+00
DAV:   6    -0.698659688394E+03    0.32850E-01   -0.87956E-01 14676   0.259E+00    0.120E+00
DAV:   7    -0.698665767374E+03   -0.60790E-02   -0.16075E-01 14108   0.117E+00    0.456E-01
DAV:   8    -0.698662174415E+03    0.35930E-02   -0.19877E-02 14092   0.372E-01    0.226E-01
DAV:   9    -0.698659204845E+03    0.29696E-02   -0.50235E-03 14068   0.272E-01    0.113E-01
DAV:  10    -0.698657256750E+03    0.19481E-02   -0.16097E-03 14892   0.215E-01    0.472E-02
DAV:  11    -0.698656649841E+03    0.60691E-03   -0.16065E-03 14548   0.157E-01    0.505E-02
DAV:  12    -0.698656318393E+03    0.33145E-03   -0.50941E-04 14092   0.102E-01    0.236E-02
DAV:  13    -0.698656131946E+03    0.18645E-03   -0.11463E-04  9724   0.977E-02    0.205E-02
DAV:  14    -0.698656137572E+03   -0.56267E-05   -0.33174E-04 13300   0.491E-02
    378 T=   233. E= -.70260363E+03 F= -.70693325E+03 E0= -.70693325E+03  EK= 0.43296E+01 SP= 0.00E+00 SK= 0.00E+00
    379 T=   231. E= -.70260058E+03 F= -.70689175E+03 E0= -.70689175E+03  EK= 0.42912E+01 SP= 0.00E+00 SK= 0.00E+00
    380 T=   221. E= -.70256965E+03 F= -.70667719E+03 E0= -.70667719E+03  EK= 0.41075E+01 SP= 0.00E+00 SK= 0.00E+00
    381 T=   206. E= -.70262944E+03 F= -.70647045E+03 E0= -.70647045E+03  EK= 0.38410E+01 SP= 0.00E+00 SK= 0.00E+00
    382 T=   200. E= -.70267944E+03 F= -.70639850E+03 E0= -.70639850E+03  EK= 0.37191E+01 SP= 0.00E+00 SK= 0.00E+00
    383 T=   206. E= -.70262397E+03 F= -.70646498E+03 E0= -.70646498E+03  EK= 0.38410E+01 SP= 0.00E+00 SK= 0.00E+00
    384 T=   216. E= -.70260374E+03 F= -.70662140E+03 E0= -.70662140E+03  EK= 0.40177E+01 SP= 0.00E+00 SK= 0.00E+00
    385 T=   223. E= -.70256860E+03 F= -.70672066E+03 E0= -.70672066E+03  EK= 0.41521E+01 SP= 0.00E+00 SK= 0.00E+00
    386 T=   218. E= -.70260470E+03 F= -.70667131E+03 E0= -.70667131E+03  EK= 0.40666E+01 SP= 0.00E+00 SK= 0.00E+00
    387 T=   205. E= -.70267157E+03 F= -.70648610E+03 E0= -.70648610E+03  EK= 0.38145E+01 SP= 0.00E+00 SK= 0.00E+00
       N       E                     dE             d eps       ncg     rms          rms(c)
DAV:   1    -0.694725396686E+03    0.39307E+01   -0.14998E+03 12190   0.875E+01
DAV:   2    -0.698415604023E+03   -0.36902E+01   -0.36895E+01 14412   0.126E+01
DAV:   3    -0.698452991490E+03   -0.37387E-01   -0.37386E-01 14628   0.129E+00
DAV:   4    -0.698453822019E+03   -0.83053E-03   -0.83051E-03 14396   0.188E-01    0.769E+00
DAV:   5    -0.697985516237E+03    0.46831E+00   -0.10319E+00 15036   0.304E+00    0.423E+00
DAV:   6    -0.697972161127E+03    0.13355E-01   -0.86625E-01 14532   0.242E+00    0.118E+00
DAV:   7    -0.697986472851E+03   -0.14312E-01   -0.15579E-01 13836   0.107E+00    0.477E-01
DAV:   8    -0.697984606496E+03    0.18664E-02   -0.15384E-02 13972   0.335E-01    0.228E-01
DAV:   9    -0.697983166423E+03    0.14401E-02   -0.44014E-03 13772   0.203E-01    0.102E-01
DAV:  10    -0.697982345317E+03    0.82111E-03   -0.11846E-03 15428   0.143E-01    0.353E-02
DAV:  11    -0.697982139356E+03    0.20596E-03   -0.57127E-04 14580   0.751E-02    0.308E-02
DAV:  12    -0.697981981254E+03    0.15810E-03   -0.80613E-05  9540   0.444E-02    0.130E-02
DAV:  13    -0.697981893982E+03    0.87272E-04   -0.93156E-05  9692   0.580E-02
    388 T=   196. E= -.70261750E+03 F= -.70625971E+03 E0= -.70625971E+03  EK= 0.36422E+01 SP= 0.00E+00 SK= 0.00E+00
    389 T=   186. E= -.70259774E+03 F= -.70605805E+03 E0= -.70605805E+03  EK= 0.34603E+01 SP= 0.00E+00 SK= 0.00E+00
    390 T=   180. E= -.70256549E+03 F= -.70592149E+03 E0= -.70592149E+03  EK= 0.33560E+01 SP= 0.00E+00 SK= 0.00E+00
    391 T=   184. E= -.70246498E+03 F= -.70589547E+03 E0= -.70589547E+03  EK= 0.34305E+01 SP= 0.00E+00 SK= 0.00E+00
    392 T=   188. E= -.70246478E+03 F= -.70596367E+03 E0= -.70596367E+03  EK= 0.34989E+01 SP= 0.00E+00 SK= 0.00E+00
    393 T=   190. E= -.70254799E+03 F= -.70608388E+03 E0= -.70608388E+03  EK= 0.35359E+01 SP= 0.00E+00 SK= 0.00E+00
    394 T=   191. E= -.70261136E+03 F= -.70617343E+03 E0= -.70617343E+03  EK= 0.35621E+01 SP= 0.00E+00 SK= 0.00E+00
    395 T=   190. E= -.70261991E+03 F= -.70616428E+03 E0= -.70616428E+03  EK= 0.35444E+01 SP= 0.00E+00 SK= 0.00E+00
    396 T=   185. E= -.70261056E+03 F= -.70606271E+03 E0= -.70606271E+03  EK= 0.34521E+01 SP= 0.00E+00 SK= 0.00E+00
    397 T=   180. E= -.70254689E+03 F= -.70590121E+03 E0= -.70590121E+03  EK= 0.33543E+01 SP= 0.00E+00 SK= 0.00E+00
       N       E                     dE             d eps       ncg     rms          rms(c)
DAV:   1    -0.694510927222E+03    0.34711E+01   -0.14002E+03 12190   0.847E+01
DAV:   2    -0.698034473369E+03   -0.35235E+01   -0.35228E+01 14356   0.123E+01
DAV:   3    -0.698070941540E+03   -0.36468E-01   -0.36466E-01 14620   0.126E+00
DAV:   4    -0.698071798424E+03   -0.85688E-03   -0.85686E-03 14332   0.184E-01    0.737E+00
DAV:   5    -0.697523888714E+03    0.54791E+00   -0.11651E+00 15588   0.335E+00    0.395E+00
DAV:   6    -0.697468086607E+03    0.55802E-01   -0.79940E-01 14588   0.241E+00    0.132E+00
DAV:   7    -0.697471359495E+03   -0.32729E-02   -0.17262E-01 14396   0.124E+00    0.474E-01
DAV:   8    -0.697467148533E+03    0.42110E-02   -0.20194E-02 14324   0.431E-01    0.231E-01
DAV:   9    -0.697463809626E+03    0.33389E-02   -0.74573E-03 13780   0.253E-01    0.118E-01
DAV:  10    -0.697462539251E+03    0.12704E-02   -0.18049E-03 16332   0.184E-01    0.490E-02
DAV:  11    -0.697462003468E+03    0.53578E-03   -0.10060E-03 13980   0.122E-01    0.472E-02
DAV:  12    -0.697461653654E+03    0.34981E-03   -0.26737E-04 11316   0.101E-01    0.200E-02
DAV:  13    -0.697461551132E+03    0.10252E-03   -0.28783E-04 11660   0.792E-02    0.252E-02
DAV:  14    -0.697461537762E+03    0.13371E-04   -0.18568E-04 10812   0.424E-02
    398 T=   178. E= -.70244937E+03 F= -.70575520E+03 E0= -.70575520E+03  EK= 0.33058E+01 SP= 0.00E+00 SK= 0.00E+00
    399 T=   177. E= -.70244413E+03 F= -.70573701E+03 E0= -.70573701E+03  EK= 0.32929E+01 SP= 0.00E+00 SK= 0.00E+00
    400 T=   183. E= -.70240998E+03 F= -.70582395E+03 E0= -.70582395E+03  EK= 0.34140E+01 SP= 0.00E+00 SK= 0.00E+00
    401 T=   189. E= -.70243189E+03 F= -.70594113E+03 E0= -.70594113E+03  EK= 0.35092E+01 SP= 0.00E+00 SK= 0.00E+00
    402 T=   191. E= -.70246903E+03 F= -.70602486E+03 E0= -.70602486E+03  EK= 0.35558E+01 SP= 0.00E+00 SK= 0.00E+00
    403 T=   194. E= -.70242862E+03 F= -.70604454E+03 E0= -.70604454E+03  EK= 0.36159E+01 SP= 0.00E+00 SK= 0.00E+00
    404 T=   196. E= -.70238433E+03 F= -.70602481E+03 E0= -.70602481E+03  EK= 0.36405E+01 SP= 0.00E+00 SK= 0.00E+00
    405 T=   194. E= -.70237193E+03 F= -.70599118E+03 E0= -.70599118E+03  EK= 0.36193E+01 SP= 0.00E+00 SK= 0.00E+00
    406 T=   193. E= -.70234550E+03 F= -.70593865E+03 E0= -.70593865E+03  EK= 0.35931E+01 SP= 0.00E+00 SK= 0.00E+00
    407 T=   196. E= -.70225679E+03 F= -.70589895E+03 E0= -.70589895E+03  EK= 0.36422E+01 SP= 0.00E+00 SK= 0.00E+00
    408 T=   198. E= -.70219978E+03 F= -.70588190E+03 E0= -.70588190E+03  EK= 0.36821E+01 SP= 0.00E+00 SK= 0.00E+00
    409 T=   197. E= -.70222463E+03 F= -.70589050E+03 E0= -.70589050E+03  EK= 0.36659E+01 SP= 0.00E+00 SK= 0.00E+00
    410 T=   201. E= -.70220377E+03 F= -.70594910E+03 E0= -.70594910E+03  EK= 0.37453E+01 SP= 0.00E+00 SK= 0.00E+00
    411 T=   205. E= -.70219923E+03 F= -.70601720E+03 E0= -.70601720E+03  EK= 0.38180E+01 SP= 0.00E+00 SK= 0.00E+00
    412 T=   205. E= -.70223069E+03 F= -.70604969E+03 E0= -.70604969E+03  EK= 0.38190E+01 SP= 0.00E+00 SK= 0.00E+00
    413 T=   205. E= -.70223386E+03 F= -.70605748E+03 E0= -.70605748E+03  EK= 0.38236E+01 SP= 0.00E+00 SK= 0.00E+00
    414 T=   206. E= -.70220570E+03 F= -.70604883E+03 E0= -.70604883E+03  EK= 0.38431E+01 SP= 0.00E+00 SK= 0.00E+00
       N       E                     dE             d eps       ncg     rms          rms(c)
DAV:   1    -0.689533978060E+03    0.79276E+01   -0.30488E+03 12190   0.124E+02
DAV:   2    -0.698314983180E+03   -0.87810E+01   -0.87779E+01 14268   0.189E+01
DAV:   3    -0.698407798396E+03   -0.92815E-01   -0.92808E-01 14620   0.205E+00
DAV:   4    -0.698409885973E+03   -0.20876E-02   -0.20875E-02 14372   0.289E-01    0.958E+00
DAV:   5    -0.697784199703E+03    0.62569E+00   -0.10215E+00 14036   0.296E+00    0.557E+00
DAV:   6    -0.697752534899E+03    0.31665E-01   -0.15871E+00 14556   0.335E+00    0.112E+00
DAV:   7    -0.697756040666E+03   -0.35058E-02   -0.29665E-01 13932   0.153E+00    0.535E-01
DAV:   8    -0.697751812404E+03    0.42283E-02   -0.28410E-02 14412   0.431E-01    0.312E-01
DAV:   9    -0.697748082195E+03    0.37302E-02   -0.13436E-02 13836   0.343E-01    0.190E-01
DAV:  10    -0.697745576517E+03    0.25057E-02   -0.32380E-03 15940   0.257E-01    0.789E-02
DAV:  11    -0.697745045510E+03    0.53101E-03   -0.29050E-03 14756   0.172E-01    0.641E-02
DAV:  12    -0.697744449982E+03    0.59553E-03   -0.38650E-04 13084   0.102E-01    0.337E-02
DAV:  13    -0.697744203039E+03    0.24694E-03   -0.50492E-04 13100   0.115E-01    0.360E-02
DAV:  14    -0.697744164490E+03    0.38549E-04   -0.36452E-04 13564   0.737E-02
    415 T=   205. E= -.70222158E+03 F= -.70603458E+03 E0= -.70603458E+03  EK= 0.38130E+01 SP= 0.00E+00 SK= 0.00E+00
    416 T=   200. E= -.70230976E+03 F= -.70603752E+03 E0= -.70603752E+03  EK= 0.37278E+01 SP= 0.00E+00 SK= 0.00E+00
    417 T=   200. E= -.70229677E+03 F= -.70601397E+03 E0= -.70601397E+03  EK= 0.37172E+01 SP= 0.00E+00 SK= 0.00E+00
    418 T=   200. E= -.70228954E+03 F= -.70601282E+03 E0= -.70601282E+03  EK= 0.37233E+01 SP= 0.00E+00 SK= 0.00E+00
    419 T=   204. E= -.70227095E+03 F= -.70606882E+03 E0= -.70606882E+03  EK= 0.37979E+01 SP= 0.00E+00 SK= 0.00E+00
    420 T=   212. E= -.70222990E+03 F= -.70617090E+03 E0= -.70617090E+03  EK= 0.39410E+01 SP= 0.00E+00 SK= 0.00E+00
    421 T=   217. E= -.70222934E+03 F= -.70626708E+03 E0= -.70626708E+03  EK= 0.40377E+01 SP= 0.00E+00 SK= 0.00E+00
    422 T=   219. E= -.70221350E+03 F= -.70629301E+03 E0= -.70629301E+03  EK= 0.40795E+01 SP= 0.00E+00 SK= 0.00E+00
    423 T=   217. E= -.70223390E+03 F= -.70626587E+03 E0= -.70626587E+03  EK= 0.40320E+01 SP= 0.00E+00 SK= 0.00E+00
    424 T=   211. E= -.70226766E+03 F= -.70620239E+03 E0= -.70620239E+03  EK= 0.39347E+01 SP= 0.00E+00 SK= 0.00E+00
       N       E                     dE             d eps       ncg     rms          rms(c)
DAV:   1    -0.694946043498E+03    0.27982E+01   -0.13975E+03 12190   0.850E+01
DAV:   2    -0.698244853160E+03   -0.32988E+01   -0.32982E+01 14324   0.119E+01
DAV:   3    -0.698279905704E+03   -0.35053E-01   -0.35051E-01 14620   0.125E+00
DAV:   4    -0.698280708990E+03   -0.80329E-03   -0.80327E-03 14348   0.183E-01    0.770E+00
DAV:   5    -0.697840123714E+03    0.44059E+00   -0.93864E-01 14300   0.297E+00    0.428E+00
DAV:   6    -0.697827723008E+03    0.12401E-01   -0.85638E-01 14604   0.245E+00    0.114E+00
DAV:   7    -0.697839083182E+03   -0.11360E-01   -0.16204E-01 14124   0.116E+00    0.460E-01
DAV:   8    -0.697836944462E+03    0.21387E-02   -0.18337E-02 14116   0.379E-01    0.219E-01
DAV:   9    -0.697835109072E+03    0.18354E-02   -0.51076E-03 14060   0.228E-01    0.109E-01
DAV:  10    -0.697833948708E+03    0.11604E-02   -0.15847E-03 16068   0.183E-01    0.412E-02
DAV:  11    -0.697833585994E+03    0.36271E-03   -0.92752E-04 14588   0.110E-01    0.420E-02
DAV:  12    -0.697833277338E+03    0.30866E-03   -0.21969E-04 10908   0.830E-02    0.183E-02
DAV:  13    -0.697833143322E+03    0.13402E-03   -0.17705E-04 10492   0.884E-02    0.254E-02
DAV:  14    -0.697833143476E+03   -0.15400E-06   -0.31050E-04 12636   0.503E-02
    425 T=   209. E= -.70221527E+03 F= -.70611296E+03 E0= -.70611296E+03  EK= 0.38977E+01 SP= 0.00E+00 SK= 0.00E+00
    426 T=   209. E= -.70226569E+03 F= -.70615336E+03 E0= -.70615336E+03  EK= 0.38877E+01 SP= 0.00E+00 SK= 0.00E+00
    427 T=   206. E= -.70232874E+03 F= -.70616406E+03 E0= -.70616406E+03  EK= 0.38353E+01 SP= 0.00E+00 SK= 0.00E+00
    428 T=   203. E= -.70239616E+03 F= -.70617657E+03 E0= -.70617657E+03  EK= 0.37804E+01 SP= 0.00E+00 SK= 0.00E+00
    429 T=   201. E= -.70242914E+03 F= -.70616393E+03 E0= -.70616393E+03  EK= 0.37348E+01 SP= 0.00E+00 SK= 0.00E+00
    430 T=   200. E= -.70241658E+03 F= -.70613226E+03 E0= -.70613226E+03  EK= 0.37157E+01 SP= 0.00E+00 SK= 0.00E+00
    431 T=   196. E= -.70242670E+03 F= -.70608118E+03 E0= -.70608118E+03  EK= 0.36545E+01 SP= 0.00E+00 SK= 0.00E+00
    432 T=   192. E= -.70243897E+03 F= -.70601951E+03 E0= -.70601951E+03  EK= 0.35805E+01 SP= 0.00E+00 SK= 0.00E+00
    433 T=   190. E= -.70242679E+03 F= -.70595586E+03 E0= -.70595586E+03  EK= 0.35291E+01 SP= 0.00E+00 SK= 0.00E+00
    434 T=   189. E= -.70242013E+03 F= -.70593542E+03 E0= -.70593542E+03  EK= 0.35153E+01 SP= 0.00E+00 SK= 0.00E+00
       N       E                     dE             d eps       ncg     rms          rms(c)
DAV:   1    -0.694404069906E+03    0.34291E+01   -0.15753E+03 12190   0.899E+01
DAV:   2    -0.698267708351E+03   -0.38636E+01   -0.38627E+01 14420   0.129E+01
DAV:   3    -0.698307604275E+03   -0.39896E-01   -0.39894E-01 14628   0.134E+00
DAV:   4    -0.698308512994E+03   -0.90872E-03   -0.90870E-03 14324   0.194E-01    0.788E+00
DAV:   5    -0.697650688586E+03    0.65782E+00   -0.14619E+00 15796   0.386E+00    0.418E+00
DAV:   6    -0.697617545044E+03    0.33144E-01   -0.95630E-01 14660   0.252E+00    0.144E+00
DAV:   7    -0.697629001785E+03   -0.11457E-01   -0.19210E-01 14092   0.135E+00    0.473E-01
DAV:   8    -0.697625870299E+03    0.31315E-02   -0.26776E-02 15108   0.532E-01    0.239E-01
DAV:   9    -0.697623744035E+03    0.21263E-02   -0.10073E-02 13756   0.272E-01    0.147E-01
DAV:  10    -0.697622617981E+03    0.11261E-02   -0.21348E-03 16364   0.192E-01    0.537E-02
DAV:  11    -0.697622170595E+03    0.44739E-03   -0.11486E-03 14180   0.123E-01    0.448E-02
DAV:  12    -0.697621830853E+03    0.33974E-03   -0.21082E-04 10948   0.979E-02    0.205E-02
DAV:  13    -0.697621624463E+03    0.20639E-03   -0.18814E-04 10460   0.113E-01    0.140E-02
DAV:  14    -0.697621640712E+03   -0.16249E-04   -0.37471E-04 13828   0.502E-02
    435 T=   187. E= -.70241568E+03 F= -.70590387E+03 E0= -.70590387E+03  EK= 0.34882E+01 SP= 0.00E+00 SK= 0.00E+00
    436 T=   185. E= -.70251205E+03 F= -.70595470E+03 E0= -.70595470E+03  EK= 0.34426E+01 SP= 0.00E+00 SK= 0.00E+00
    437 T=   185. E= -.70252896E+03 F= -.70597541E+03 E0= -.70597541E+03  EK= 0.34464E+01 SP= 0.00E+00 SK= 0.00E+00
    438 T=   188. E= -.70248635E+03 F= -.70598158E+03 E0= -.70598158E+03  EK= 0.34952E+01 SP= 0.00E+00 SK= 0.00E+00
    439 T=   186. E= -.70249975E+03 F= -.70597050E+03 E0= -.70597050E+03  EK= 0.34707E+01 SP= 0.00E+00 SK= 0.00E+00
    440 T=   187. E= -.70250473E+03 F= -.70598171E+03 E0= -.70598171E+03  EK= 0.34770E+01 SP= 0.00E+00 SK= 0.00E+00
    441 T=   189. E= -.70249953E+03 F= -.70601494E+03 E0= -.70601494E+03  EK= 0.35154E+01 SP= 0.00E+00 SK= 0.00E+00
    442 T=   189. E= -.70252204E+03 F= -.70604344E+03 E0= -.70604344E+03  EK= 0.35214E+01 SP= 0.00E+00 SK= 0.00E+00
    443 T=   188. E= -.70252949E+03 F= -.70603651E+03 E0= -.70603651E+03  EK= 0.35070E+01 SP= 0.00E+00 SK= 0.00E+00
    444 T=   187. E= -.70249463E+03 F= -.70598237E+03 E0= -.70598237E+03  EK= 0.34877E+01 SP= 0.00E+00 SK= 0.00E+00
    445 T=   183. E= -.70246852E+03 F= -.70587924E+03 E0= -.70587924E+03  EK= 0.34107E+01 SP= 0.00E+00 SK= 0.00E+00
    446 T=   179. E= -.70247626E+03 F= -.70580038E+03 E0= -.70580038E+03  EK= 0.33241E+01 SP= 0.00E+00 SK= 0.00E+00
    447 T=   179. E= -.70246141E+03 F= -.70579102E+03 E0= -.70579102E+03  EK= 0.33296E+01 SP= 0.00E+00 SK= 0.00E+00
    448 T=   188. E= -.70236061E+03 F= -.70586434E+03 E0= -.70586434E+03  EK= 0.35037E+01 SP= 0.00E+00 SK= 0.00E+00
    449 T=   197. E= -.70230339E+03 F= -.70597431E+03 E0= -.70597431E+03  EK= 0.36709E+01 SP= 0.00E+00 SK= 0.00E+00
    450 T=   204. E= -.70229955E+03 F= -.70608847E+03 E0= -.70608847E+03  EK= 0.37889E+01 SP= 0.00E+00 SK= 0.00E+00
    451 T=   205. E= -.70231320E+03 F= -.70612312E+03 E0= -.70612312E+03  EK= 0.38099E+01 SP= 0.00E+00 SK= 0.00E+00
    452 T=   203. E= -.70231630E+03 F= -.70608781E+03 E0= -.70608781E+03  EK= 0.37715E+01 SP= 0.00E+00 SK= 0.00E+00
    453 T=   201. E= -.70229521E+03 F= -.70603160E+03 E0= -.70603160E+03  EK= 0.37364E+01 SP= 0.00E+00 SK= 0.00E+00
       N       E                     dE             d eps       ncg     rms          rms(c)
DAV:   1    -0.687065316069E+03    0.10556E+02   -0.39416E+03 12190   0.141E+02
DAV:   2    -0.698733509740E+03   -0.11668E+02   -0.11664E+02 14188   0.216E+01
DAV:   3    -0.698856149343E+03   -0.12264E+00   -0.12263E+00 14644   0.240E+00
DAV:   4    -0.698858819336E+03   -0.26700E-02   -0.26699E-02 14316   0.332E-01    0.114E+01
DAV:   5    -0.697818698262E+03    0.10401E+01   -0.15763E+00 14076   0.372E+00    0.649E+00
DAV:   6    -0.697699635928E+03    0.11906E+00   -0.22147E+00 14628   0.385E+00    0.136E+00
DAV:   7    -0.697717220880E+03   -0.17585E-01   -0.38034E-01 13852   0.167E+00    0.641E-01
DAV:   8    -0.697714118682E+03    0.31022E-02   -0.33978E-02 14348   0.454E-01    0.350E-01
DAV:   9    -0.697711483126E+03    0.26356E-02   -0.15140E-02 13852   0.387E-01    0.207E-01
DAV:  10    -0.697709551229E+03    0.19319E-02   -0.44609E-03 15876   0.254E-01    0.632E-02
DAV:  11    -0.697709184841E+03    0.36639E-03   -0.18657E-03 14708   0.125E-01    0.526E-02
DAV:  12    -0.697708769564E+03    0.41528E-03   -0.24704E-04 10940   0.771E-02    0.250E-02
DAV:  13    -0.697708593560E+03    0.17600E-03   -0.35045E-04 12884   0.856E-02    0.302E-02
DAV:  14    -0.697708561821E+03    0.31739E-04   -0.20746E-04 10372   0.520E-02
    454 T=   202. E= -.70221569E+03 F= -.70597883E+03 E0= -.70597883E+03  EK= 0.37631E+01 SP= 0.00E+00 SK= 0.00E+00
    455 T=   206. E= -.70220019E+03 F= -.70604176E+03 E0= -.70604176E+03  EK= 0.38416E+01 SP= 0.00E+00 SK= 0.00E+00
    456 T=   209. E= -.70225689E+03 F= -.70614831E+03 E0= -.70614831E+03  EK= 0.38914E+01 SP= 0.00E+00 SK= 0.00E+00
    457 T=   214. E= -.70232854E+03 F= -.70630325E+03 E0= -.70630325E+03  EK= 0.39747E+01 SP= 0.00E+00 SK= 0.00E+00
    458 T=   216. E= -.70243960E+03 F= -.70645246E+03 E0= -.70645246E+03  EK= 0.40129E+01 SP= 0.00E+00 SK= 0.00E+00
    459 T=   219. E= -.70247679E+03 F= -.70655853E+03 E0= -.70655853E+03  EK= 0.40817E+01 SP= 0.00E+00 SK= 0.00E+00
    460 T=   221. E= -.70245496E+03 F= -.70656123E+03 E0= -.70656123E+03  EK= 0.41063E+01 SP= 0.00E+00 SK= 0.00E+00
    461 T=   219. E= -.70237935E+03 F= -.70645416E+03 E0= -.70645416E+03  EK= 0.40748E+01 SP= 0.00E+00 SK= 0.00E+00
    462 T=   213. E= -.70233108E+03 F= -.70629171E+03 E0= -.70629171E+03  EK= 0.39606E+01 SP= 0.00E+00 SK= 0.00E+00
    463 T=   205. E= -.70234407E+03 F= -.70615661E+03 E0= -.70615661E+03  EK= 0.38125E+01 SP= 0.00E+00 SK= 0.00E+00
       N       E                     dE             d eps       ncg     rms          rms(c)
DAV:   1    -0.693813573177E+03    0.38950E+01   -0.17725E+03 12190   0.950E+01
DAV:   2    -0.698520228464E+03   -0.47067E+01   -0.47054E+01 14404   0.140E+01
DAV:   3    -0.698570231962E+03   -0.50003E-01   -0.50001E-01 14644   0.149E+00
DAV:   4    -0.698571399576E+03   -0.11676E-02   -0.11676E-02 14380   0.215E-01    0.816E+00
DAV:   5    -0.697896312991E+03    0.67509E+00   -0.14038E+00 15252   0.365E+00    0.439E+00
DAV:   6    -0.697835054323E+03    0.61259E-01   -0.98460E-01 14620   0.260E+00    0.142E+00
DAV:   7    -0.697842590960E+03   -0.75366E-02   -0.20009E-01 14412   0.140E+00    0.518E-01
DAV:   8    -0.697839913070E+03    0.26779E-02   -0.29396E-02 14180   0.440E-01    0.295E-01
DAV:   9    -0.697836363266E+03    0.35498E-02   -0.97800E-03 13772   0.256E-01    0.152E-01
DAV:  10    -0.697834273976E+03    0.20893E-02   -0.18999E-03 16108   0.238E-01    0.574E-02
DAV:  11    -0.697833761441E+03    0.51254E-03   -0.25048E-03 14484   0.165E-01    0.698E-02
DAV:  12    -0.697833359971E+03    0.40147E-03   -0.83535E-04 13908   0.891E-02    0.302E-02
DAV:  13    -0.697833197702E+03    0.16227E-03   -0.12098E-04  9692   0.727E-02    0.342E-02
DAV:  14    -0.697833157220E+03    0.40482E-04   -0.26478E-04 11940   0.622E-02
    464 T=   199. E= -.70239007E+03 F= -.70609527E+03 E0= -.70609527E+03  EK= 0.37052E+01 SP= 0.00E+00 SK= 0.00E+00
    465 T=   196. E= -.70248036E+03 F= -.70612823E+03 E0= -.70612823E+03  EK= 0.36479E+01 SP= 0.00E+00 SK= 0.00E+00
    466 T=   200. E= -.70248562E+03 F= -.70621228E+03 E0= -.70621228E+03  EK= 0.37267E+01 SP= 0.00E+00 SK= 0.00E+00
    467 T=   202. E= -.70248561E+03 F= -.70623983E+03 E0= -.70623983E+03  EK= 0.37542E+01 SP= 0.00E+00 SK= 0.00E+00
    468 T=   199. E= -.70251354E+03 F= -.70622585E+03 E0= -.70622585E+03  EK= 0.37123E+01 SP= 0.00E+00 SK= 0.00E+00
    469 T=   198. E= -.70248476E+03 F= -.70617695E+03 E0= -.70617695E+03  EK= 0.36922E+01 SP= 0.00E+00 SK= 0.00E+00
    470 T=   199. E= -.70240039E+03 F= -.70611174E+03 E0= -.70611174E+03  EK= 0.37114E+01 SP= 0.00E+00 SK= 0.00E+00
    471 T=   200. E= -.70234934E+03 F= -.70607029E+03 E0= -.70607029E+03  EK= 0.37210E+01 SP= 0.00E+00 SK= 0.00E+00
    472 T=   201. E= -.70233091E+03 F= -.70607690E+03 E0= -.70607690E+03  EK= 0.37460E+01 SP= 0.00E+00 SK= 0.00E+00
    473 T=   205. E= -.70230930E+03 F= -.70613401E+03 E0= -.70613401E+03  EK= 0.38247E+01 SP= 0.00E+00 SK= 0.00E+00
       N       E                     dE             d eps       ncg     rms          rms(c)
DAV:   1    -0.694392936055E+03    0.34403E+01   -0.16358E+03 12190   0.915E+01
DAV:   2    -0.698489266089E+03   -0.40963E+01   -0.40954E+01 14276   0.132E+01
DAV:   3    -0.698532456450E+03   -0.43190E-01   -0.43188E-01 14628   0.138E+00
DAV:   4    -0.698533445582E+03   -0.98913E-03   -0.98911E-03 14364   0.201E-01    0.777E+00
DAV:   5    -0.697972667574E+03    0.56078E+00   -0.11717E+00 14780   0.319E+00    0.424E+00
DAV:   6    -0.697928572232E+03    0.44095E-01   -0.92585E-01 14644   0.248E+00    0.125E+00
DAV:   7    -0.697939247686E+03   -0.10675E-01   -0.18628E-01 14140   0.131E+00    0.486E-01
DAV:   8    -0.697937049397E+03    0.21983E-02   -0.22639E-02 14068   0.440E-01    0.241E-01
DAV:   9    -0.697935175949E+03    0.18734E-02   -0.76108E-03 13964   0.237E-01    0.127E-01
DAV:  10    -0.697934142962E+03    0.10330E-02   -0.15121E-03 16340   0.176E-01    0.489E-02
DAV:  11    -0.697933788987E+03    0.35398E-03   -0.12427E-03 14124   0.122E-01    0.502E-02
DAV:  12    -0.697933499281E+03    0.28971E-03   -0.28289E-04 11676   0.812E-02    0.189E-02
DAV:  13    -0.697933349325E+03    0.14996E-03   -0.17305E-04 10012   0.838E-02    0.264E-02
DAV:  14    -0.697933331560E+03    0.17765E-04   -0.23120E-04 11532   0.519E-02
    474 T=   213. E= -.70224260E+03 F= -.70620012E+03 E0= -.70620012E+03  EK= 0.39575E+01 SP= 0.00E+00 SK= 0.00E+00
    475 T=   219. E= -.70218115E+03 F= -.70626562E+03 E0= -.70626562E+03  EK= 0.40845E+01 SP= 0.00E+00 SK= 0.00E+00
    476 T=   219. E= -.70219068E+03 F= -.70625883E+03 E0= -.70625883E+03  EK= 0.40682E+01 SP= 0.00E+00 SK= 0.00E+00
    477 T=   214. E= -.70222330E+03 F= -.70621186E+03 E0= -.70621186E+03  EK= 0.39886E+01 SP= 0.00E+00 SK= 0.00E+00
    478 T=   208. E= -.70227058E+03 F= -.70614347E+03 E0= -.70614347E+03  EK= 0.38729E+01 SP= 0.00E+00 SK= 0.00E+00
    479 T=   206. E= -.70227918E+03 F= -.70610823E+03 E0= -.70610823E+03  EK= 0.38291E+01 SP= 0.00E+00 SK= 0.00E+00
    480 T=   209. E= -.70222381E+03 F= -.70610609E+03 E0= -.70610609E+03  EK= 0.38823E+01 SP= 0.00E+00 SK= 0.00E+00
    481 T=   206. E= -.70227053E+03 F= -.70609592E+03 E0= -.70609592E+03  EK= 0.38254E+01 SP= 0.00E+00 SK= 0.00E+00
    482 T=   203. E= -.70231484E+03 F= -.70610240E+03 E0= -.70610240E+03  EK= 0.37876E+01 SP= 0.00E+00 SK= 0.00E+00
    483 T=   202. E= -.70233092E+03 F= -.70608939E+03 E0= -.70608939E+03  EK= 0.37585E+01 SP= 0.00E+00 SK= 0.00E+00
       N       E                     dE             d eps       ncg     rms          rms(c)
DAV:   1    -0.694132096796E+03    0.38013E+01   -0.15670E+03 12190   0.890E+01
DAV:   2    -0.698276832689E+03   -0.41447E+01   -0.41438E+01 14252   0.131E+01
DAV:   3    -0.698320364839E+03   -0.43532E-01   -0.43531E-01 14620   0.138E+00
DAV:   4    -0.698321329865E+03   -0.96503E-03   -0.96501E-03 14372   0.198E-01    0.778E+00
DAV:   5    -0.697839600651E+03    0.48173E+00   -0.10817E+00 15508   0.319E+00    0.429E+00
DAV:   6    -0.697830262107E+03    0.93385E-02   -0.84356E-01 14428   0.242E+00    0.126E+00
DAV:   7    -0.697841489784E+03   -0.11228E-01   -0.16515E-01 14260   0.127E+00    0.438E-01
DAV:   8    -0.697839786542E+03    0.17032E-02   -0.21659E-02 14292   0.403E-01    0.251E-01
DAV:   9    -0.697837668184E+03    0.21184E-02   -0.99510E-03 13932   0.281E-01    0.155E-01
DAV:  10    -0.697836323919E+03    0.13443E-02   -0.22236E-03 16964   0.216E-01    0.553E-02
DAV:  11    -0.697835888373E+03    0.43555E-03   -0.15924E-03 14396   0.145E-01    0.508E-02
DAV:  12    -0.697835509854E+03    0.37852E-03   -0.28078E-04 11860   0.103E-01    0.207E-02
DAV:  13    -0.697835343807E+03    0.16605E-03   -0.25998E-04 11892   0.976E-02    0.230E-02
DAV:  14    -0.697835339050E+03    0.47565E-05   -0.31216E-04 12852   0.558E-02
    484 T=   198. E= -.70241496E+03 F= -.70610300E+03 E0= -.70610300E+03  EK= 0.36880E+01 SP= 0.00E+00 SK= 0.00E+00
    485 T=   196. E= -.70240665E+03 F= -.70605555E+03 E0= -.70605555E+03  EK= 0.36489E+01 SP= 0.00E+00 SK= 0.00E+00
    486 T=   197. E= -.70236583E+03 F= -.70602766E+03 E0= -.70602766E+03  EK= 0.36618E+01 SP= 0.00E+00 SK= 0.00E+00
    487 T=   195. E= -.70237083E+03 F= -.70600831E+03 E0= -.70600831E+03  EK= 0.36375E+01 SP= 0.00E+00 SK= 0.00E+00
    488 T=   195. E= -.70237785E+03 F= -.70601469E+03 E0= -.70601469E+03  EK= 0.36368E+01 SP= 0.00E+00 SK= 0.00E+00
    489 T=   199. E= -.70238292E+03 F= -.70608029E+03 E0= -.70608029E+03  EK= 0.36974E+01 SP= 0.00E+00 SK= 0.00E+00
    490 T=   202. E= -.70240059E+03 F= -.70616310E+03 E0= -.70616310E+03  EK= 0.37625E+01 SP= 0.00E+00 SK= 0.00E+00
    491 T=   204. E= -.70241240E+03 F= -.70621108E+03 E0= -.70621108E+03  EK= 0.37987E+01 SP= 0.00E+00 SK= 0.00E+00
    492 T=   200. E= -.70247953E+03 F= -.70620081E+03 E0= -.70620081E+03  EK= 0.37213E+01 SP= 0.00E+00 SK= 0.00E+00
    493 T=   196. E= -.70249878E+03 F= -.70615630E+03 E0= -.70615630E+03  EK= 0.36575E+01 SP= 0.00E+00 SK= 0.00E+00
       N       E                     dE             d eps       ncg     rms          rms(c)
DAV:   1    -0.694225309781E+03    0.36100E+01   -0.15635E+03 12190   0.887E+01
DAV:   2    -0.698342521170E+03   -0.41172E+01   -0.41163E+01 14324   0.131E+01
DAV:   3    -0.698384924297E+03   -0.42403E-01   -0.42401E-01 14620   0.136E+00
DAV:   4    -0.698385886345E+03   -0.96205E-03   -0.96202E-03 14356   0.195E-01    0.757E+00
DAV:   5    -0.697856423063E+03    0.52946E+00   -0.11478E+00 15052   0.325E+00    0.410E+00
DAV:   6    -0.697826920814E+03    0.29502E-01   -0.88699E-01 14636   0.250E+00    0.126E+00
DAV:   7    -0.697837177145E+03   -0.10256E-01   -0.17213E-01 13996   0.118E+00    0.464E-01
DAV:   8    -0.697833784909E+03    0.33922E-02   -0.17188E-02 14324   0.409E-01    0.219E-01
DAV:   9    -0.697831324145E+03    0.24608E-02   -0.60205E-03 13836   0.236E-01    0.111E-01
DAV:  10    -0.697830131640E+03    0.11925E-02   -0.15742E-03 16228   0.173E-01    0.432E-02
DAV:  11    -0.697829670127E+03    0.46151E-03   -0.77620E-04 14092   0.108E-01    0.397E-02
DAV:  12    -0.697829291246E+03    0.37888E-03   -0.20587E-04 10956   0.105E-01    0.156E-02
DAV:  13    -0.697829226748E+03    0.64498E-04   -0.36442E-04 13228   0.809E-02
    494 T=   197. E= -.70243695E+03 F= -.70611177E+03 E0= -.70611177E+03  EK= 0.36748E+01 SP= 0.00E+00 SK= 0.00E+00
    495 T=   199. E= -.70241979E+03 F= -.70611573E+03 E0= -.70611573E+03  EK= 0.36959E+01 SP= 0.00E+00 SK= 0.00E+00
    496 T=   198. E= -.70245243E+03 F= -.70614666E+03 E0= -.70614666E+03  EK= 0.36942E+01 SP= 0.00E+00 SK= 0.00E+00
    497 T=   201. E= -.70246381E+03 F= -.70619719E+03 E0= -.70619719E+03  EK= 0.37334E+01 SP= 0.00E+00 SK= 0.00E+00
    498 T=   205. E= -.70243468E+03 F= -.70625465E+03 E0= -.70625465E+03  EK= 0.38200E+01 SP= 0.00E+00 SK= 0.00E+00
    499 T=   211. E= -.70238899E+03 F= -.70631292E+03 E0= -.70631292E+03  EK= 0.39239E+01 SP= 0.00E+00 SK= 0.00E+00
    500 T=   211. E= -.70237324E+03 F= -.70630503E+03 E0= -.70630503E+03  EK= 0.39318E+01 SP= 0.00E+00 SK= 0.00E+00
    501 T=   206. E= -.70236942E+03 F= -.70619542E+03 E0= -.70619542E+03  EK= 0.38260E+01 SP= 0.00E+00 SK= 0.00E+00
    502 T=   199. E= -.70234201E+03 F= -.70603910E+03 E0= -.70603910E+03  EK= 0.36971E+01 SP= 0.00E+00 SK= 0.00E+00
    503 T=   194. E= -.70227902E+03 F= -.70588727E+03 E0= -.70588727E+03  EK= 0.36083E+01 SP= 0.00E+00 SK= 0.00E+00
       N       E                     dE             d eps       ncg     rms          rms(c)
DAV:   1    -0.693471021825E+03    0.43583E+01   -0.17419E+03 12190   0.938E+01
DAV:   2    -0.698175012394E+03   -0.47040E+01   -0.47030E+01 14260   0.140E+01
DAV:   3    -0.698222784777E+03   -0.47772E-01   -0.47770E-01 14636   0.145E+00
DAV:   4    -0.698223878326E+03   -0.10935E-02   -0.10935E-02 14388   0.208E-01    0.771E+00
DAV:   5    -0.697590825050E+03    0.63305E+00   -0.11669E+00 15284   0.332E+00    0.420E+00
DAV:   6    -0.697509569736E+03    0.81255E-01   -0.10230E+00 14716   0.283E+00    0.123E+00
DAV:   7    -0.697518991300E+03   -0.94216E-02   -0.22732E-01 14380   0.141E+00    0.535E-01
DAV:   8    -0.697515050311E+03    0.39410E-02   -0.26440E-02 14204   0.454E-01    0.260E-01
DAV:   9    -0.697511883152E+03    0.31672E-02   -0.83609E-03 14068   0.279E-01    0.142E-01
DAV:  10    -0.697509928625E+03    0.19545E-02   -0.24465E-03 16604   0.245E-01    0.567E-02
DAV:  11    -0.697509338577E+03    0.59005E-03   -0.19248E-03 14460   0.158E-01    0.630E-02
DAV:  12    -0.697508862104E+03    0.47647E-03   -0.58135E-04 13812   0.107E-01    0.275E-02
DAV:  13    -0.697508669761E+03    0.19234E-03   -0.23102E-04 11284   0.104E-01    0.366E-02
DAV:  14    -0.697508659732E+03    0.10029E-04   -0.42158E-04 13964   0.595E-02
    504 T=   196. E= -.70215384E+03 F= -.70579407E+03 E0= -.70579407E+03  EK= 0.36402E+01 SP= 0.00E+00 SK= 0.00E+00
    505 T=   202. E= -.70210694E+03 F= -.70586467E+03 E0= -.70586467E+03  EK= 0.37577E+01 SP= 0.00E+00 SK= 0.00E+00
    506 T=   207. E= -.70211027E+03 F= -.70596736E+03 E0= -.70596736E+03  EK= 0.38571E+01 SP= 0.00E+00 SK= 0.00E+00
    507 T=   213. E= -.70209740E+03 F= -.70605395E+03 E0= -.70605395E+03  EK= 0.39565E+01 SP= 0.00E+00 SK= 0.00E+00
    508 T=   215. E= -.70207993E+03 F= -.70608373E+03 E0= -.70608373E+03  EK= 0.40038E+01 SP= 0.00E+00 SK= 0.00E+00
    509 T=   212. E= -.70207811E+03 F= -.70603005E+03 E0= -.70603005E+03  EK= 0.39519E+01 SP= 0.00E+00 SK= 0.00E+00
    510 T=   210. E= -.70200974E+03 F= -.70591502E+03 E0= -.70591502E+03  EK= 0.39053E+01 SP= 0.00E+00 SK= 0.00E+00
    511 T=   209. E= -.70194824E+03 F= -.70584596E+03 E0= -.70584596E+03  EK= 0.38977E+01 SP= 0.00E+00 SK= 0.00E+00
    512 T=   209. E= -.70195711E+03 F= -.70584669E+03 E0= -.70584669E+03  EK= 0.38896E+01 SP= 0.00E+00 SK= 0.00E+00
    513 T=   210. E= -.70196834E+03 F= -.70588144E+03 E0= -.70588144E+03  EK= 0.39131E+01 SP= 0.00E+00 SK= 0.00E+00
       N       E                     dE             d eps       ncg     rms          rms(c)
DAV:   1    -0.694181967102E+03    0.33267E+01   -0.16145E+03 12190   0.906E+01
DAV:   2    -0.698230521533E+03   -0.40486E+01   -0.40476E+01 14380   0.131E+01
DAV:   3    -0.698273299452E+03   -0.42778E-01   -0.42776E-01 14628   0.137E+00
DAV:   4    -0.698274279613E+03   -0.98016E-03   -0.98014E-03 14364   0.198E-01    0.780E+00
DAV:   5    -0.697673045053E+03    0.60123E+00   -0.12784E+00 14860   0.343E+00    0.423E+00
DAV:   6    -0.697619034598E+03    0.54010E-01   -0.91797E-01 14652   0.264E+00    0.140E+00
DAV:   7    -0.697616356839E+03    0.26778E-02   -0.21092E-01 14220   0.155E+00    0.507E-01
DAV:   8    -0.697611053689E+03    0.53031E-02   -0.36824E-02 14508   0.543E-01    0.283E-01
DAV:   9    -0.697604773454E+03    0.62802E-02   -0.12079E-02 13900   0.337E-01    0.162E-01
DAV:  10    -0.697601989748E+03    0.27837E-02   -0.27283E-03 15972   0.279E-01    0.816E-02
DAV:  11    -0.697600726344E+03    0.12634E-02   -0.38199E-03 14220   0.263E-01    0.886E-02
DAV:  12    -0.697600099735E+03    0.62661E-03   -0.15339E-03 14548   0.150E-01    0.374E-02
DAV:  13    -0.697599829494E+03    0.27024E-03   -0.33422E-04 12644   0.104E-01    0.307E-02
DAV:  14    -0.697599777399E+03    0.52094E-04   -0.25710E-04 11564   0.770E-02
    514 T=   212. E= -.70195092E+03 F= -.70589877E+03 E0= -.70589877E+03  EK= 0.39478E+01 SP= 0.00E+00 SK= 0.00E+00
    515 T=   218. E= -.70191330E+03 F= -.70597291E+03 E0= -.70597291E+03  EK= 0.40596E+01 SP= 0.00E+00 SK= 0.00E+00
    516 T=   218. E= -.70191385E+03 F= -.70596843E+03 E0= -.70596843E+03  EK= 0.40546E+01 SP= 0.00E+00 SK= 0.00E+00
    517 T=   207. E= -.70205003E+03 F= -.70591150E+03 E0= -.70591150E+03  EK= 0.38615E+01 SP= 0.00E+00 SK= 0.00E+00
    518 T=   199. E= -.70215273E+03 F= -.70586237E+03 E0= -.70586237E+03  EK= 0.37096E+01 SP= 0.00E+00 SK= 0.00E+00
    519 T=   197. E= -.70218774E+03 F= -.70586038E+03 E0= -.70586038E+03  EK= 0.36726E+01 SP= 0.00E+00 SK= 0.00E+00
    520 T=   203. E= -.70213128E+03 F= -.70590649E+03 E0= -.70590649E+03  EK= 0.37752E+01 SP= 0.00E+00 SK= 0.00E+00
    521 T=   209. E= -.70208079E+03 F= -.70597931E+03 E0= -.70597931E+03  EK= 0.38985E+01 SP= 0.00E+00 SK= 0.00E+00
    522 T=   217. E= -.70203540E+03 F= -.70608280E+03 E0= -.70608280E+03  EK= 0.40474E+01 SP= 0.00E+00 SK= 0.00E+00
    523 T=   224. E= -.70197172E+03 F= -.70613985E+03 E0= -.70613985E+03  EK= 0.41681E+01 SP= 0.00E+00 SK= 0.00E+00
       N       E                     dE             d eps       ncg     rms          rms(c)
DAV:   1    -0.693751762660E+03    0.38481E+01   -0.17164E+03 12190   0.932E+01
DAV:   2    -0.698340084645E+03   -0.45883E+01   -0.45873E+01 14380   0.138E+01
DAV:   3    -0.698386123777E+03   -0.46039E-01   -0.46037E-01 14612   0.144E+00
DAV:   4    -0.698387142472E+03   -0.10187E-02   -0.10187E-02 14404   0.206E-01    0.787E+00
DAV:   5    -0.697824948779E+03    0.56219E+00   -0.10476E+00 15332   0.319E+00    0.435E+00
DAV:   6    -0.697776041817E+03    0.48907E-01   -0.10215E+00 14668   0.276E+00    0.117E+00
DAV:   7    -0.697789092416E+03   -0.13051E-01   -0.19308E-01 14180   0.123E+00    0.475E-01
DAV:   8    -0.697787205514E+03    0.18869E-02   -0.17714E-02 14180   0.362E-01    0.247E-01
DAV:   9    -0.697785343253E+03    0.18623E-02   -0.67904E-03 14116   0.282E-01    0.131E-01
DAV:  10    -0.697784207773E+03    0.11355E-02   -0.18956E-03 15908   0.189E-01    0.489E-02
DAV:  11    -0.697783824281E+03    0.38349E-03   -0.11255E-03 14340   0.120E-01    0.445E-02
DAV:  12    -0.697783483208E+03    0.34107E-03   -0.26741E-04 11564   0.101E-01    0.190E-02
DAV:  13    -0.697783350936E+03    0.13227E-03   -0.20798E-04 10612   0.902E-02    0.251E-02
DAV:  14    -0.697783346604E+03    0.43322E-05   -0.30284E-04 12852   0.521E-02
    524 T=   224. E= -.70191031E+03 F= -.70607105E+03 E0= -.70607105E+03  EK= 0.41607E+01 SP= 0.00E+00 SK= 0.00E+00
    525 T=   221. E= -.70189240E+03 F= -.70601218E+03 E0= -.70601218E+03  EK= 0.41198E+01 SP= 0.00E+00 SK= 0.00E+00
    526 T=   217. E= -.70190964E+03 F= -.70595762E+03 E0= -.70595762E+03  EK= 0.40480E+01 SP= 0.00E+00 SK= 0.00E+00
    527 T=   219. E= -.70194738E+03 F= -.70601906E+03 E0= -.70601906E+03  EK= 0.40717E+01 SP= 0.00E+00 SK= 0.00E+00
    528 T=   229. E= -.70190937E+03 F= -.70617073E+03 E0= -.70617073E+03  EK= 0.42614E+01 SP= 0.00E+00 SK= 0.00E+00
    529 T=   236. E= -.70189852E+03 F= -.70629455E+03 E0= -.70629455E+03  EK= 0.43960E+01 SP= 0.00E+00 SK= 0.00E+00
    530 T=   236. E= -.70190068E+03 F= -.70629284E+03 E0= -.70629284E+03  EK= 0.43922E+01 SP= 0.00E+00 SK= 0.00E+00
    531 T=   231. E= -.70187799E+03 F= -.70618160E+03 E0= -.70618160E+03  EK= 0.43036E+01 SP= 0.00E+00 SK= 0.00E+00
    532 T=   221. E= -.70188854E+03 F= -.70600829E+03 E0= -.70600829E+03  EK= 0.41197E+01 SP= 0.00E+00 SK= 0.00E+00
    533 T=   214. E= -.70189344E+03 F= -.70587841E+03 E0= -.70587841E+03  EK= 0.39850E+01 SP= 0.00E+00 SK= 0.00E+00
       N       E                     dE             d eps       ncg     rms          rms(c)
DAV:   1    -0.693800859287E+03    0.39825E+01   -0.17147E+03 12190   0.933E+01
DAV:   2    -0.698159068294E+03   -0.43582E+01   -0.43572E+01 14292   0.136E+01
DAV:   3    -0.698203435155E+03   -0.44367E-01   -0.44365E-01 14620   0.141E+00
DAV:   4    -0.698204429574E+03   -0.99442E-03   -0.99439E-03 14372   0.204E-01    0.816E+00
DAV:   5    -0.697620529473E+03    0.58390E+00   -0.11843E+00 14684   0.323E+00    0.450E+00
DAV:   6    -0.697565906840E+03    0.54623E-01   -0.99359E-01 14668   0.264E+00    0.127E+00
DAV:   7    -0.697571378766E+03   -0.54719E-02   -0.21909E-01 14236   0.144E+00    0.521E-01
DAV:   8    -0.697566789427E+03    0.45893E-02   -0.28889E-02 14092   0.476E-01    0.275E-01
DAV:   9    -0.697562265211E+03    0.45242E-02   -0.98358E-03 13900   0.289E-01    0.142E-01
DAV:  10    -0.697560083319E+03    0.21819E-02   -0.22327E-03 15932   0.237E-01    0.697E-02
DAV:  11    -0.697559336339E+03    0.74698E-03   -0.28407E-03 14284   0.188E-01    0.786E-02
DAV:  12    -0.697558781175E+03    0.55516E-03   -0.10098E-03 14276   0.124E-01    0.311E-02
DAV:  13    -0.697558588398E+03    0.19278E-03   -0.25944E-04 11140   0.907E-02    0.378E-02
DAV:  14    -0.697558548899E+03    0.39499E-04   -0.35144E-04 13444   0.665E-02
    534 T=   209. E= -.70197540E+03 F= -.70586642E+03 E0= -.70586642E+03  EK= 0.38910E+01 SP= 0.00E+00 SK= 0.00E+00
    535 T=   209. E= -.70207534E+03 F= -.70597423E+03 E0= -.70597423E+03  EK= 0.38989E+01 SP= 0.00E+00 SK= 0.00E+00
    536 T=   212. E= -.70216827E+03 F= -.70611014E+03 E0= -.70611014E+03  EK= 0.39419E+01 SP= 0.00E+00 SK= 0.00E+00
    537 T=   212. E= -.70222868E+03 F= -.70618305E+03 E0= -.70618305E+03  EK= 0.39544E+01 SP= 0.00E+00 SK= 0.00E+00
    538 T=   211. E= -.70223188E+03 F= -.70616001E+03 E0= -.70616001E+03  EK= 0.39281E+01 SP= 0.00E+00 SK= 0.00E+00
    539 T=   208. E= -.70221846E+03 F= -.70608867E+03 E0= -.70608867E+03  EK= 0.38702E+01 SP= 0.00E+00 SK= 0.00E+00
    540 T=   204. E= -.70219686E+03 F= -.70599596E+03 E0= -.70599596E+03  EK= 0.37991E+01 SP= 0.00E+00 SK= 0.00E+00
    541 T=   198. E= -.70224986E+03 F= -.70593166E+03 E0= -.70593166E+03  EK= 0.36818E+01 SP= 0.00E+00 SK= 0.00E+00
    542 T=   191. E= -.70233784E+03 F= -.70589948E+03 E0= -.70589948E+03  EK= 0.35616E+01 SP= 0.00E+00 SK= 0.00E+00
    543 T=   196. E= -.70233361E+03 F= -.70597810E+03 E0= -.70597810E+03  EK= 0.36445E+01 SP= 0.00E+00 SK= 0.00E+00
       N       E                     dE             d eps       ncg     rms          rms(c)
DAV:   1    -0.693357213917E+03    0.42014E+01   -0.19371E+03 12190   0.990E+01
DAV:   2    -0.698569688249E+03   -0.52125E+01   -0.52114E+01 14236   0.147E+01
DAV:   3    -0.698624034152E+03   -0.54346E-01   -0.54344E-01 14620   0.157E+00
DAV:   4    -0.698625271303E+03   -0.12372E-02   -0.12371E-02 14380   0.225E-01    0.819E+00
DAV:   5    -0.697907890281E+03    0.71738E+00   -0.12651E+00 15268   0.350E+00    0.446E+00
DAV:   6    -0.697807087146E+03    0.10080E+00   -0.11240E+00 14716   0.284E+00    0.127E+00
DAV:   7    -0.697816220950E+03   -0.91338E-02   -0.24553E-01 14268   0.146E+00    0.552E-01
DAV:   8    -0.697812476455E+03    0.37445E-02   -0.25442E-02 14124   0.458E-01    0.317E-01
DAV:   9    -0.697809168684E+03    0.33078E-02   -0.15434E-02 13868   0.340E-01    0.191E-01
DAV:  10    -0.697807312235E+03    0.18564E-02   -0.30732E-03 16964   0.239E-01    0.732E-02
DAV:  11    -0.697806785401E+03    0.52683E-03   -0.23554E-03 14100   0.155E-01    0.615E-02
DAV:  12    -0.697806340122E+03    0.44528E-03   -0.42894E-04 13500   0.100E-01    0.283E-02
DAV:  13    -0.697806117626E+03    0.22250E-03   -0.24343E-04 10972   0.859E-02    0.229E-02
DAV:  14    -0.697806092523E+03    0.25104E-04   -0.21959E-04 11092   0.528E-02
    544 T=   208. E= -.70223052E+03 F= -.70609602E+03 E0= -.70609602E+03  EK= 0.38655E+01 SP= 0.00E+00 SK= 0.00E+00
    545 T=   214. E= -.70226465E+03 F= -.70624530E+03 E0= -.70624530E+03  EK= 0.39806E+01 SP= 0.00E+00 SK= 0.00E+00
    546 T=   213. E= -.70228095E+03 F= -.70624128E+03 E0= -.70624128E+03  EK= 0.39603E+01 SP= 0.00E+00 SK= 0.00E+00
    547 T=   210. E= -.70225712E+03 F= -.70615955E+03 E0= -.70615955E+03  EK= 0.39024E+01 SP= 0.00E+00 SK= 0.00E+00
    548 T=   205. E= -.70222129E+03 F= -.70603701E+03 E0= -.70603701E+03  EK= 0.38157E+01 SP= 0.00E+00 SK= 0.00E+00
    549 T=   203. E= -.70218878E+03 F= -.70596537E+03 E0= -.70596537E+03  EK= 0.37766E+01 SP= 0.00E+00 SK= 0.00E+00
    550 T=   199. E= -.70227735E+03 F= -.70597740E+03 E0= -.70597740E+03  EK= 0.37000E+01 SP= 0.00E+00 SK= 0.00E+00
    551 T=   199. E= -.70234211E+03 F= -.70604057E+03 E0= -.70604057E+03  EK= 0.36985E+01 SP= 0.00E+00 SK= 0.00E+00
    552 T=   203. E= -.70234171E+03 F= -.70612101E+03 E0= -.70612101E+03  EK= 0.37793E+01 SP= 0.00E+00 SK= 0.00E+00
    553 T=   207. E= -.70230843E+03 F= -.70616284E+03 E0= -.70616284E+03  EK= 0.38544E+01 SP= 0.00E+00 SK= 0.00E+00
       N       E                     dE             d eps       ncg     rms          rms(c)
DAV:   1    -0.693557242861E+03    0.42489E+01   -0.18672E+03 12190   0.969E+01
DAV:   2    -0.698423014847E+03   -0.48658E+01   -0.48648E+01 14252   0.142E+01
DAV:   3    -0.698473775674E+03   -0.50761E-01   -0.50759E-01 14628   0.151E+00
DAV:   4    -0.698474910361E+03   -0.11347E-02   -0.11347E-02 14364   0.215E-01    0.771E+00
DAV:   5    -0.697892454842E+03    0.58246E+00   -0.10246E+00 15276   0.322E+00    0.429E+00
DAV:   6    -0.697819943000E+03    0.72512E-01   -0.10597E+00 14668   0.284E+00    0.116E+00
DAV:   7    -0.697828336824E+03   -0.83938E-02   -0.19999E-01 13860   0.125E+00    0.501E-01
DAV:   8    -0.697825668604E+03    0.26682E-02   -0.20968E-02 14268   0.375E-01    0.255E-01
DAV:   9    -0.697823687923E+03    0.19807E-02   -0.66962E-03 13884   0.263E-01    0.133E-01
DAV:  10    -0.697822480363E+03    0.12076E-02   -0.15962E-03 15540   0.169E-01    0.494E-02
DAV:  11    -0.697822142996E+03    0.33737E-03   -0.10777E-03 14532   0.109E-01    0.414E-02
DAV:  12    -0.697821922726E+03    0.22027E-03   -0.22878E-04 10540   0.685E-02    0.189E-02
DAV:  13    -0.697821824401E+03    0.98325E-04   -0.13816E-04  9684   0.611E-02
    554 T=   210. E= -.70218708E+03 F= -.70610277E+03 E0= -.70610277E+03  EK= 0.39157E+01 SP= 0.00E+00 SK= 0.00E+00
    555 T=   212. E= -.70217576E+03 F= -.70612964E+03 E0= -.70612964E+03  EK= 0.39539E+01 SP= 0.00E+00 SK= 0.00E+00
    556 T=   211. E= -.70210057E+03 F= -.70602693E+03 E0= -.70602693E+03  EK= 0.39264E+01 SP= 0.00E+00 SK= 0.00E+00
    557 T=   202. E= -.70210053E+03 F= -.70586839E+03 E0= -.70586839E+03  EK= 0.37679E+01 SP= 0.00E+00 SK= 0.00E+00
    558 T=   195. E= -.70210770E+03 F= -.70574145E+03 E0= -.70574145E+03  EK= 0.36338E+01 SP= 0.00E+00 SK= 0.00E+00
    559 T=   194. E= -.70208960E+03 F= -.70570624E+03 E0= -.70570624E+03  EK= 0.36166E+01 SP= 0.00E+00 SK= 0.00E+00
    560 T=   200. E= -.70205038E+03 F= -.70578074E+03 E0= -.70578074E+03  EK= 0.37304E+01 SP= 0.00E+00 SK= 0.00E+00
    561 T=   208. E= -.70202716E+03 F= -.70590364E+03 E0= -.70590364E+03  EK= 0.38765E+01 SP= 0.00E+00 SK= 0.00E+00
    562 T=   211. E= -.70207873E+03 F= -.70600579E+03 E0= -.70600579E+03  EK= 0.39271E+01 SP= 0.00E+00 SK= 0.00E+00
    563 T=   209. E= -.70217533E+03 F= -.70606163E+03 E0= -.70606163E+03  EK= 0.38863E+01 SP= 0.00E+00 SK= 0.00E+00
    564 T=   208. E= -.70219119E+03 F= -.70607094E+03 E0= -.70607094E+03  EK= 0.38797E+01 SP= 0.00E+00 SK= 0.00E+00
       N       E                     dE             d eps       ncg     rms          rms(c)
DAV:   1    -0.692733676746E+03    0.50882E+01   -0.20739E+03 12190   0.102E+02
DAV:   2    -0.698419552116E+03   -0.56859E+01   -0.56846E+01 14268   0.153E+01
DAV:   3    -0.698476834764E+03   -0.57283E-01   -0.57280E-01 14636   0.161E+00
DAV:   4    -0.698478091992E+03   -0.12572E-02   -0.12572E-02 14396   0.229E-01    0.821E+00
DAV:   5    -0.697836598910E+03    0.64149E+00   -0.11625E+00 15020   0.325E+00    0.456E+00
DAV:   6    -0.697782506461E+03    0.54092E-01   -0.12006E+00 14636   0.281E+00    0.119E+00
DAV:   7    -0.697795682944E+03   -0.13176E-01   -0.21262E-01 13892   0.131E+00    0.486E-01
DAV:   8    -0.697794070033E+03    0.16129E-02   -0.21373E-02 14236   0.386E-01    0.266E-01
DAV:   9    -0.697792464585E+03    0.16054E-02   -0.96459E-03 13788   0.282E-01    0.160E-01
DAV:  10    -0.697791269806E+03    0.11948E-02   -0.23605E-03 16388   0.197E-01    0.472E-02
DAV:  11    -0.697790998122E+03    0.27168E-03   -0.11114E-03 14332   0.104E-01    0.387E-02
DAV:  12    -0.697790727197E+03    0.27093E-03   -0.16225E-04 10132   0.739E-02    0.156E-02
DAV:  13    -0.697790637706E+03    0.89492E-04   -0.22834E-04 10956   0.718E-02
    565 T=   211. E= -.70212592E+03 F= -.70605969E+03 E0= -.70605969E+03  EK= 0.39338E+01 SP= 0.00E+00 SK= 0.00E+00
    566 T=   211. E= -.70211326E+03 F= -.70603387E+03 E0= -.70603387E+03  EK= 0.39206E+01 SP= 0.00E+00 SK= 0.00E+00
    567 T=   208. E= -.70212436E+03 F= -.70600054E+03 E0= -.70600054E+03  EK= 0.38762E+01 SP= 0.00E+00 SK= 0.00E+00
    568 T=   206. E= -.70213828E+03 F= -.70596966E+03 E0= -.70596966E+03  EK= 0.38314E+01 SP= 0.00E+00 SK= 0.00E+00
    569 T=   202. E= -.70221055E+03 F= -.70597932E+03 E0= -.70597932E+03  EK= 0.37688E+01 SP= 0.00E+00 SK= 0.00E+00
    570 T=   203. E= -.70229049E+03 F= -.70607043E+03 E0= -.70607043E+03  EK= 0.37799E+01 SP= 0.00E+00 SK= 0.00E+00
    571 T=   207. E= -.70232253E+03 F= -.70617389E+03 E0= -.70617389E+03  EK= 0.38514E+01 SP= 0.00E+00 SK= 0.00E+00
    572 T=   214. E= -.70227669E+03 F= -.70626032E+03 E0= -.70626032E+03  EK= 0.39836E+01 SP= 0.00E+00 SK= 0.00E+00
    573 T=   219. E= -.70222258E+03 F= -.70629526E+03 E0= -.70629526E+03  EK= 0.40727E+01 SP= 0.00E+00 SK= 0.00E+00
    574 T=   217. E= -.70217836E+03 F= -.70622292E+03 E0= -.70622292E+03  EK= 0.40446E+01 SP= 0.00E+00 SK= 0.00E+00
    575 T=   213. E= -.70211095E+03 F= -.70607651E+03 E0= -.70607651E+03  EK= 0.39656E+01 SP= 0.00E+00 SK= 0.00E+00
    576 T=   207. E= -.70206055E+03 F= -.70590822E+03 E0= -.70590822E+03  EK= 0.38477E+01 SP= 0.00E+00 SK= 0.00E+00
    577 T=   207. E= -.70199377E+03 F= -.70584590E+03 E0= -.70584590E+03  EK= 0.38521E+01 SP= 0.00E+00 SK= 0.00E+00
    578 T=   212. E= -.70193528E+03 F= -.70588279E+03 E0= -.70588279E+03  EK= 0.39475E+01 SP= 0.00E+00 SK= 0.00E+00
    579 T=   221. E= -.70190052E+03 F= -.70600875E+03 E0= -.70600875E+03  EK= 0.41082E+01 SP= 0.00E+00 SK= 0.00E+00
    580 T=   225. E= -.70195011E+03 F= -.70614423E+03 E0= -.70614423E+03  EK= 0.41941E+01 SP= 0.00E+00 SK= 0.00E+00
    581 T=   225. E= -.70204765E+03 F= -.70623372E+03 E0= -.70623372E+03  EK= 0.41861E+01 SP= 0.00E+00 SK= 0.00E+00
    582 T=   221. E= -.70212668E+03 F= -.70624190E+03 E0= -.70624190E+03  EK= 0.41152E+01 SP= 0.00E+00 SK= 0.00E+00
    583 T=   216. E= -.70214726E+03 F= -.70617142E+03 E0= -.70617142E+03  EK= 0.40242E+01 SP= 0.00E+00 SK= 0.00E+00
    584 T=   215. E= -.70207287E+03 F= -.70607416E+03 E0= -.70607416E+03  EK= 0.40013E+01 SP= 0.00E+00 SK= 0.00E+00
    585 T=   216. E= -.70199193E+03 F= -.70602083E+03 E0= -.70602083E+03  EK= 0.40289E+01 SP= 0.00E+00 SK= 0.00E+00
    586 T=   225. E= -.70189415E+03 F= -.70608058E+03 E0= -.70608058E+03  EK= 0.41864E+01 SP= 0.00E+00 SK= 0.00E+00
    587 T=   234. E= -.70184871E+03 F= -.70620751E+03 E0= -.70620751E+03  EK= 0.43588E+01 SP= 0.00E+00 SK= 0.00E+00
    588 T=   238. E= -.70188743E+03 F= -.70632515E+03 E0= -.70632515E+03  EK= 0.44377E+01 SP= 0.00E+00 SK= 0.00E+00
    589 T=   237. E= -.70194661E+03 F= -.70636003E+03 E0= -.70636003E+03  EK= 0.44134E+01 SP= 0.00E+00 SK= 0.00E+00
       N       E                     dE             d eps       ncg     rms          rms(c)
DAV:   1    -0.666079946266E+03    0.31711E+02   -0.73786E+03 12190   0.190E+02
DAV:   2    -0.699435881355E+03   -0.33356E+02   -0.33340E+02 14204   0.351E+01
DAV:   3    -0.699789830531E+03   -0.35395E+00   -0.35392E+00 14588   0.412E+00
DAV:   4    -0.699796567531E+03   -0.67370E-02   -0.67367E-02 14268   0.544E-01    0.148E+01
DAV:   5    -0.698092759135E+03    0.17038E+01   -0.29054E+00 13836   0.471E+00    0.850E+00
DAV:   6    -0.697967777819E+03    0.12498E+00   -0.38109E+00 14644   0.505E+00    0.182E+00
DAV:   7    -0.698013179497E+03   -0.45402E-01   -0.68326E-01 13964   0.217E+00    0.908E-01
DAV:   8    -0.698009195417E+03    0.39841E-02   -0.60593E-02 14172   0.605E-01    0.483E-01
DAV:   9    -0.698004815419E+03    0.43800E-02   -0.18565E-02 13868   0.411E-01    0.227E-01
DAV:  10    -0.698001670686E+03    0.31447E-02   -0.40460E-03 14340   0.276E-01    0.921E-02
DAV:  11    -0.698000740330E+03    0.93036E-03   -0.39014E-03 14236   0.197E-01    0.756E-02
DAV:  12    -0.697999890363E+03    0.84997E-03   -0.96752E-04 13628   0.127E-01    0.359E-02
DAV:  13    -0.697999595642E+03    0.29472E-03   -0.44005E-04 13172   0.110E-01    0.520E-02
DAV:  14    -0.697999522926E+03    0.72715E-04   -0.56618E-04 14508   0.832E-02
    590 T=   231. E= -.70194447E+03 F= -.70625178E+03 E0= -.70625178E+03  EK= 0.43073E+01 SP= 0.00E+00 SK= 0.00E+00
    591 T=   221. E= -.70196989E+03 F= -.70607700E+03 E0= -.70607700E+03  EK= 0.41071E+01 SP= 0.00E+00 SK= 0.00E+00
    592 T=   206. E= -.70201858E+03 F= -.70585875E+03 E0= -.70585875E+03  EK= 0.38402E+01 SP= 0.00E+00 SK= 0.00E+00
    593 T=   202. E= -.70197409E+03 F= -.70574255E+03 E0= -.70574255E+03  EK= 0.37685E+01 SP= 0.00E+00 SK= 0.00E+00
    594 T=   209. E= -.70189632E+03 F= -.70578997E+03 E0= -.70578997E+03  EK= 0.38937E+01 SP= 0.00E+00 SK= 0.00E+00
    595 T=   216. E= -.70188435E+03 F= -.70590488E+03 E0= -.70590488E+03  EK= 0.40205E+01 SP= 0.00E+00 SK= 0.00E+00
    596 T=   221. E= -.70188844E+03 F= -.70600990E+03 E0= -.70600990E+03  EK= 0.41215E+01 SP= 0.00E+00 SK= 0.00E+00
    597 T=   222. E= -.70190927E+03 F= -.70604122E+03 E0= -.70604122E+03  EK= 0.41320E+01 SP= 0.00E+00 SK= 0.00E+00
    598 T=   217. E= -.70190169E+03 F= -.70594246E+03 E0= -.70594246E+03  EK= 0.40408E+01 SP= 0.00E+00 SK= 0.00E+00
    599 T=   210. E= -.70184257E+03 F= -.70574717E+03 E0= -.70574717E+03  EK= 0.39046E+01 SP= 0.00E+00 SK= 0.00E+00
       N       E                     dE             d eps       ncg     rms          rms(c)
DAV:   1    -0.693740147689E+03    0.42594E+01   -0.15770E+03 12190   0.897E+01
DAV:   2    -0.697845682007E+03   -0.41055E+01   -0.41047E+01 14404   0.131E+01
DAV:   3    -0.697888429438E+03   -0.42747E-01   -0.42746E-01 14812   0.138E+00
DAV:   4    -0.697889304215E+03   -0.87478E-03   -0.87476E-03 14348   0.191E-01    0.802E+00
DAV:   5    -0.697322789016E+03    0.56652E+00   -0.12829E+00 14660   0.342E+00    0.438E+00
DAV:   6    -0.697287545987E+03    0.35243E-01   -0.86207E-01 14628   0.245E+00    0.139E+00
DAV:   7    -0.697295489437E+03   -0.79434E-02   -0.19062E-01 14316   0.139E+00    0.496E-01
DAV:   8    -0.697292105481E+03    0.33840E-02   -0.29017E-02 14060   0.498E-01    0.230E-01
DAV:   9    -0.697289552097E+03    0.25534E-02   -0.68549E-03 14004   0.226E-01    0.123E-01
DAV:  10    -0.697288032710E+03    0.15194E-02   -0.21754E-03 16468   0.223E-01    0.472E-02
DAV:  11    -0.697287586614E+03    0.44610E-03   -0.13102E-03 14276   0.123E-01    0.494E-02
DAV:  12    -0.697287171658E+03    0.41496E-03   -0.32546E-04 12588   0.949E-02    0.225E-02
DAV:  13    -0.697287095151E+03    0.76507E-04   -0.28615E-04 12068   0.780E-02
    600 T=   204. E= -.70175510E+03 F= -.70554847E+03 E0= -.70554847E+03  EK= 0.37934E+01 SP= 0.00E+00 SK= 0.00E+00
    601 T=   203. E= -.70172994E+03 F= -.70550065E+03 E0= -.70550065E+03  EK= 0.37707E+01 SP= 0.00E+00 SK= 0.00E+00
    602 T=   209. E= -.70165098E+03 F= -.70553975E+03 E0= -.70553975E+03  EK= 0.38888E+01 SP= 0.00E+00 SK= 0.00E+00
    603 T=   216. E= -.70160581E+03 F= -.70563132E+03 E0= -.70563132E+03  EK= 0.40255E+01 SP= 0.00E+00 SK= 0.00E+00
    604 T=   223. E= -.70156670E+03 F= -.70572247E+03 E0= -.70572247E+03  EK= 0.41558E+01 SP= 0.00E+00 SK= 0.00E+00
    605 T=   229. E= -.70149842E+03 F= -.70576166E+03 E0= -.70576166E+03  EK= 0.42632E+01 SP= 0.00E+00 SK= 0.00E+00
    606 T=   227. E= -.70150654E+03 F= -.70573394E+03 E0= -.70573394E+03  EK= 0.42274E+01 SP= 0.00E+00 SK= 0.00E+00
    607 T=   218. E= -.70157657E+03 F= -.70563437E+03 E0= -.70563437E+03  EK= 0.40578E+01 SP= 0.00E+00 SK= 0.00E+00
    608 T=   209. E= -.70163229E+03 F= -.70552920E+03 E0= -.70552920E+03  EK= 0.38969E+01 SP= 0.00E+00 SK= 0.00E+00
    609 T=   204. E= -.70166949E+03 F= -.70545739E+03 E0= -.70545739E+03  EK= 0.37879E+01 SP= 0.00E+00 SK= 0.00E+00
       N       E                     dE             d eps       ncg     rms          rms(c)
DAV:   1    -0.692942195632E+03    0.43450E+01   -0.17772E+03 12190   0.951E+01
DAV:   2    -0.697937289921E+03   -0.49951E+01   -0.49940E+01 14396   0.144E+01
DAV:   3    -0.697987954362E+03   -0.50664E-01   -0.50662E-01 14636   0.151E+00
DAV:   4    -0.697989103675E+03   -0.11493E-02   -0.11493E-02 14372   0.216E-01    0.849E+00
DAV:   5    -0.697226938927E+03    0.76216E+00   -0.16288E+00 15260   0.392E+00    0.448E+00
DAV:   6    -0.697157146161E+03    0.69793E-01   -0.10132E+00 14572   0.271E+00    0.150E+00
DAV:   7    -0.697164869407E+03   -0.77232E-02   -0.22124E-01 14396   0.142E+00    0.537E-01
DAV:   8    -0.697160893543E+03    0.39759E-02   -0.26878E-02 14612   0.485E-01    0.285E-01
DAV:   9    -0.697157075694E+03    0.38178E-02   -0.11509E-02 13844   0.317E-01    0.154E-01
DAV:  10    -0.697155471392E+03    0.16043E-02   -0.26243E-03 16356   0.219E-01    0.638E-02
DAV:  11    -0.697154752123E+03    0.71927E-03   -0.16634E-03 14108   0.156E-01    0.562E-02
DAV:  12    -0.697154310169E+03    0.44195E-03   -0.47800E-04 14284   0.120E-01    0.315E-02
DAV:  13    -0.697154071986E+03    0.23818E-03   -0.25369E-04 11484   0.104E-01    0.220E-02
DAV:  14    -0.697154052289E+03    0.19697E-04   -0.28927E-04 12380   0.604E-02
    610 T=   200. E= -.70169868E+03 F= -.70542220E+03 E0= -.70542220E+03  EK= 0.37235E+01 SP= 0.00E+00 SK= 0.00E+00
    611 T=   207. E= -.70170413E+03 F= -.70555674E+03 E0= -.70555674E+03  EK= 0.38526E+01 SP= 0.00E+00 SK= 0.00E+00
    612 T=   218. E= -.70169101E+03 F= -.70574084E+03 E0= -.70574084E+03  EK= 0.40498E+01 SP= 0.00E+00 SK= 0.00E+00
    613 T=   221. E= -.70176218E+03 F= -.70588121E+03 E0= -.70588121E+03  EK= 0.41190E+01 SP= 0.00E+00 SK= 0.00E+00
    614 T=   216. E= -.70190111E+03 F= -.70591414E+03 E0= -.70591414E+03  EK= 0.40130E+01 SP= 0.00E+00 SK= 0.00E+00
    615 T=   206. E= -.70202800E+03 F= -.70586187E+03 E0= -.70586187E+03  EK= 0.38339E+01 SP= 0.00E+00 SK= 0.00E+00
    616 T=   201. E= -.70203095E+03 F= -.70577993E+03 E0= -.70577993E+03  EK= 0.37490E+01 SP= 0.00E+00 SK= 0.00E+00
    617 T=   203. E= -.70196114E+03 F= -.70574429E+03 E0= -.70574429E+03  EK= 0.37832E+01 SP= 0.00E+00 SK= 0.00E+00
    618 T=   208. E= -.70190468E+03 F= -.70576777E+03 E0= -.70576777E+03  EK= 0.38631E+01 SP= 0.00E+00 SK= 0.00E+00
    619 T=   213. E= -.70187684E+03 F= -.70583437E+03 E0= -.70583437E+03  EK= 0.39575E+01 SP= 0.00E+00 SK= 0.00E+00
       N       E                     dE             d eps       ncg     rms          rms(c)
DAV:   1    -0.693965079297E+03    0.31890E+01   -0.16339E+03 12190   0.916E+01
DAV:   2    -0.698233732568E+03   -0.42687E+01   -0.42676E+01 14340   0.134E+01
DAV:   3    -0.698278721536E+03   -0.44989E-01   -0.44987E-01 14628   0.141E+00
DAV:   4    -0.698279772816E+03   -0.10513E-02   -0.10513E-02 14380   0.204E-01    0.786E+00
DAV:   5    -0.697665744414E+03    0.61403E+00   -0.12897E+00 15044   0.340E+00    0.425E+00
DAV:   6    -0.697598662700E+03    0.67082E-01   -0.90397E-01 14612   0.254E+00    0.135E+00
DAV:   7    -0.697605439096E+03   -0.67764E-02   -0.19645E-01 14140   0.130E+00    0.514E-01
DAV:   8    -0.697601144072E+03    0.42950E-02   -0.22437E-02 14132   0.427E-01    0.248E-01
DAV:   9    -0.697597910342E+03    0.32337E-02   -0.69220E-03 13828   0.248E-01    0.115E-01
DAV:  10    -0.697596444551E+03    0.14658E-02   -0.17200E-03 16140   0.193E-01    0.490E-02
DAV:  11    -0.697596020937E+03    0.42361E-03   -0.12961E-03 14292   0.120E-01    0.527E-02
DAV:  12    -0.697595678643E+03    0.34229E-03   -0.36300E-04 12588   0.893E-02    0.237E-02
DAV:  13    -0.697595594069E+03    0.84574E-04   -0.22165E-04 10748   0.693E-02
    620 T=   213. E= -.70190278E+03 F= -.70586499E+03 E0= -.70586499E+03  EK= 0.39622E+01 SP= 0.00E+00 SK= 0.00E+00
    621 T=   216. E= -.70184109E+03 F= -.70585851E+03 E0= -.70585851E+03  EK= 0.40174E+01 SP= 0.00E+00 SK= 0.00E+00
    622 T=   220. E= -.70173222E+03 F= -.70583594E+03 E0= -.70583594E+03  EK= 0.41037E+01 SP= 0.00E+00 SK= 0.00E+00
    623 T=   220. E= -.70166885E+03 F= -.70577164E+03 E0= -.70577164E+03  EK= 0.41028E+01 SP= 0.00E+00 SK= 0.00E+00
    624 T=   214. E= -.70170832E+03 F= -.70568724E+03 E0= -.70568724E+03  EK= 0.39789E+01 SP= 0.00E+00 SK= 0.00E+00
    625 T=   208. E= -.70179682E+03 F= -.70567572E+03 E0= -.70567572E+03  EK= 0.38789E+01 SP= 0.00E+00 SK= 0.00E+00
    626 T=   210. E= -.70186852E+03 F= -.70577375E+03 E0= -.70577375E+03  EK= 0.39052E+01 SP= 0.00E+00 SK= 0.00E+00
    627 T=   215. E= -.70191359E+03 F= -.70592168E+03 E0= -.70592168E+03  EK= 0.40081E+01 SP= 0.00E+00 SK= 0.00E+00
    628 T=   219. E= -.70198077E+03 F= -.70605474E+03 E0= -.70605474E+03  EK= 0.40740E+01 SP= 0.00E+00 SK= 0.00E+00
    629 T=   220. E= -.70201143E+03 F= -.70610519E+03 E0= -.70610519E+03  EK= 0.40938E+01 SP= 0.00E+00 SK= 0.00E+00
       N       E                     dE             d eps       ncg     rms          rms(c)
DAV:   1    -0.693428191021E+03    0.41675E+01   -0.18898E+03 12190   0.976E+01
DAV:   2    -0.698474975221E+03   -0.50468E+01   -0.50455E+01 14332   0.145E+01
DAV:   3    -0.698527642826E+03   -0.52668E-01   -0.52665E-01 14636   0.153E+00
DAV:   4    -0.698528854473E+03   -0.12116E-02   -0.12116E-02 14404   0.219E-01    0.814E+00
DAV:   5    -0.697837719151E+03    0.69114E+00   -0.13715E+00 15164   0.366E+00    0.437E+00
DAV:   6    -0.697774767395E+03    0.62952E-01   -0.10344E+00 14604   0.259E+00    0.138E+00
DAV:   7    -0.697784852719E+03   -0.10085E-01   -0.19089E-01 13860   0.131E+00    0.494E-01
DAV:   8    -0.697783039463E+03    0.18133E-02   -0.22300E-02 13948   0.442E-01    0.253E-01
DAV:   9    -0.697781755382E+03    0.12841E-02   -0.10499E-02 13668   0.260E-01    0.157E-01
DAV:  10    -0.697780789844E+03    0.96554E-03   -0.22281E-03 16876   0.182E-01    0.407E-02
DAV:  11    -0.697780610258E+03    0.17959E-03   -0.84313E-04 13860   0.803E-02    0.349E-02
DAV:  12    -0.697780432849E+03    0.17741E-03   -0.99675E-05  9612   0.547E-02    0.139E-02
DAV:  13    -0.697780372198E+03    0.60651E-04   -0.16170E-04 10148   0.532E-02
    630 T=   215. E= -.70205582E+03 F= -.70606617E+03 E0= -.70606617E+03  EK= 0.40103E+01 SP= 0.00E+00 SK= 0.00E+00
    631 T=   208. E= -.70207807E+03 F= -.70595476E+03 E0= -.70595476E+03  EK= 0.38767E+01 SP= 0.00E+00 SK= 0.00E+00
    632 T=   205. E= -.70207076E+03 F= -.70587858E+03 E0= -.70587858E+03  EK= 0.38078E+01 SP= 0.00E+00 SK= 0.00E+00
    633 T=   202. E= -.70209893E+03 F= -.70586038E+03 E0= -.70586038E+03  EK= 0.37615E+01 SP= 0.00E+00 SK= 0.00E+00
    634 T=   201. E= -.70213709E+03 F= -.70588243E+03 E0= -.70588243E+03  EK= 0.37453E+01 SP= 0.00E+00 SK= 0.00E+00
    635 T=   197. E= -.70224462E+03 F= -.70591625E+03 E0= -.70591625E+03  EK= 0.36716E+01 SP= 0.00E+00 SK= 0.00E+00
    636 T=   196. E= -.70228951E+03 F= -.70593046E+03 E0= -.70593046E+03  EK= 0.36409E+01 SP= 0.00E+00 SK= 0.00E+00
    637 T=   197. E= -.70225902E+03 F= -.70592736E+03 E0= -.70592736E+03  EK= 0.36683E+01 SP= 0.00E+00 SK= 0.00E+00
    638 T=   194. E= -.70227210E+03 F= -.70588024E+03 E0= -.70588024E+03  EK= 0.36081E+01 SP= 0.00E+00 SK= 0.00E+00
    639 T=   194. E= -.70221466E+03 F= -.70582675E+03 E0= -.70582675E+03  EK= 0.36121E+01 SP= 0.00E+00 SK= 0.00E+00
       N       E                     dE             d eps       ncg     rms          rms(c)
DAV:   1    -0.694269859472E+03    0.35106E+01   -0.15292E+03 12190   0.883E+01
DAV:   2    -0.698139727524E+03   -0.38699E+01   -0.38691E+01 14412   0.129E+01
DAV:   3    -0.698179271501E+03   -0.39544E-01   -0.39542E-01 14604   0.133E+00
DAV:   4    -0.698180177147E+03   -0.90565E-03   -0.90563E-03 14396   0.193E-01    0.787E+00
DAV:   5    -0.697573139794E+03    0.60704E+00   -0.13483E+00 15364   0.363E+00    0.422E+00
DAV:   6    -0.697526467824E+03    0.46672E-01   -0.85241E-01 14668   0.251E+00    0.139E+00
DAV:   7    -0.697533816012E+03   -0.73482E-02   -0.18427E-01 14132   0.128E+00    0.478E-01
DAV:   8    -0.697529844788E+03    0.39712E-02   -0.20668E-02 14476   0.433E-01    0.256E-01
DAV:   9    -0.697526685013E+03    0.31598E-02   -0.95230E-03 13764   0.275E-01    0.137E-01
DAV:  10    -0.697525425199E+03    0.12598E-02   -0.19530E-03 16276   0.187E-01    0.579E-02
DAV:  11    -0.697524853249E+03    0.57195E-03   -0.13114E-03 13956   0.133E-01    0.515E-02
DAV:  12    -0.697524532809E+03    0.32044E-03   -0.45068E-04 13572   0.995E-02    0.272E-02
DAV:  13    -0.697524368257E+03    0.16455E-03   -0.14813E-04  9812   0.741E-02    0.173E-02
DAV:  14    -0.697524347185E+03    0.21073E-04   -0.16189E-04 10372   0.467E-02
    640 T=   200. E= -.70209374E+03 F= -.70581343E+03 E0= -.70581343E+03  EK= 0.37197E+01 SP= 0.00E+00 SK= 0.00E+00
    641 T=   202. E= -.70204174E+03 F= -.70580659E+03 E0= -.70580659E+03  EK= 0.37648E+01 SP= 0.00E+00 SK= 0.00E+00
    642 T=   206. E= -.70201468E+03 F= -.70584351E+03 E0= -.70584351E+03  EK= 0.38288E+01 SP= 0.00E+00 SK= 0.00E+00
    643 T=   207. E= -.70203910E+03 F= -.70589268E+03 E0= -.70589268E+03  EK= 0.38536E+01 SP= 0.00E+00 SK= 0.00E+00
    644 T=   211. E= -.70204226E+03 F= -.70596183E+03 E0= -.70596183E+03  EK= 0.39196E+01 SP= 0.00E+00 SK= 0.00E+00
    645 T=   218. E= -.70197938E+03 F= -.70603295E+03 E0= -.70603295E+03  EK= 0.40536E+01 SP= 0.00E+00 SK= 0.00E+00
    646 T=   222. E= -.70193755E+03 F= -.70607557E+03 E0= -.70607557E+03  EK= 0.41380E+01 SP= 0.00E+00 SK= 0.00E+00
    647 T=   223. E= -.70188897E+03 F= -.70604800E+03 E0= -.70604800E+03  EK= 0.41590E+01 SP= 0.00E+00 SK= 0.00E+00
    648 T=   219. E= -.70188437E+03 F= -.70596627E+03 E0= -.70596627E+03  EK= 0.40819E+01 SP= 0.00E+00 SK= 0.00E+00
    649 T=   214. E= -.70189118E+03 F= -.70586537E+03 E0= -.70586537E+03  EK= 0.39742E+01 SP= 0.00E+00 SK= 0.00E+00
    650 T=   211. E= -.70189382E+03 F= -.70581866E+03 E0= -.70581866E+03  EK= 0.39248E+01 SP= 0.00E+00 SK= 0.00E+00
    651 T=   212. E= -.70190228E+03 F= -.70584920E+03 E0= -.70584920E+03  EK= 0.39469E+01 SP= 0.00E+00 SK= 0.00E+00
    652 T=   218. E= -.70188394E+03 F= -.70594853E+03 E0= -.70594853E+03  EK= 0.40646E+01 SP= 0.00E+00 SK= 0.00E+00
    653 T=   222. E= -.70187873E+03 F= -.70601035E+03 E0= -.70601035E+03  EK= 0.41316E+01 SP= 0.00E+00 SK= 0.00E+00
       N       E                     dE             d eps       ncg     rms          rms(c)
DAV:   1    -0.690758266963E+03    0.67661E+01   -0.27305E+03 12190   0.117E+02
DAV:   2    -0.698323658204E+03   -0.75654E+01   -0.75635E+01 14124   0.175E+01
DAV:   3    -0.698400946986E+03   -0.77289E-01   -0.77285E-01 14620   0.188E+00
DAV:   4    -0.698402631856E+03   -0.16849E-02   -0.16848E-02 14364   0.265E-01    0.965E+00
DAV:   5    -0.697770963512E+03    0.63167E+00   -0.11677E+00 14324   0.331E+00    0.550E+00
DAV:   6    -0.697747904969E+03    0.23059E-01   -0.14217E+00 14644   0.318E+00    0.122E+00
DAV:   7    -0.697764412792E+03   -0.16508E-01   -0.24586E-01 13860   0.136E+00    0.547E-01
DAV:   8    -0.697762334478E+03    0.20783E-02   -0.26496E-02 14116   0.402E-01    0.309E-01
DAV:   9    -0.697760324747E+03    0.20097E-02   -0.10497E-02 13916   0.335E-01    0.169E-01
DAV:  10    -0.697758942971E+03    0.13818E-02   -0.27611E-03 15484   0.203E-01    0.562E-02
DAV:  11    -0.697758621947E+03    0.32102E-03   -0.14141E-03 14620   0.116E-01    0.455E-02
DAV:  12    -0.697758345013E+03    0.27693E-03   -0.24851E-04 10820   0.773E-02    0.189E-02
DAV:  13    -0.697758210835E+03    0.13418E-03   -0.19469E-04 10564   0.788E-02    0.243E-02
DAV:  14    -0.697758187224E+03    0.23611E-04   -0.18781E-04 10780   0.496E-02
    654 T=   218. E= -.70198046E+03 F= -.70603657E+03 E0= -.70603657E+03  EK= 0.40561E+01 SP= 0.00E+00 SK= 0.00E+00
    655 T=   215. E= -.70204274E+03 F= -.70604139E+03 E0= -.70604139E+03  EK= 0.39987E+01 SP= 0.00E+00 SK= 0.00E+00
    656 T=   220. E= -.70196374E+03 F= -.70605524E+03 E0= -.70605524E+03  EK= 0.40915E+01 SP= 0.00E+00 SK= 0.00E+00
    657 T=   222. E= -.70193411E+03 F= -.70606014E+03 E0= -.70606014E+03  EK= 0.41260E+01 SP= 0.00E+00 SK= 0.00E+00
    658 T=   221. E= -.70198877E+03 F= -.70609738E+03 E0= -.70609738E+03  EK= 0.41086E+01 SP= 0.00E+00 SK= 0.00E+00
    659 T=   222. E= -.70204289E+03 F= -.70618250E+03 E0= -.70618250E+03  EK= 0.41396E+01 SP= 0.00E+00 SK= 0.00E+00
    660 T=   225. E= -.70210494E+03 F= -.70628992E+03 E0= -.70628992E+03  EK= 0.41850E+01 SP= 0.00E+00 SK= 0.00E+00
    661 T=   225. E= -.70219079E+03 F= -.70637999E+03 E0= -.70637999E+03  EK= 0.41892E+01 SP= 0.00E+00 SK= 0.00E+00
    662 T=   225. E= -.70222460E+03 F= -.70641662E+03 E0= -.70641662E+03  EK= 0.41920E+01 SP= 0.00E+00 SK= 0.00E+00
    663 T=   224. E= -.70222657E+03 F= -.70639098E+03 E0= -.70639098E+03  EK= 0.41644E+01 SP= 0.00E+00 SK= 0.00E+00
       N       E                     dE             d eps       ncg     rms          rms(c)
DAV:   1    -0.693764209319E+03    0.39940E+01   -0.18262E+03 12190   0.964E+01
DAV:   2    -0.698564019464E+03   -0.47998E+01   -0.47987E+01 14364   0.142E+01
DAV:   3    -0.698614064116E+03   -0.50045E-01   -0.50043E-01 14628   0.150E+00
DAV:   4    -0.698615221400E+03   -0.11573E-02   -0.11573E-02 14356   0.215E-01    0.807E+00
DAV:   5    -0.698036380783E+03    0.57884E+00   -0.11146E+00 14676   0.310E+00    0.446E+00
DAV:   6    -0.697981723640E+03    0.54657E-01   -0.98799E-01 14556   0.257E+00    0.120E+00
DAV:   7    -0.697996193311E+03   -0.14470E-01   -0.18755E-01 14196   0.120E+00    0.510E-01
DAV:   8    -0.697993857479E+03    0.23358E-02   -0.17919E-02 13908   0.367E-01    0.242E-01
DAV:   9    -0.697992148532E+03    0.17089E-02   -0.58972E-03 14028   0.234E-01    0.116E-01
DAV:  10    -0.697991189942E+03    0.95859E-03   -0.17901E-03 16148   0.178E-01    0.410E-02
DAV:  11    -0.697990948846E+03    0.24110E-03   -0.81301E-04 14444   0.903E-02    0.390E-02
DAV:  12    -0.697990654780E+03    0.29407E-03   -0.14815E-04 10140   0.846E-02    0.147E-02
DAV:  13    -0.697990572104E+03    0.82675E-04   -0.23310E-04 11012   0.757E-02
    664 T=   215. E= -.70226233E+03 F= -.70626713E+03 E0= -.70626713E+03  EK= 0.40048E+01 SP= 0.00E+00 SK= 0.00E+00
    665 T=   208. E= -.70228173E+03 F= -.70614843E+03 E0= -.70614843E+03  EK= 0.38667E+01 SP= 0.00E+00 SK= 0.00E+00
    666 T=   208. E= -.70222954E+03 F= -.70609374E+03 E0= -.70609374E+03  EK= 0.38642E+01 SP= 0.00E+00 SK= 0.00E+00
    667 T=   208. E= -.70222439E+03 F= -.70609328E+03 E0= -.70609328E+03  EK= 0.38689E+01 SP= 0.00E+00 SK= 0.00E+00
    668 T=   209. E= -.70223163E+03 F= -.70612482E+03 E0= -.70612482E+03  EK= 0.38932E+01 SP= 0.00E+00 SK= 0.00E+00
    669 T=   208. E= -.70227374E+03 F= -.70614665E+03 E0= -.70614665E+03  EK= 0.38729E+01 SP= 0.00E+00 SK= 0.00E+00
    670 T=   206. E= -.70229153E+03 F= -.70612326E+03 E0= -.70612326E+03  EK= 0.38317E+01 SP= 0.00E+00 SK= 0.00E+00
    671 T=   201. E= -.70228133E+03 F= -.70602905E+03 E0= -.70602905E+03  EK= 0.37477E+01 SP= 0.00E+00 SK= 0.00E+00
    672 T=   197. E= -.70226944E+03 F= -.70593610E+03 E0= -.70593610E+03  EK= 0.36667E+01 SP= 0.00E+00 SK= 0.00E+00
    673 T=   194. E= -.70227011E+03 F= -.70587409E+03 E0= -.70587409E+03  EK= 0.36040E+01 SP= 0.00E+00 SK= 0.00E+00
       N       E                     dE             d eps       ncg     rms          rms(c)
DAV:   1    -0.693915436100E+03    0.40752E+01   -0.16812E+03 12190   0.924E+01
DAV:   2    -0.698265073615E+03   -0.43496E+01   -0.43487E+01 14428   0.136E+01
DAV:   3    -0.698310643017E+03   -0.45569E-01   -0.45567E-01 14652   0.143E+00
DAV:   4    -0.698311691380E+03   -0.10484E-02   -0.10483E-02 14420   0.206E-01    0.780E+00
DAV:   5    -0.697695629971E+03    0.61606E+00   -0.11036E+00 15356   0.339E+00    0.429E+00
DAV:   6    -0.697613010418E+03    0.82620E-01   -0.10291E+00 14732   0.288E+00    0.122E+00
DAV:   7    -0.697618594271E+03   -0.55839E-02   -0.22656E-01 14260   0.142E+00    0.517E-01
DAV:   8    -0.697614686162E+03    0.39081E-02   -0.24915E-02 14380   0.459E-01    0.271E-01
DAV:   9    -0.697611433653E+03    0.32525E-02   -0.11057E-02 14020   0.326E-01    0.164E-01
DAV:  10    -0.697609530050E+03    0.19036E-02   -0.29479E-03 16916   0.256E-01    0.595E-02
DAV:  11    -0.697608907518E+03    0.62253E-03   -0.20790E-03 14364   0.174E-01    0.638E-02
DAV:  12    -0.697608445277E+03    0.46224E-03   -0.58639E-04 14364   0.121E-01    0.279E-02
DAV:  13    -0.697608236185E+03    0.20909E-03   -0.23082E-04 10996   0.106E-01    0.288E-02
DAV:  14    -0.697608227567E+03    0.86180E-05   -0.38169E-04 13972   0.633E-02
    674 T=   193. E= -.70231294E+03 F= -.70590125E+03 E0= -.70590125E+03  EK= 0.35883E+01 SP= 0.00E+00 SK= 0.00E+00
    675 T=   197. E= -.70228493E+03 F= -.70594407E+03 E0= -.70594407E+03  EK= 0.36591E+01 SP= 0.00E+00 SK= 0.00E+00
    676 T=   205. E= -.70225959E+03 F= -.70608330E+03 E0= -.70608330E+03  EK= 0.38237E+01 SP= 0.00E+00 SK= 0.00E+00
    677 T=   216. E= -.70221674E+03 F= -.70623818E+03 E0= -.70623818E+03  EK= 0.40214E+01 SP= 0.00E+00 SK= 0.00E+00
    678 T=   222. E= -.70216496E+03 F= -.70630315E+03 E0= -.70630315E+03  EK= 0.41382E+01 SP= 0.00E+00 SK= 0.00E+00
    679 T=   221. E= -.70213821E+03 F= -.70625628E+03 E0= -.70625628E+03  EK= 0.41181E+01 SP= 0.00E+00 SK= 0.00E+00
    680 T=   217. E= -.70207273E+03 F= -.70611915E+03 E0= -.70611915E+03  EK= 0.40464E+01 SP= 0.00E+00 SK= 0.00E+00
    681 T=   214. E= -.70201884E+03 F= -.70599634E+03 E0= -.70599634E+03  EK= 0.39775E+01 SP= 0.00E+00 SK= 0.00E+00
    682 T=   216. E= -.70199693E+03 F= -.70601199E+03 E0= -.70601199E+03  EK= 0.40151E+01 SP= 0.00E+00 SK= 0.00E+00
    683 T=   222. E= -.70201679E+03 F= -.70614150E+03 E0= -.70614150E+03  EK= 0.41247E+01 SP= 0.00E+00 SK= 0.00E+00
       N       E                     dE             d eps       ncg     rms          rms(c)
DAV:   1    -0.693400536016E+03    0.42077E+01   -0.19843E+03 12190   0.100E+02
DAV:   2    -0.698763338273E+03   -0.53628E+01   -0.53616E+01 14252   0.150E+01
DAV:   3    -0.698816177579E+03   -0.52839E-01   -0.52837E-01 14644   0.154E+00
DAV:   4    -0.698817326522E+03   -0.11489E-02   -0.11489E-02 14404   0.221E-01    0.832E+00
DAV:   5    -0.698078338189E+03    0.73899E+00   -0.14043E+00 14980   0.356E+00    0.449E+00
DAV:   6    -0.698001670181E+03    0.76668E-01   -0.11630E+00 14684   0.281E+00    0.131E+00
DAV:   7    -0.698015318451E+03   -0.13648E-01   -0.21887E-01 14164   0.135E+00    0.509E-01
DAV:   8    -0.698013221664E+03    0.20968E-02   -0.21248E-02 14084   0.431E-01    0.249E-01
DAV:   9    -0.698011613821E+03    0.16078E-02   -0.81992E-03 14044   0.256E-01    0.138E-01
DAV:  10    -0.698010676251E+03    0.93757E-03   -0.17743E-03 16252   0.171E-01    0.505E-02
DAV:  11    -0.698010387769E+03    0.28848E-03   -0.99249E-04 14172   0.102E-01    0.406E-02
DAV:  12    -0.698010116560E+03    0.27121E-03   -0.14450E-04 10252   0.837E-02    0.168E-02
DAV:  13    -0.698010029234E+03    0.87326E-04   -0.28940E-04 11884   0.761E-02
    684 T=   226. E= -.70211786E+03 F= -.70631701E+03 E0= -.70631701E+03  EK= 0.41992E+01 SP= 0.00E+00 SK= 0.00E+00
    685 T=   228. E= -.70198265E+03 F= -.70622778E+03 E0= -.70622778E+03  EK= 0.42451E+01 SP= 0.00E+00 SK= 0.00E+00
    686 T=   220. E= -.70192940E+03 F= -.70602009E+03 E0= -.70602009E+03  EK= 0.40907E+01 SP= 0.00E+00 SK= 0.00E+00
    687 T=   207. E= -.70191432E+03 F= -.70576980E+03 E0= -.70576980E+03  EK= 0.38555E+01 SP= 0.00E+00 SK= 0.00E+00
    688 T=   200. E= -.70190584E+03 F= -.70562041E+03 E0= -.70562041E+03  EK= 0.37146E+01 SP= 0.00E+00 SK= 0.00E+00
    689 T=   198. E= -.70196252E+03 F= -.70564470E+03 E0= -.70564470E+03  EK= 0.36822E+01 SP= 0.00E+00 SK= 0.00E+00
    690 T=   204. E= -.70199273E+03 F= -.70578993E+03 E0= -.70578993E+03  EK= 0.37972E+01 SP= 0.00E+00 SK= 0.00E+00
    691 T=   211. E= -.70204382E+03 F= -.70596417E+03 E0= -.70596417E+03  EK= 0.39204E+01 SP= 0.00E+00 SK= 0.00E+00
    692 T=   212. E= -.70213610E+03 F= -.70608174E+03 E0= -.70608174E+03  EK= 0.39456E+01 SP= 0.00E+00 SK= 0.00E+00
    693 T=   211. E= -.70216849E+03 F= -.70609389E+03 E0= -.70609389E+03  EK= 0.39254E+01 SP= 0.00E+00 SK= 0.00E+00
       N       E                     dE             d eps       ncg     rms          rms(c)
DAV:   1    -0.693834962900E+03    0.41752E+01   -0.16779E+03 12190   0.921E+01
DAV:   2    -0.698281846725E+03   -0.44469E+01   -0.44459E+01 14364   0.136E+01
DAV:   3    -0.698327862984E+03   -0.46016E-01   -0.46014E-01 14644   0.143E+00
DAV:   4    -0.698328923562E+03   -0.10606E-02   -0.10605E-02 14332   0.207E-01    0.772E+00
DAV:   5    -0.697785446723E+03    0.54348E+00   -0.10294E+00 15252   0.309E+00    0.427E+00
DAV:   6    -0.697715693178E+03    0.69754E-01   -0.86367E-01 14596   0.247E+00    0.119E+00
DAV:   7    -0.697724818975E+03   -0.91258E-02   -0.17198E-01 14108   0.113E+00    0.501E-01
DAV:   8    -0.697721688925E+03    0.31301E-02   -0.17064E-02 14068   0.352E-01    0.246E-01
DAV:   9    -0.697719620928E+03    0.20680E-02   -0.54656E-03 13940   0.221E-01    0.111E-01
DAV:  10    -0.697718559775E+03    0.10612E-02   -0.13057E-03 15908   0.156E-01    0.444E-02
DAV:  11    -0.697718328793E+03    0.23098E-03   -0.86262E-04 14492   0.876E-02    0.417E-02
DAV:  12    -0.697718135964E+03    0.19283E-03   -0.18886E-04 10476   0.576E-02    0.178E-02
DAV:  13    -0.697718060583E+03    0.75381E-04   -0.10777E-04  9756   0.507E-02
    694 T=   206. E= -.70217558E+03 F= -.70600780E+03 E0= -.70600780E+03  EK= 0.38322E+01 SP= 0.00E+00 SK= 0.00E+00
    695 T=   199. E= -.70213029E+03 F= -.70583730E+03 E0= -.70583730E+03  EK= 0.37070E+01 SP= 0.00E+00 SK= 0.00E+00
    696 T=   193. E= -.70213077E+03 F= -.70572968E+03 E0= -.70572968E+03  EK= 0.35989E+01 SP= 0.00E+00 SK= 0.00E+00
    697 T=   197. E= -.70208631E+03 F= -.70574962E+03 E0= -.70574962E+03  EK= 0.36633E+01 SP= 0.00E+00 SK= 0.00E+00
    698 T=   212. E= -.70197800E+03 F= -.70593248E+03 E0= -.70593248E+03  EK= 0.39545E+01 SP= 0.00E+00 SK= 0.00E+00
    699 T=   230. E= -.70182809E+03 F= -.70611542E+03 E0= -.70611542E+03  EK= 0.42873E+01 SP= 0.00E+00 SK= 0.00E+00
    700 T=   239. E= -.70170056E+03 F= -.70614903E+03 E0= -.70614903E+03  EK= 0.44485E+01 SP= 0.00E+00 SK= 0.00E+00
    701 T=   229. E= -.70167151E+03 F= -.70593522E+03 E0= -.70593522E+03  EK= 0.42637E+01 SP= 0.00E+00 SK= 0.00E+00
    702 T=   213. E= -.70162432E+03 F= -.70558476E+03 E0= -.70558476E+03  EK= 0.39604E+01 SP= 0.00E+00 SK= 0.00E+00
    703 T=   197. E= -.70161632E+03 F= -.70527930E+03 E0= -.70527930E+03  EK= 0.36630E+01 SP= 0.00E+00 SK= 0.00E+00
       N       E                     dE             d eps       ncg     rms          rms(c)
DAV:   1    -0.692692948393E+03    0.50252E+01   -0.18287E+03 12190   0.966E+01
DAV:   2    -0.697612056003E+03   -0.49191E+01   -0.49179E+01 14380   0.144E+01
DAV:   3    -0.697662418993E+03   -0.50363E-01   -0.50360E-01 14628   0.150E+00
DAV:   4    -0.697663570225E+03   -0.11512E-02   -0.11512E-02 14380   0.216E-01    0.824E+00
DAV:   5    -0.696941959183E+03    0.72161E+00   -0.14420E+00 15364   0.358E+00    0.443E+00
DAV:   6    -0.696870083851E+03    0.71875E-01   -0.10225E+00 14636   0.252E+00    0.139E+00
DAV:   7    -0.696884539167E+03   -0.14455E-01   -0.19324E-01 14060   0.127E+00    0.511E-01
DAV:   8    -0.696882927430E+03    0.16117E-02   -0.21643E-02 14524   0.454E-01    0.247E-01
DAV:   9    -0.696881654742E+03    0.12727E-02   -0.77797E-03 13908   0.244E-01    0.125E-01
DAV:  10    -0.696880942942E+03    0.71180E-03   -0.16736E-03 16044   0.160E-01    0.449E-02
DAV:  11    -0.696880727306E+03    0.21564E-03   -0.80010E-04 14092   0.861E-02    0.368E-02
DAV:  12    -0.696880500401E+03    0.22691E-03   -0.66614E-05  9820   0.692E-02    0.174E-02
DAV:  13    -0.696880365052E+03    0.13535E-03   -0.25406E-04 11148   0.928E-02    0.220E-02
DAV:  14    -0.696880357758E+03    0.72938E-05   -0.21234E-04 11084   0.461E-02
    704 T=   192. E= -.70161203E+03 F= -.70519347E+03 E0= -.70519347E+03  EK= 0.35814E+01 SP= 0.00E+00 SK= 0.00E+00
    705 T=   206. E= -.70152839E+03 F= -.70535852E+03 E0= -.70535852E+03  EK= 0.38301E+01 SP= 0.00E+00 SK= 0.00E+00
    706 T=   221. E= -.70148500E+03 F= -.70560623E+03 E0= -.70560623E+03  EK= 0.41212E+01 SP= 0.00E+00 SK= 0.00E+00
    707 T=   229. E= -.70152344E+03 F= -.70579469E+03 E0= -.70579469E+03  EK= 0.42712E+01 SP= 0.00E+00 SK= 0.00E+00
    708 T=   229. E= -.70153788E+03 F= -.70579187E+03 E0= -.70579187E+03  EK= 0.42540E+01 SP= 0.00E+00 SK= 0.00E+00
    709 T=   222. E= -.70152798E+03 F= -.70565639E+03 E0= -.70565639E+03  EK= 0.41284E+01 SP= 0.00E+00 SK= 0.00E+00
    710 T=   210. E= -.70155225E+03 F= -.70546046E+03 E0= -.70546046E+03  EK= 0.39082E+01 SP= 0.00E+00 SK= 0.00E+00
    711 T=   201. E= -.70158778E+03 F= -.70533638E+03 E0= -.70533638E+03  EK= 0.37486E+01 SP= 0.00E+00 SK= 0.00E+00
    712 T=   204. E= -.70156813E+03 F= -.70536556E+03 E0= -.70536556E+03  EK= 0.37974E+01 SP= 0.00E+00 SK= 0.00E+00
    713 T=   217. E= -.70155803E+03 F= -.70559545E+03 E0= -.70559545E+03  EK= 0.40374E+01 SP= 0.00E+00 SK= 0.00E+00
       N       E                     dE             d eps       ncg     rms          rms(c)
DAV:   1    -0.693743539192E+03    0.31368E+01   -0.16416E+03 12190   0.912E+01
DAV:   2    -0.698239266985E+03   -0.44957E+01   -0.44948E+01 14380   0.138E+01
DAV:   3    -0.698283345530E+03   -0.44079E-01   -0.44077E-01 14628   0.141E+00
DAV:   4    -0.698284324717E+03   -0.97919E-03   -0.97916E-03 14380   0.202E-01    0.810E+00
DAV:   5    -0.697640505913E+03    0.64382E+00   -0.13846E+00 15284   0.364E+00    0.437E+00
DAV:   6    -0.697593764431E+03    0.46741E-01   -0.95641E-01 14604   0.258E+00    0.140E+00
DAV:   7    -0.697606678215E+03   -0.12914E-01   -0.19928E-01 14188   0.133E+00    0.511E-01
DAV:   8    -0.697603728808E+03    0.29494E-02   -0.23241E-02 14332   0.463E-01    0.248E-01
DAV:   9    -0.697601659108E+03    0.20697E-02   -0.83639E-03 13836   0.244E-01    0.132E-01
DAV:  10    -0.697600512617E+03    0.11465E-02   -0.18461E-03 17164   0.190E-01    0.432E-02
DAV:  11    -0.697600158984E+03    0.35363E-03   -0.10174E-03 14188   0.111E-01    0.444E-02
DAV:  12    -0.697599853293E+03    0.30569E-03   -0.16493E-04 10108   0.806E-02    0.173E-02
DAV:  13    -0.697599731235E+03    0.12206E-03   -0.25215E-04 11436   0.869E-02    0.281E-02
DAV:  14    -0.697599721141E+03    0.10094E-04   -0.26517E-04 11916   0.508E-02
    714 T=   233. E= -.70156574E+03 F= -.70590371E+03 E0= -.70590371E+03  EK= 0.43380E+01 SP= 0.00E+00 SK= 0.00E+00
    715 T=   243. E= -.70160343E+03 F= -.70613280E+03 E0= -.70613280E+03  EK= 0.45294E+01 SP= 0.00E+00 SK= 0.00E+00
    716 T=   245. E= -.70163865E+03 F= -.70620177E+03 E0= -.70620177E+03  EK= 0.45631E+01 SP= 0.00E+00 SK= 0.00E+00
    717 T=   241. E= -.70162401E+03 F= -.70610952E+03 E0= -.70610952E+03  EK= 0.44855E+01 SP= 0.00E+00 SK= 0.00E+00
    718 T=   234. E= -.70160805E+03 F= -.70596837E+03 E0= -.70596837E+03  EK= 0.43603E+01 SP= 0.00E+00 SK= 0.00E+00
    719 T=   229. E= -.70163350E+03 F= -.70589568E+03 E0= -.70589568E+03  EK= 0.42622E+01 SP= 0.00E+00 SK= 0.00E+00
    720 T=   233. E= -.70162261E+03 F= -.70595512E+03 E0= -.70595512E+03  EK= 0.43325E+01 SP= 0.00E+00 SK= 0.00E+00
    721 T=   245. E= -.70154360E+03 F= -.70610678E+03 E0= -.70610678E+03  EK= 0.45632E+01 SP= 0.00E+00 SK= 0.00E+00
    722 T=   251. E= -.70160082E+03 F= -.70626761E+03 E0= -.70626761E+03  EK= 0.46668E+01 SP= 0.00E+00 SK= 0.00E+00
    723 T=   252. E= -.70167916E+03 F= -.70636802E+03 E0= -.70636802E+03  EK= 0.46889E+01 SP= 0.00E+00 SK= 0.00E+00
    724 T=   251. E= -.70165978E+03 F= -.70633819E+03 E0= -.70633819E+03  EK= 0.46784E+01 SP= 0.00E+00 SK= 0.00E+00
    725 T=   244. E= -.70168135E+03 F= -.70621694E+03 E0= -.70621694E+03  EK= 0.45356E+01 SP= 0.00E+00 SK= 0.00E+00
    726 T=   233. E= -.70171397E+03 F= -.70605551E+03 E0= -.70605551E+03  EK= 0.43415E+01 SP= 0.00E+00 SK= 0.00E+00
    727 T=   221. E= -.70178772E+03 F= -.70590672E+03 E0= -.70590672E+03  EK= 0.41190E+01 SP= 0.00E+00 SK= 0.00E+00
    728 T=   217. E= -.70183256E+03 F= -.70586955E+03 E0= -.70586955E+03  EK= 0.40370E+01 SP= 0.00E+00 SK= 0.00E+00
    729 T=   223. E= -.70182391E+03 F= -.70597310E+03 E0= -.70597310E+03  EK= 0.41492E+01 SP= 0.00E+00 SK= 0.00E+00
    730 T=   232. E= -.70177441E+03 F= -.70609914E+03 E0= -.70609914E+03  EK= 0.43247E+01 SP= 0.00E+00 SK= 0.00E+00
    731 T=   239. E= -.70170773E+03 F= -.70614934E+03 E0= -.70614934E+03  EK= 0.44416E+01 SP= 0.00E+00 SK= 0.00E+00
    732 T=   235. E= -.70170218E+03 F= -.70608008E+03 E0= -.70608008E+03  EK= 0.43779E+01 SP= 0.00E+00 SK= 0.00E+00
    733 T=   226. E= -.70169901E+03 F= -.70590712E+03 E0= -.70590712E+03  EK= 0.42081E+01 SP= 0.00E+00 SK= 0.00E+00
    734 T=   216. E= -.70166127E+03 F= -.70568169E+03 E0= -.70568169E+03  EK= 0.40204E+01 SP= 0.00E+00 SK= 0.00E+00
    735 T=   211. E= -.70164820E+03 F= -.70557010E+03 E0= -.70557010E+03  EK= 0.39219E+01 SP= 0.00E+00 SK= 0.00E+00
       N       E                     dE             d eps       ncg     rms          rms(c)
DAV:   1    -0.672082862924E+03    0.25517E+02   -0.66512E+03 12190   0.181E+02
DAV:   2    -0.698594248784E+03   -0.26511E+02   -0.26500E+02 14204   0.317E+01
DAV:   3    -0.698874915607E+03   -0.28067E+00   -0.28064E+00 14620   0.360E+00
DAV:   4    -0.698880623972E+03   -0.57084E-02   -0.57081E-02 14348   0.491E-01    0.142E+01
DAV:   5    -0.697376002152E+03    0.15046E+01   -0.25870E+00 13916   0.468E+00    0.812E+00
DAV:   6    -0.697277577928E+03    0.98424E-01   -0.31993E+00 14620   0.459E+00    0.181E+00
DAV:   7    -0.697312370028E+03   -0.34792E-01   -0.55234E-01 14012   0.204E+00    0.809E-01
DAV:   8    -0.697307985989E+03    0.43840E-02   -0.52304E-02 14164   0.594E-01    0.381E-01
DAV:   9    -0.697304150675E+03    0.38353E-02   -0.12851E-02 14012   0.356E-01    0.179E-01
DAV:  10    -0.697301955460E+03    0.21952E-02   -0.33830E-03 15916   0.259E-01    0.695E-02
DAV:  11    -0.697301270348E+03    0.68511E-03   -0.21122E-03 14556   0.152E-01    0.613E-02
DAV:  12    -0.697300533578E+03    0.73677E-03   -0.35961E-04 12068   0.119E-01    0.255E-02
DAV:  13    -0.697300197641E+03    0.33594E-03   -0.45073E-04 13116   0.135E-01    0.369E-02
DAV:  14    -0.697300189022E+03    0.86185E-05   -0.74020E-04 14636   0.854E-02
    736 T=   213. E= -.70162866E+03 F= -.70559086E+03 E0= -.70559086E+03  EK= 0.39622E+01 SP= 0.00E+00 SK= 0.00E+00
    737 T=   221. E= -.70166925E+03 F= -.70577378E+03 E0= -.70577378E+03  EK= 0.41045E+01 SP= 0.00E+00 SK= 0.00E+00
    738 T=   230. E= -.70168834E+03 F= -.70596754E+03 E0= -.70596754E+03  EK= 0.42792E+01 SP= 0.00E+00 SK= 0.00E+00
    739 T=   238. E= -.70161223E+03 F= -.70604777E+03 E0= -.70604777E+03  EK= 0.44355E+01 SP= 0.00E+00 SK= 0.00E+00
    740 T=   237. E= -.70154182E+03 F= -.70595927E+03 E0= -.70595927E+03  EK= 0.44175E+01 SP= 0.00E+00 SK= 0.00E+00
    741 T=   226. E= -.70150724E+03 F= -.70572216E+03 E0= -.70572216E+03  EK= 0.42149E+01 SP= 0.00E+00 SK= 0.00E+00
    742 T=   216. E= -.70146134E+03 F= -.70548254E+03 E0= -.70548254E+03  EK= 0.40212E+01 SP= 0.00E+00 SK= 0.00E+00
    743 T=   210. E= -.70145505E+03 F= -.70536671E+03 E0= -.70536671E+03  EK= 0.39117E+01 SP= 0.00E+00 SK= 0.00E+00
    744 T=   214. E= -.70146117E+03 F= -.70543582E+03 E0= -.70543582E+03  EK= 0.39747E+01 SP= 0.00E+00 SK= 0.00E+00
    745 T=   221. E= -.70148140E+03 F= -.70560163E+03 E0= -.70560163E+03  EK= 0.41202E+01 SP= 0.00E+00 SK= 0.00E+00
       N       E                     dE             d eps       ncg     rms          rms(c)
DAV:   1    -0.693729624997E+03    0.35706E+01   -0.16565E+03 12190   0.921E+01
DAV:   2    -0.698076616603E+03   -0.43470E+01   -0.43461E+01 14396   0.136E+01
DAV:   3    -0.698121153190E+03   -0.44537E-01   -0.44534E-01 14628   0.143E+00
DAV:   4    -0.698122166667E+03   -0.10135E-02   -0.10135E-02 14404   0.207E-01    0.824E+00
DAV:   5    -0.697467765221E+03    0.65440E+00   -0.13836E+00 15556   0.359E+00    0.446E+00
DAV:   6    -0.697413522794E+03    0.54242E-01   -0.10313E+00 14652   0.272E+00    0.136E+00
DAV:   7    -0.697425393667E+03   -0.11871E-01   -0.21958E-01 14268   0.138E+00    0.538E-01
DAV:   8    -0.697421642817E+03    0.37508E-02   -0.25308E-02 14372   0.443E-01    0.274E-01
DAV:   9    -0.697418212231E+03    0.34306E-02   -0.87627E-03 13940   0.280E-01    0.139E-01
DAV:  10    -0.697416299656E+03    0.19126E-02   -0.24188E-03 16380   0.241E-01    0.529E-02
DAV:  11    -0.697415716628E+03    0.58303E-03   -0.18974E-03 14500   0.154E-01    0.635E-02
DAV:  12    -0.697415237736E+03    0.47889E-03   -0.64017E-04 13436   0.109E-01    0.296E-02
DAV:  13    -0.697415041291E+03    0.19644E-03   -0.20125E-04 10948   0.102E-01    0.346E-02
DAV:  14    -0.697415030544E+03    0.10748E-04   -0.46116E-04 14284   0.636E-02
    746 T=   229. E= -.70142614E+03 F= -.70568274E+03 E0= -.70568274E+03  EK= 0.42566E+01 SP= 0.00E+00 SK= 0.00E+00
    747 T=   229. E= -.70143226E+03 F= -.70569512E+03 E0= -.70569512E+03  EK= 0.42629E+01 SP= 0.00E+00 SK= 0.00E+00
    748 T=   219. E= -.70145037E+03 F= -.70553589E+03 E0= -.70553589E+03  EK= 0.40855E+01 SP= 0.00E+00 SK= 0.00E+00
    749 T=   210. E= -.70143239E+03 F= -.70533616E+03 E0= -.70533616E+03  EK= 0.39038E+01 SP= 0.00E+00 SK= 0.00E+00
    750 T=   204. E= -.70141954E+03 F= -.70521015E+03 E0= -.70521015E+03  EK= 0.37906E+01 SP= 0.00E+00 SK= 0.00E+00
    751 T=   202. E= -.70145306E+03 F= -.70522008E+03 E0= -.70522008E+03  EK= 0.37670E+01 SP= 0.00E+00 SK= 0.00E+00
    752 T=   207. E= -.70141929E+03 F= -.70526868E+03 E0= -.70526868E+03  EK= 0.38494E+01 SP= 0.00E+00 SK= 0.00E+00
    753 T=   210. E= -.70143167E+03 F= -.70534697E+03 E0= -.70534697E+03  EK= 0.39153E+01 SP= 0.00E+00 SK= 0.00E+00
    754 T=   213. E= -.70145496E+03 F= -.70541730E+03 E0= -.70541730E+03  EK= 0.39623E+01 SP= 0.00E+00 SK= 0.00E+00
    755 T=   218. E= -.70139017E+03 F= -.70544223E+03 E0= -.70544223E+03  EK= 0.40521E+01 SP= 0.00E+00 SK= 0.00E+00
       N       E                     dE             d eps       ncg     rms          rms(c)
DAV:   1    -0.693965647877E+03    0.34494E+01   -0.14388E+03 12190   0.858E+01
DAV:   2    -0.697657660510E+03   -0.36920E+01   -0.36912E+01 14356   0.125E+01
DAV:   3    -0.697697567053E+03   -0.39907E-01   -0.39905E-01 14612   0.132E+00
DAV:   4    -0.697698486319E+03   -0.91927E-03   -0.91924E-03 14396   0.193E-01    0.786E+00
DAV:   5    -0.697145416814E+03    0.55307E+00   -0.12688E+00 14748   0.340E+00    0.424E+00
DAV:   6    -0.697111673727E+03    0.33743E-01   -0.81455E-01 14548   0.236E+00    0.138E+00
DAV:   7    -0.697121774360E+03   -0.10101E-01   -0.15895E-01 14588   0.119E+00    0.477E-01
DAV:   8    -0.697119635650E+03    0.21387E-02   -0.19954E-02 14244   0.400E-01    0.237E-01
DAV:   9    -0.697117766940E+03    0.18687E-02   -0.70636E-03 13804   0.225E-01    0.120E-01
DAV:  10    -0.697116743689E+03    0.10233E-02   -0.14172E-03 16676   0.170E-01    0.401E-02
DAV:  11    -0.697116464596E+03    0.27909E-03   -0.90859E-04 14172   0.961E-02    0.438E-02
DAV:  12    -0.697116230697E+03    0.23390E-03   -0.23995E-04 10980   0.718E-02    0.172E-02
DAV:  13    -0.697116155411E+03    0.75287E-04   -0.13845E-04  9820   0.598E-02
    756 T=   220. E= -.70132029E+03 F= -.70540670E+03 E0= -.70540670E+03  EK= 0.40864E+01 SP= 0.00E+00 SK= 0.00E+00
    757 T=   218. E= -.70129151E+03 F= -.70535008E+03 E0= -.70535008E+03  EK= 0.40586E+01 SP= 0.00E+00 SK= 0.00E+00
    758 T=   221. E= -.70122799E+03 F= -.70533684E+03 E0= -.70533684E+03  EK= 0.41089E+01 SP= 0.00E+00 SK= 0.00E+00
    759 T=   224. E= -.70121286E+03 F= -.70537330E+03 E0= -.70537330E+03  EK= 0.41604E+01 SP= 0.00E+00 SK= 0.00E+00
    760 T=   224. E= -.70127943E+03 F= -.70545730E+03 E0= -.70545730E+03  EK= 0.41779E+01 SP= 0.00E+00 SK= 0.00E+00
    761 T=   227. E= -.70133121E+03 F= -.70556127E+03 E0= -.70556127E+03  EK= 0.42301E+01 SP= 0.00E+00 SK= 0.00E+00
    762 T=   230. E= -.70138822E+03 F= -.70566271E+03 E0= -.70566271E+03  EK= 0.42745E+01 SP= 0.00E+00 SK= 0.00E+00
    763 T=   227. E= -.70144256E+03 F= -.70567604E+03 E0= -.70567604E+03  EK= 0.42335E+01 SP= 0.00E+00 SK= 0.00E+00
    764 T=   224. E= -.70145260E+03 F= -.70562156E+03 E0= -.70562156E+03  EK= 0.41690E+01 SP= 0.00E+00 SK= 0.00E+00
    765 T=   220. E= -.70144330E+03 F= -.70552908E+03 E0= -.70552908E+03  EK= 0.40858E+01 SP= 0.00E+00 SK= 0.00E+00
    766 T=   214. E= -.70147373E+03 F= -.70544874E+03 E0= -.70544874E+03  EK= 0.39750E+01 SP= 0.00E+00 SK= 0.00E+00
    767 T=   214. E= -.70151301E+03 F= -.70549653E+03 E0= -.70549653E+03  EK= 0.39835E+01 SP= 0.00E+00 SK= 0.00E+00
    768 T=   222. E= -.70149978E+03 F= -.70563494E+03 E0= -.70563494E+03  EK= 0.41352E+01 SP= 0.00E+00 SK= 0.00E+00
    769 T=   229. E= -.70153514E+03 F= -.70579528E+03 E0= -.70579528E+03  EK= 0.42601E+01 SP= 0.00E+00 SK= 0.00E+00
    770 T=   233. E= -.70156128E+03 F= -.70588962E+03 E0= -.70588962E+03  EK= 0.43283E+01 SP= 0.00E+00 SK= 0.00E+00
    771 T=   232. E= -.70154899E+03 F= -.70586753E+03 E0= -.70586753E+03  EK= 0.43185E+01 SP= 0.00E+00 SK= 0.00E+00
    772 T=   229. E= -.70150104E+03 F= -.70576732E+03 E0= -.70576732E+03  EK= 0.42663E+01 SP= 0.00E+00 SK= 0.00E+00
    773 T=   222. E= -.70151864E+03 F= -.70564767E+03 E0= -.70564767E+03  EK= 0.41290E+01 SP= 0.00E+00 SK= 0.00E+00
    774 T=   215. E= -.70160482E+03 F= -.70560570E+03 E0= -.70560570E+03  EK= 0.40009E+01 SP= 0.00E+00 SK= 0.00E+00
    775 T=   217. E= -.70166419E+03 F= -.70569416E+03 E0= -.70569416E+03  EK= 0.40300E+01 SP= 0.00E+00 SK= 0.00E+00
    776 T=   226. E= -.70169338E+03 F= -.70589307E+03 E0= -.70589307E+03  EK= 0.41997E+01 SP= 0.00E+00 SK= 0.00E+00
    777 T=   234. E= -.70175606E+03 F= -.70611670E+03 E0= -.70611670E+03  EK= 0.43606E+01 SP= 0.00E+00 SK= 0.00E+00
    778 T=   235. E= -.70187358E+03 F= -.70625487E+03 E0= -.70625487E+03  EK= 0.43813E+01 SP= 0.00E+00 SK= 0.00E+00
    779 T=   234. E= -.70189544E+03 F= -.70625709E+03 E0= -.70625709E+03  EK= 0.43617E+01 SP= 0.00E+00 SK= 0.00E+00
    780 T=   228. E= -.70188052E+03 F= -.70612880E+03 E0= -.70612880E+03  EK= 0.42483E+01 SP= 0.00E+00 SK= 0.00E+00
    781 T=   219. E= -.70185557E+03 F= -.70594026E+03 E0= -.70594026E+03  EK= 0.40847E+01 SP= 0.00E+00 SK= 0.00E+00
    782 T=   214. E= -.70184099E+03 F= -.70581712E+03 E0= -.70581712E+03  EK= 0.39761E+01 SP= 0.00E+00 SK= 0.00E+00
    783 T=   213. E= -.70186136E+03 F= -.70582591E+03 E0= -.70582591E+03  EK= 0.39645E+01 SP= 0.00E+00 SK= 0.00E+00
    784 T=   220. E= -.70186825E+03 F= -.70596262E+03 E0= -.70596262E+03  EK= 0.40944E+01 SP= 0.00E+00 SK= 0.00E+00
    785 T=   229. E= -.70186750E+03 F= -.70612233E+03 E0= -.70612233E+03  EK= 0.42548E+01 SP= 0.00E+00 SK= 0.00E+00
    786 T=   235. E= -.70187374E+03 F= -.70624568E+03 E0= -.70624568E+03  EK= 0.43719E+01 SP= 0.00E+00 SK= 0.00E+00
    787 T=   234. E= -.70191449E+03 F= -.70627662E+03 E0= -.70627662E+03  EK= 0.43621E+01 SP= 0.00E+00 SK= 0.00E+00
    788 T=   226. E= -.70198213E+03 F= -.70619301E+03 E0= -.70619301E+03  EK= 0.42109E+01 SP= 0.00E+00 SK= 0.00E+00
    789 T=   216. E= -.70202222E+03 F= -.70604352E+03 E0= -.70604352E+03  EK= 0.40213E+01 SP= 0.00E+00 SK= 0.00E+00
    790 T=   209. E= -.70197531E+03 F= -.70587033E+03 E0= -.70587033E+03  EK= 0.38950E+01 SP= 0.00E+00 SK= 0.00E+00
    791 T=   201. E= -.70201459E+03 F= -.70575205E+03 E0= -.70575205E+03  EK= 0.37375E+01 SP= 0.00E+00 SK= 0.00E+00
    792 T=   198. E= -.70213098E+03 F= -.70582543E+03 E0= -.70582543E+03  EK= 0.36944E+01 SP= 0.00E+00 SK= 0.00E+00
    793 T=   207. E= -.70217151E+03 F= -.70603303E+03 E0= -.70603303E+03  EK= 0.38615E+01 SP= 0.00E+00 SK= 0.00E+00
    794 T=   215. E= -.70224862E+03 F= -.70625311E+03 E0= -.70625311E+03  EK= 0.40045E+01 SP= 0.00E+00 SK= 0.00E+00
    795 T=   218. E= -.70228550E+03 F= -.70634270E+03 E0= -.70634270E+03  EK= 0.40572E+01 SP= 0.00E+00 SK= 0.00E+00
    796 T=   215. E= -.70229127E+03 F= -.70628616E+03 E0= -.70628616E+03  EK= 0.39949E+01 SP= 0.00E+00 SK= 0.00E+00
    797 T=   206. E= -.70227319E+03 F= -.70611031E+03 E0= -.70611031E+03  EK= 0.38371E+01 SP= 0.00E+00 SK= 0.00E+00
    798 T=   196. E= -.70226639E+03 F= -.70592208E+03 E0= -.70592208E+03  EK= 0.36557E+01 SP= 0.00E+00 SK= 0.00E+00
    799 T=   190. E= -.70228044E+03 F= -.70581186E+03 E0= -.70581186E+03  EK= 0.35314E+01 SP= 0.00E+00 SK= 0.00E+00
    800 T=   195. E= -.70220906E+03 F= -.70584033E+03 E0= -.70584033E+03  EK= 0.36313E+01 SP= 0.00E+00 SK= 0.00E+00
    801 T=   202. E= -.70219601E+03 F= -.70596110E+03 E0= -.70596110E+03  EK= 0.37651E+01 SP= 0.00E+00 SK= 0.00E+00
    802 T=   210. E= -.70221755E+03 F= -.70612112E+03 E0= -.70612112E+03  EK= 0.39036E+01 SP= 0.00E+00 SK= 0.00E+00
    803 T=   220. E= -.70217061E+03 F= -.70626692E+03 E0= -.70626692E+03  EK= 0.40963E+01 SP= 0.00E+00 SK= 0.00E+00
    804 T=   225. E= -.70213292E+03 F= -.70632770E+03 E0= -.70632770E+03  EK= 0.41948E+01 SP= 0.00E+00 SK= 0.00E+00
    805 T=   224. E= -.70208505E+03 F= -.70624872E+03 E0= -.70624872E+03  EK= 0.41637E+01 SP= 0.00E+00 SK= 0.00E+00
    806 T=   217. E= -.70206876E+03 F= -.70610538E+03 E0= -.70610538E+03  EK= 0.40366E+01 SP= 0.00E+00 SK= 0.00E+00
    807 T=   208. E= -.70211031E+03 F= -.70597818E+03 E0= -.70597818E+03  EK= 0.38679E+01 SP= 0.00E+00 SK= 0.00E+00
    808 T=   203. E= -.70217979E+03 F= -.70595617E+03 E0= -.70595617E+03  EK= 0.37764E+01 SP= 0.00E+00 SK= 0.00E+00
    809 T=   205. E= -.70219549E+03 F= -.70600445E+03 E0= -.70600445E+03  EK= 0.38090E+01 SP= 0.00E+00 SK= 0.00E+00
    810 T=   209. E= -.70219333E+03 F= -.70608051E+03 E0= -.70608051E+03  EK= 0.38872E+01 SP= 0.00E+00 SK= 0.00E+00
    811 T=   212. E= -.70219821E+03 F= -.70614217E+03 E0= -.70614217E+03  EK= 0.39440E+01 SP= 0.00E+00 SK= 0.00E+00
    812 T=   210. E= -.70222679E+03 F= -.70614165E+03 E0= -.70614165E+03  EK= 0.39149E+01 SP= 0.00E+00 SK= 0.00E+00
    813 T=   204. E= -.70229493E+03 F= -.70609912E+03 E0= -.70609912E+03  EK= 0.38042E+01 SP= 0.00E+00 SK= 0.00E+00
    814 T=   201. E= -.70230595E+03 F= -.70604458E+03 E0= -.70604458E+03  EK= 0.37386E+01 SP= 0.00E+00 SK= 0.00E+00
    815 T=   201. E= -.70228503E+03 F= -.70602459E+03 E0= -.70602459E+03  EK= 0.37396E+01 SP= 0.00E+00 SK= 0.00E+00
    816 T=   203. E= -.70226078E+03 F= -.70604105E+03 E0= -.70604105E+03  EK= 0.37803E+01 SP= 0.00E+00 SK= 0.00E+00
    817 T=   208. E= -.70222426E+03 F= -.70609586E+03 E0= -.70609586E+03  EK= 0.38716E+01 SP= 0.00E+00 SK= 0.00E+00
    818 T=   212. E= -.70222225E+03 F= -.70617030E+03 E0= -.70617030E+03  EK= 0.39480E+01 SP= 0.00E+00 SK= 0.00E+00
    819 T=   218. E= -.70218754E+03 F= -.70625103E+03 E0= -.70625103E+03  EK= 0.40635E+01 SP= 0.00E+00 SK= 0.00E+00
    820 T=   224. E= -.70213175E+03 F= -.70630902E+03 E0= -.70630902E+03  EK= 0.41773E+01 SP= 0.00E+00 SK= 0.00E+00
    821 T=   224. E= -.70214920E+03 F= -.70631005E+03 E0= -.70631005E+03  EK= 0.41609E+01 SP= 0.00E+00 SK= 0.00E+00
    822 T=   221. E= -.70216361E+03 F= -.70627653E+03 E0= -.70627653E+03  EK= 0.41129E+01 SP= 0.00E+00 SK= 0.00E+00
    823 T=   221. E= -.70215709E+03 F= -.70627476E+03 E0= -.70627476E+03  EK= 0.41177E+01 SP= 0.00E+00 SK= 0.00E+00
    824 T=   222. E= -.70213543E+03 F= -.70626620E+03 E0= -.70626620E+03  EK= 0.41308E+01 SP= 0.00E+00 SK= 0.00E+00
    825 T=   222. E= -.70213336E+03 F= -.70627368E+03 E0= -.70627368E+03  EK= 0.41403E+01 SP= 0.00E+00 SK= 0.00E+00
    826 T=   224. E= -.70213400E+03 F= -.70630293E+03 E0= -.70630293E+03  EK= 0.41689E+01 SP= 0.00E+00 SK= 0.00E+00
    827 T=   228. E= -.70207978E+03 F= -.70632485E+03 E0= -.70632485E+03  EK= 0.42451E+01 SP= 0.00E+00 SK= 0.00E+00
    828 T=   230. E= -.70203482E+03 F= -.70631407E+03 E0= -.70631407E+03  EK= 0.42792E+01 SP= 0.00E+00 SK= 0.00E+00
    829 T=   227. E= -.70208012E+03 F= -.70630104E+03 E0= -.70630104E+03  EK= 0.42209E+01 SP= 0.00E+00 SK= 0.00E+00
    830 T=   228. E= -.70206733E+03 F= -.70630229E+03 E0= -.70630229E+03  EK= 0.42350E+01 SP= 0.00E+00 SK= 0.00E+00
    831 T=   229. E= -.70205509E+03 F= -.70631699E+03 E0= -.70631699E+03  EK= 0.42619E+01 SP= 0.00E+00 SK= 0.00E+00
    832 T=   230. E= -.70206520E+03 F= -.70633863E+03 E0= -.70633863E+03  EK= 0.42734E+01 SP= 0.00E+00 SK= 0.00E+00
    833 T=   229. E= -.70204525E+03 F= -.70631112E+03 E0= -.70631112E+03  EK= 0.42659E+01 SP= 0.00E+00 SK= 0.00E+00
    834 T=   227. E= -.70203854E+03 F= -.70625902E+03 E0= -.70625902E+03  EK= 0.42205E+01 SP= 0.00E+00 SK= 0.00E+00
    835 T=   222. E= -.70206519E+03 F= -.70620308E+03 E0= -.70620308E+03  EK= 0.41379E+01 SP= 0.00E+00 SK= 0.00E+00
    836 T=   218. E= -.70208701E+03 F= -.70615298E+03 E0= -.70615298E+03  EK= 0.40660E+01 SP= 0.00E+00 SK= 0.00E+00
    837 T=   214. E= -.70213257E+03 F= -.70611202E+03 E0= -.70611202E+03  EK= 0.39795E+01 SP= 0.00E+00 SK= 0.00E+00
    838 T=   211. E= -.70216694E+03 F= -.70608635E+03 E0= -.70608635E+03  EK= 0.39194E+01 SP= 0.00E+00 SK= 0.00E+00
    839 T=   206. E= -.70223956E+03 F= -.70607349E+03 E0= -.70607349E+03  EK= 0.38339E+01 SP= 0.00E+00 SK= 0.00E+00
    840 T=   200. E= -.70235508E+03 F= -.70608148E+03 E0= -.70608148E+03  EK= 0.37264E+01 SP= 0.00E+00 SK= 0.00E+00
    841 T=   200. E= -.70240885E+03 F= -.70613563E+03 E0= -.70613563E+03  EK= 0.37268E+01 SP= 0.00E+00 SK= 0.00E+00
    842 T=   199. E= -.70246928E+03 F= -.70618067E+03 E0= -.70618067E+03  EK= 0.37114E+01 SP= 0.00E+00 SK= 0.00E+00
    843 T=   201. E= -.70246050E+03 F= -.70620593E+03 E0= -.70620593E+03  EK= 0.37454E+01 SP= 0.00E+00 SK= 0.00E+00
    844 T=   201. E= -.70246247E+03 F= -.70620715E+03 E0= -.70620715E+03  EK= 0.37447E+01 SP= 0.00E+00 SK= 0.00E+00
    845 T=   197. E= -.70255280E+03 F= -.70622568E+03 E0= -.70622568E+03  EK= 0.36729E+01 SP= 0.00E+00 SK= 0.00E+00
    846 T=   197. E= -.70257356E+03 F= -.70624484E+03 E0= -.70624484E+03  EK= 0.36713E+01 SP= 0.00E+00 SK= 0.00E+00
    847 T=   198. E= -.70257453E+03 F= -.70625939E+03 E0= -.70625939E+03  EK= 0.36849E+01 SP= 0.00E+00 SK= 0.00E+00
    848 T=   196. E= -.70263186E+03 F= -.70627147E+03 E0= -.70627147E+03  EK= 0.36396E+01 SP= 0.00E+00 SK= 0.00E+00
    849 T=   195. E= -.70265144E+03 F= -.70627872E+03 E0= -.70627872E+03  EK= 0.36273E+01 SP= 0.00E+00 SK= 0.00E+00
    850 T=   197. E= -.70264168E+03 F= -.70631630E+03 E0= -.70631630E+03  EK= 0.36746E+01 SP= 0.00E+00 SK= 0.00E+00
    851 T=   206. E= -.70255004E+03 F= -.70638392E+03 E0= -.70638392E+03  EK= 0.38339E+01 SP= 0.00E+00 SK= 0.00E+00
    852 T=   213. E= -.70251206E+03 F= -.70647627E+03 E0= -.70647627E+03  EK= 0.39642E+01 SP= 0.00E+00 SK= 0.00E+00
    853 T=   216. E= -.70254968E+03 F= -.70656533E+03 E0= -.70656533E+03  EK= 0.40156E+01 SP= 0.00E+00 SK= 0.00E+00
    854 T=   221. E= -.70252232E+03 F= -.70663939E+03 E0= -.70663939E+03  EK= 0.41171E+01 SP= 0.00E+00 SK= 0.00E+00
    855 T=   226. E= -.70245807E+03 F= -.70665740E+03 E0= -.70665740E+03  EK= 0.41993E+01 SP= 0.00E+00 SK= 0.00E+00
    856 T=   226. E= -.70240107E+03 F= -.70660970E+03 E0= -.70660970E+03  EK= 0.42086E+01 SP= 0.00E+00 SK= 0.00E+00
    857 T=   223. E= -.70239580E+03 F= -.70654997E+03 E0= -.70654997E+03  EK= 0.41542E+01 SP= 0.00E+00 SK= 0.00E+00
    858 T=   219. E= -.70239921E+03 F= -.70648184E+03 E0= -.70648184E+03  EK= 0.40826E+01 SP= 0.00E+00 SK= 0.00E+00
    859 T=   215. E= -.70238853E+03 F= -.70639974E+03 E0= -.70639974E+03  EK= 0.40112E+01 SP= 0.00E+00 SK= 0.00E+00
    860 T=   210. E= -.70239793E+03 F= -.70631423E+03 E0= -.70631423E+03  EK= 0.39163E+01 SP= 0.00E+00 SK= 0.00E+00
    861 T=   206. E= -.70241590E+03 F= -.70625858E+03 E0= -.70625858E+03  EK= 0.38427E+01 SP= 0.00E+00 SK= 0.00E+00
    862 T=   208. E= -.70235949E+03 F= -.70623190E+03 E0= -.70623190E+03  EK= 0.38724E+01 SP= 0.00E+00 SK= 0.00E+00
    863 T=   206. E= -.70236152E+03 F= -.70619347E+03 E0= -.70619347E+03  EK= 0.38319E+01 SP= 0.00E+00 SK= 0.00E+00
    864 T=   199. E= -.70239976E+03 F= -.70609471E+03 E0= -.70609471E+03  EK= 0.36950E+01 SP= 0.00E+00 SK= 0.00E+00
    865 T=   195. E= -.70231044E+03 F= -.70594933E+03 E0= -.70594933E+03  EK= 0.36389E+01 SP= 0.00E+00 SK= 0.00E+00
    866 T=   194. E= -.70221077E+03 F= -.70581909E+03 E0= -.70581909E+03  EK= 0.36083E+01 SP= 0.00E+00 SK= 0.00E+00
    867 T=   192. E= -.70216079E+03 F= -.70572970E+03 E0= -.70572970E+03  EK= 0.35689E+01 SP= 0.00E+00 SK= 0.00E+00
    868 T=   191. E= -.70216448E+03 F= -.70571972E+03 E0= -.70571972E+03  EK= 0.35552E+01 SP= 0.00E+00 SK= 0.00E+00
    869 T=   191. E= -.70221452E+03 F= -.70577526E+03 E0= -.70577526E+03  EK= 0.35607E+01 SP= 0.00E+00 SK= 0.00E+00
    870 T=   192. E= -.70224926E+03 F= -.70581592E+03 E0= -.70581592E+03  EK= 0.35667E+01 SP= 0.00E+00 SK= 0.00E+00
    871 T=   192. E= -.70222802E+03 F= -.70580874E+03 E0= -.70580874E+03  EK= 0.35807E+01 SP= 0.00E+00 SK= 0.00E+00
    872 T=   190. E= -.70222992E+03 F= -.70576310E+03 E0= -.70576310E+03  EK= 0.35332E+01 SP= 0.00E+00 SK= 0.00E+00
    873 T=   185. E= -.70225293E+03 F= -.70570472E+03 E0= -.70570472E+03  EK= 0.34518E+01 SP= 0.00E+00 SK= 0.00E+00
    874 T=   183. E= -.70225664E+03 F= -.70565551E+03 E0= -.70565551E+03  EK= 0.33989E+01 SP= 0.00E+00 SK= 0.00E+00
    875 T=   183. E= -.70225089E+03 F= -.70565923E+03 E0= -.70565923E+03  EK= 0.34083E+01 SP= 0.00E+00 SK= 0.00E+00
    876 T=   188. E= -.70222384E+03 F= -.70571400E+03 E0= -.70571400E+03  EK= 0.34902E+01 SP= 0.00E+00 SK= 0.00E+00
    877 T=   195. E= -.70219816E+03 F= -.70583379E+03 E0= -.70583379E+03  EK= 0.36356E+01 SP= 0.00E+00 SK= 0.00E+00
    878 T=   203. E= -.70217154E+03 F= -.70595825E+03 E0= -.70595825E+03  EK= 0.37867E+01 SP= 0.00E+00 SK= 0.00E+00
    879 T=   208. E= -.70210582E+03 F= -.70597275E+03 E0= -.70597275E+03  EK= 0.38669E+01 SP= 0.00E+00 SK= 0.00E+00
    880 T=   205. E= -.70206514E+03 F= -.70587532E+03 E0= -.70587532E+03  EK= 0.38102E+01 SP= 0.00E+00 SK= 0.00E+00
    881 T=   200. E= -.70203854E+03 F= -.70575388E+03 E0= -.70575388E+03  EK= 0.37153E+01 SP= 0.00E+00 SK= 0.00E+00
    882 T=   199. E= -.70200698E+03 F= -.70571364E+03 E0= -.70571364E+03  EK= 0.37067E+01 SP= 0.00E+00 SK= 0.00E+00
    883 T=   203. E= -.70200684E+03 F= -.70579400E+03 E0= -.70579400E+03  EK= 0.37872E+01 SP= 0.00E+00 SK= 0.00E+00
    884 T=   209. E= -.70203320E+03 F= -.70593076E+03 E0= -.70593076E+03  EK= 0.38976E+01 SP= 0.00E+00 SK= 0.00E+00
    885 T=   212. E= -.70208805E+03 F= -.70603159E+03 E0= -.70603159E+03  EK= 0.39435E+01 SP= 0.00E+00 SK= 0.00E+00
    886 T=   216. E= -.70207474E+03 F= -.70610079E+03 E0= -.70610079E+03  EK= 0.40260E+01 SP= 0.00E+00 SK= 0.00E+00
    887 T=   222. E= -.70204608E+03 F= -.70617627E+03 E0= -.70617627E+03  EK= 0.41302E+01 SP= 0.00E+00 SK= 0.00E+00
    888 T=   223. E= -.70207935E+03 F= -.70623198E+03 E0= -.70623198E+03  EK= 0.41526E+01 SP= 0.00E+00 SK= 0.00E+00
    889 T=   223. E= -.70211443E+03 F= -.70626995E+03 E0= -.70626995E+03  EK= 0.41555E+01 SP= 0.00E+00 SK= 0.00E+00
    890 T=   223. E= -.70214795E+03 F= -.70629737E+03 E0= -.70629737E+03  EK= 0.41494E+01 SP= 0.00E+00 SK= 0.00E+00
    891 T=   224. E= -.70215015E+03 F= -.70632207E+03 E0= -.70632207E+03  EK= 0.41719E+01 SP= 0.00E+00 SK= 0.00E+00
    892 T=   225. E= -.70217642E+03 F= -.70637096E+03 E0= -.70637096E+03  EK= 0.41945E+01 SP= 0.00E+00 SK= 0.00E+00
    893 T=   227. E= -.70222962E+03 F= -.70645396E+03 E0= -.70645396E+03  EK= 0.42243E+01 SP= 0.00E+00 SK= 0.00E+00
    894 T=   230. E= -.70220545E+03 F= -.70649327E+03 E0= -.70649327E+03  EK= 0.42878E+01 SP= 0.00E+00 SK= 0.00E+00
    895 T=   235. E= -.70213415E+03 F= -.70651387E+03 E0= -.70651387E+03  EK= 0.43797E+01 SP= 0.00E+00 SK= 0.00E+00
    896 T=   236. E= -.70211971E+03 F= -.70650601E+03 E0= -.70650601E+03  EK= 0.43863E+01 SP= 0.00E+00 SK= 0.00E+00
    897 T=   235. E= -.70214151E+03 F= -.70650665E+03 E0= -.70650665E+03  EK= 0.43651E+01 SP= 0.00E+00 SK= 0.00E+00
    898 T=   232. E= -.70215443E+03 F= -.70647023E+03 E0= -.70647023E+03  EK= 0.43158E+01 SP= 0.00E+00 SK= 0.00E+00
    899 T=   226. E= -.70216009E+03 F= -.70637524E+03 E0= -.70637524E+03  EK= 0.42152E+01 SP= 0.00E+00 SK= 0.00E+00
    900 T=   220. E= -.70211883E+03 F= -.70621106E+03 E0= -.70621106E+03  EK= 0.40922E+01 SP= 0.00E+00 SK= 0.00E+00
    901 T=   214. E= -.70205109E+03 F= -.70602803E+03 E0= -.70602803E+03  EK= 0.39769E+01 SP= 0.00E+00 SK= 0.00E+00
    902 T=   212. E= -.70199361E+03 F= -.70593546E+03 E0= -.70593546E+03  EK= 0.39419E+01 SP= 0.00E+00 SK= 0.00E+00
    903 T=   219. E= -.70194796E+03 F= -.70601908E+03 E0= -.70601908E+03  EK= 0.40711E+01 SP= 0.00E+00 SK= 0.00E+00
    904 T=   228. E= -.70190838E+03 F= -.70615214E+03 E0= -.70615214E+03  EK= 0.42438E+01 SP= 0.00E+00 SK= 0.00E+00
    905 T=   233. E= -.70188722E+03 F= -.70623100E+03 E0= -.70623100E+03  EK= 0.43438E+01 SP= 0.00E+00 SK= 0.00E+00
    906 T=   229. E= -.70191779E+03 F= -.70618450E+03 E0= -.70618450E+03  EK= 0.42667E+01 SP= 0.00E+00 SK= 0.00E+00
    907 T=   219. E= -.70194166E+03 F= -.70602198E+03 E0= -.70602198E+03  EK= 0.40803E+01 SP= 0.00E+00 SK= 0.00E+00
    908 T=   212. E= -.70194524E+03 F= -.70588622E+03 E0= -.70588622E+03  EK= 0.39410E+01 SP= 0.00E+00 SK= 0.00E+00
    909 T=   207. E= -.70194428E+03 F= -.70580080E+03 E0= -.70580080E+03  EK= 0.38565E+01 SP= 0.00E+00 SK= 0.00E+00
    910 T=   208. E= -.70191336E+03 F= -.70577983E+03 E0= -.70577983E+03  EK= 0.38665E+01 SP= 0.00E+00 SK= 0.00E+00
    911 T=   211. E= -.70188437E+03 F= -.70580781E+03 E0= -.70580781E+03  EK= 0.39234E+01 SP= 0.00E+00 SK= 0.00E+00
    912 T=   214. E= -.70186631E+03 F= -.70584544E+03 E0= -.70584544E+03  EK= 0.39791E+01 SP= 0.00E+00 SK= 0.00E+00
    913 T=   217. E= -.70184743E+03 F= -.70587775E+03 E0= -.70587775E+03  EK= 0.40303E+01 SP= 0.00E+00 SK= 0.00E+00
    914 T=   216. E= -.70185813E+03 F= -.70588533E+03 E0= -.70588533E+03  EK= 0.40272E+01 SP= 0.00E+00 SK= 0.00E+00
    915 T=   216. E= -.70185875E+03 F= -.70588310E+03 E0= -.70588310E+03  EK= 0.40243E+01 SP= 0.00E+00 SK= 0.00E+00
    916 T=   213. E= -.70183739E+03 F= -.70581100E+03 E0= -.70581100E+03  EK= 0.39736E+01 SP= 0.00E+00 SK= 0.00E+00
    917 T=   207. E= -.70182806E+03 F= -.70568211E+03 E0= -.70568211E+03  EK= 0.38540E+01 SP= 0.00E+00 SK= 0.00E+00
    918 T=   200. E= -.70180124E+03 F= -.70552913E+03 E0= -.70552913E+03  EK= 0.37279E+01 SP= 0.00E+00 SK= 0.00E+00
    919 T=   196. E= -.70181452E+03 F= -.70546591E+03 E0= -.70546591E+03  EK= 0.36514E+01 SP= 0.00E+00 SK= 0.00E+00
    920 T=   200. E= -.70182150E+03 F= -.70553922E+03 E0= -.70553922E+03  EK= 0.37177E+01 SP= 0.00E+00 SK= 0.00E+00
    921 T=   215. E= -.70175288E+03 F= -.70574713E+03 E0= -.70574713E+03  EK= 0.39943E+01 SP= 0.00E+00 SK= 0.00E+00
    922 T=   230. E= -.70168254E+03 F= -.70596159E+03 E0= -.70596159E+03  EK= 0.42791E+01 SP= 0.00E+00 SK= 0.00E+00
    923 T=   239. E= -.70164436E+03 F= -.70608642E+03 E0= -.70608642E+03  EK= 0.44421E+01 SP= 0.00E+00 SK= 0.00E+00
    924 T=   239. E= -.70168626E+03 F= -.70612797E+03 E0= -.70612797E+03  EK= 0.44417E+01 SP= 0.00E+00 SK= 0.00E+00
    925 T=   236. E= -.70172133E+03 F= -.70612286E+03 E0= -.70612286E+03  EK= 0.44015E+01 SP= 0.00E+00 SK= 0.00E+00
    926 T=   237. E= -.70169043E+03 F= -.70610699E+03 E0= -.70610699E+03  EK= 0.44166E+01 SP= 0.00E+00 SK= 0.00E+00
    927 T=   234. E= -.70172838E+03 F= -.70608489E+03 E0= -.70608489E+03  EK= 0.43565E+01 SP= 0.00E+00 SK= 0.00E+00
    928 T=   229. E= -.70178259E+03 F= -.70604419E+03 E0= -.70604419E+03  EK= 0.42616E+01 SP= 0.00E+00 SK= 0.00E+00
    929 T=   230. E= -.70177663E+03 F= -.70605439E+03 E0= -.70605439E+03  EK= 0.42778E+01 SP= 0.00E+00 SK= 0.00E+00
    930 T=   233. E= -.70178406E+03 F= -.70611452E+03 E0= -.70611452E+03  EK= 0.43305E+01 SP= 0.00E+00 SK= 0.00E+00
    931 T=   234. E= -.70180931E+03 F= -.70615908E+03 E0= -.70615908E+03  EK= 0.43498E+01 SP= 0.00E+00 SK= 0.00E+00
    932 T=   235. E= -.70177449E+03 F= -.70615334E+03 E0= -.70615334E+03  EK= 0.43789E+01 SP= 0.00E+00 SK= 0.00E+00
    933 T=   231. E= -.70172556E+03 F= -.70602299E+03 E0= -.70602299E+03  EK= 0.42974E+01 SP= 0.00E+00 SK= 0.00E+00
    934 T=   221. E= -.70173245E+03 F= -.70584500E+03 E0= -.70584500E+03  EK= 0.41126E+01 SP= 0.00E+00 SK= 0.00E+00
    935 T=   215. E= -.70172365E+03 F= -.70571780E+03 E0= -.70571780E+03  EK= 0.39942E+01 SP= 0.00E+00 SK= 0.00E+00
    936 T=   218. E= -.70164952E+03 F= -.70570210E+03 E0= -.70570210E+03  EK= 0.40526E+01 SP= 0.00E+00 SK= 0.00E+00
    937 T=   223. E= -.70162004E+03 F= -.70576508E+03 E0= -.70576508E+03  EK= 0.41450E+01 SP= 0.00E+00 SK= 0.00E+00
    938 T=   227. E= -.70161611E+03 F= -.70584515E+03 E0= -.70584515E+03  EK= 0.42290E+01 SP= 0.00E+00 SK= 0.00E+00
    939 T=   229. E= -.70161461E+03 F= -.70588210E+03 E0= -.70588210E+03  EK= 0.42675E+01 SP= 0.00E+00 SK= 0.00E+00
    940 T=   231. E= -.70163575E+03 F= -.70594460E+03 E0= -.70594460E+03  EK= 0.43088E+01 SP= 0.00E+00 SK= 0.00E+00
    941 T=   235. E= -.70163283E+03 F= -.70599977E+03 E0= -.70599977E+03  EK= 0.43669E+01 SP= 0.00E+00 SK= 0.00E+00
    942 T=   234. E= -.70164895E+03 F= -.70600930E+03 E0= -.70600930E+03  EK= 0.43603E+01 SP= 0.00E+00 SK= 0.00E+00
    943 T=   230. E= -.70163808E+03 F= -.70592590E+03 E0= -.70592590E+03  EK= 0.42878E+01 SP= 0.00E+00 SK= 0.00E+00
    944 T=   229. E= -.70157457E+03 F= -.70582949E+03 E0= -.70582949E+03  EK= 0.42549E+01 SP= 0.00E+00 SK= 0.00E+00
    945 T=   228. E= -.70151212E+03 F= -.70575870E+03 E0= -.70575870E+03  EK= 0.42466E+01 SP= 0.00E+00 SK= 0.00E+00
    946 T=   227. E= -.70149295E+03 F= -.70571273E+03 E0= -.70571273E+03  EK= 0.42198E+01 SP= 0.00E+00 SK= 0.00E+00
    947 T=   225. E= -.70150125E+03 F= -.70569608E+03 E0= -.70569608E+03  EK= 0.41948E+01 SP= 0.00E+00 SK= 0.00E+00
    948 T=   227. E= -.70142627E+03 F= -.70564662E+03 E0= -.70564662E+03  EK= 0.42203E+01 SP= 0.00E+00 SK= 0.00E+00
    949 T=   230. E= -.70129179E+03 F= -.70557705E+03 E0= -.70557705E+03  EK= 0.42853E+01 SP= 0.00E+00 SK= 0.00E+00
    950 T=   227. E= -.70124920E+03 F= -.70547832E+03 E0= -.70547832E+03  EK= 0.42291E+01 SP= 0.00E+00 SK= 0.00E+00
    951 T=   223. E= -.70127585E+03 F= -.70542150E+03 E0= -.70542150E+03  EK= 0.41456E+01 SP= 0.00E+00 SK= 0.00E+00
    952 T=   223. E= -.70127615E+03 F= -.70542894E+03 E0= -.70542894E+03  EK= 0.41528E+01 SP= 0.00E+00 SK= 0.00E+00
    953 T=   225. E= -.70126266E+03 F= -.70544183E+03 E0= -.70544183E+03  EK= 0.41792E+01 SP= 0.00E+00 SK= 0.00E+00
    954 T=   225. E= -.70126974E+03 F= -.70546520E+03 E0= -.70546520E+03  EK= 0.41955E+01 SP= 0.00E+00 SK= 0.00E+00
    955 T=   227. E= -.70129211E+03 F= -.70551972E+03 E0= -.70551972E+03  EK= 0.42276E+01 SP= 0.00E+00 SK= 0.00E+00
    956 T=   234. E= -.70128786E+03 F= -.70564926E+03 E0= -.70564926E+03  EK= 0.43614E+01 SP= 0.00E+00 SK= 0.00E+00
    957 T=   245. E= -.70130005E+03 F= -.70586524E+03 E0= -.70586524E+03  EK= 0.45652E+01 SP= 0.00E+00 SK= 0.00E+00
    958 T=   253. E= -.70134180E+03 F= -.70605714E+03 E0= -.70605714E+03  EK= 0.47153E+01 SP= 0.00E+00 SK= 0.00E+00
    959 T=   253. E= -.70144611E+03 F= -.70615261E+03 E0= -.70615261E+03  EK= 0.47065E+01 SP= 0.00E+00 SK= 0.00E+00
    960 T=   247. E= -.70153871E+03 F= -.70613863E+03 E0= -.70613863E+03  EK= 0.45999E+01 SP= 0.00E+00 SK= 0.00E+00
    961 T=   243. E= -.70154873E+03 F= -.70607064E+03 E0= -.70607064E+03  EK= 0.45219E+01 SP= 0.00E+00 SK= 0.00E+00
    962 T=   242. E= -.70155171E+03 F= -.70604858E+03 E0= -.70604858E+03  EK= 0.44969E+01 SP= 0.00E+00 SK= 0.00E+00
    963 T=   241. E= -.70158757E+03 F= -.70607832E+03 E0= -.70607832E+03  EK= 0.44907E+01 SP= 0.00E+00 SK= 0.00E+00
    964 T=   244. E= -.70156346E+03 F= -.70610019E+03 E0= -.70610019E+03  EK= 0.45367E+01 SP= 0.00E+00 SK= 0.00E+00
    965 T=   244. E= -.70151503E+03 F= -.70605346E+03 E0= -.70605346E+03  EK= 0.45384E+01 SP= 0.00E+00 SK= 0.00E+00
    966 T=   240. E= -.70148848E+03 F= -.70594996E+03 E0= -.70594996E+03  EK= 0.44615E+01 SP= 0.00E+00 SK= 0.00E+00
    967 T=   234. E= -.70150770E+03 F= -.70585749E+03 E0= -.70585749E+03  EK= 0.43498E+01 SP= 0.00E+00 SK= 0.00E+00
    968 T=   231. E= -.70154317E+03 F= -.70583442E+03 E0= -.70583442E+03  EK= 0.42912E+01 SP= 0.00E+00 SK= 0.00E+00
    969 T=   233. E= -.70152013E+03 F= -.70586321E+03 E0= -.70586321E+03  EK= 0.43431E+01 SP= 0.00E+00 SK= 0.00E+00
    970 T=   236. E= -.70153256E+03 F= -.70593314E+03 E0= -.70593314E+03  EK= 0.44006E+01 SP= 0.00E+00 SK= 0.00E+00
    971 T=   238. E= -.70152544E+03 F= -.70595090E+03 E0= -.70595090E+03  EK= 0.44255E+01 SP= 0.00E+00 SK= 0.00E+00
    972 T=   239. E= -.70148567E+03 F= -.70594102E+03 E0= -.70594102E+03  EK= 0.44553E+01 SP= 0.00E+00 SK= 0.00E+00
    973 T=   245. E= -.70143026E+03 F= -.70599423E+03 E0= -.70599423E+03  EK= 0.45640E+01 SP= 0.00E+00 SK= 0.00E+00
    974 T=   250. E= -.70141754E+03 F= -.70606758E+03 E0= -.70606758E+03  EK= 0.46500E+01 SP= 0.00E+00 SK= 0.00E+00
    975 T=   250. E= -.70145857E+03 F= -.70612114E+03 E0= -.70612114E+03  EK= 0.46626E+01 SP= 0.00E+00 SK= 0.00E+00
    976 T=   250. E= -.70148577E+03 F= -.70614551E+03 E0= -.70614551E+03  EK= 0.46597E+01 SP= 0.00E+00 SK= 0.00E+00
    977 T=   250. E= -.70146635E+03 F= -.70612604E+03 E0= -.70612604E+03  EK= 0.46597E+01 SP= 0.00E+00 SK= 0.00E+00
    978 T=   249. E= -.70144868E+03 F= -.70608760E+03 E0= -.70608760E+03  EK= 0.46389E+01 SP= 0.00E+00 SK= 0.00E+00
    979 T=   244. E= -.70148454E+03 F= -.70603414E+03 E0= -.70603414E+03  EK= 0.45496E+01 SP= 0.00E+00 SK= 0.00E+00
    980 T=   241. E= -.70153247E+03 F= -.70601703E+03 E0= -.70601703E+03  EK= 0.44846E+01 SP= 0.00E+00 SK= 0.00E+00
    981 T=   235. E= -.70157703E+03 F= -.70595971E+03 E0= -.70595971E+03  EK= 0.43827E+01 SP= 0.00E+00 SK= 0.00E+00
    982 T=   234. E= -.70155141E+03 F= -.70590064E+03 E0= -.70590064E+03  EK= 0.43492E+01 SP= 0.00E+00 SK= 0.00E+00
    983 T=   232. E= -.70153408E+03 F= -.70586059E+03 E0= -.70586059E+03  EK= 0.43265E+01 SP= 0.00E+00 SK= 0.00E+00
    984 T=   227. E= -.70160766E+03 F= -.70583225E+03 E0= -.70583225E+03  EK= 0.42246E+01 SP= 0.00E+00 SK= 0.00E+00
    985 T=   222. E= -.70175152E+03 F= -.70588526E+03 E0= -.70588526E+03  EK= 0.41337E+01 SP= 0.00E+00 SK= 0.00E+00
    986 T=   223. E= -.70177540E+03 F= -.70592220E+03 E0= -.70592220E+03  EK= 0.41468E+01 SP= 0.00E+00 SK= 0.00E+00
    987 T=   224. E= -.70173415E+03 F= -.70590559E+03 E0= -.70590559E+03  EK= 0.41714E+01 SP= 0.00E+00 SK= 0.00E+00
    988 T=   222. E= -.70175393E+03 F= -.70588941E+03 E0= -.70588941E+03  EK= 0.41355E+01 SP= 0.00E+00 SK= 0.00E+00
    989 T=   227. E= -.70168459E+03 F= -.70591007E+03 E0= -.70591007E+03  EK= 0.42255E+01 SP= 0.00E+00 SK= 0.00E+00
    990 T=   239. E= -.70158711E+03 F= -.70602786E+03 E0= -.70602786E+03  EK= 0.44408E+01 SP= 0.00E+00 SK= 0.00E+00
    991 T=   244. E= -.70164672E+03 F= -.70618950E+03 E0= -.70618950E+03  EK= 0.45428E+01 SP= 0.00E+00 SK= 0.00E+00
    992 T=   242. E= -.70179628E+03 F= -.70630200E+03 E0= -.70630200E+03  EK= 0.45057E+01 SP= 0.00E+00 SK= 0.00E+00
    993 T=   243. E= -.70180762E+03 F= -.70632989E+03 E0= -.70632989E+03  EK= 0.45223E+01 SP= 0.00E+00 SK= 0.00E+00
    994 T=   245. E= -.70170185E+03 F= -.70625728E+03 E0= -.70625728E+03  EK= 0.45554E+01 SP= 0.00E+00 SK= 0.00E+00
    995 T=   237. E= -.70172416E+03 F= -.70614112E+03 E0= -.70614112E+03  EK= 0.44170E+01 SP= 0.00E+00 SK= 0.00E+00
    996 T=   228. E= -.70180129E+03 F= -.70604757E+03 E0= -.70604757E+03  EK= 0.42463E+01 SP= 0.00E+00 SK= 0.00E+00
    997 T=   225. E= -.70185732E+03 F= -.70604183E+03 E0= -.70604183E+03  EK= 0.41845E+01 SP= 0.00E+00 SK= 0.00E+00
    998 T=   225. E= -.70192045E+03 F= -.70611506E+03 E0= -.70611506E+03  EK= 0.41946E+01 SP= 0.00E+00 SK= 0.00E+00
    999 T=   228. E= -.70197756E+03 F= -.70622306E+03 E0= -.70622306E+03  EK= 0.42455E+01 SP= 0.00E+00 SK= 0.00E+00
   1000 T=   227. E= -.70209738E+03 F= -.70633145E+03 E0= -.70633145E+03  EK= 0.42341E+01 SP= 0.00E+00 SK= 0.00E+00
   1001 T=   226. E= -.70218759E+03 F= -.70638784E+03 E0= -.70638784E+03  EK= 0.42003E+01 SP= 0.00E+00 SK= 0.00E+00
   1002 T=   226. E= -.70214935E+03 F= -.70635900E+03 E0= -.70635900E+03  EK= 0.42097E+01 SP= 0.00E+00 SK= 0.00E+00
   1003 T=   222. E= -.70215062E+03 F= -.70628216E+03 E0= -.70628216E+03  EK= 0.41315E+01 SP= 0.00E+00 SK= 0.00E+00
   1004 T=   217. E= -.70215923E+03 F= -.70620764E+03 E0= -.70620764E+03  EK= 0.40484E+01 SP= 0.00E+00 SK= 0.00E+00
   1005 T=   218. E= -.70210278E+03 F= -.70616559E+03 E0= -.70616559E+03  EK= 0.40628E+01 SP= 0.00E+00 SK= 0.00E+00
   1006 T=   219. E= -.70211284E+03 F= -.70619198E+03 E0= -.70619198E+03  EK= 0.40791E+01 SP= 0.00E+00 SK= 0.00E+00
   1007 T=   219. E= -.70217194E+03 F= -.70624281E+03 E0= -.70624281E+03  EK= 0.40709E+01 SP= 0.00E+00 SK= 0.00E+00
   1008 T=   221. E= -.70218347E+03 F= -.70630447E+03 E0= -.70630447E+03  EK= 0.41210E+01 SP= 0.00E+00 SK= 0.00E+00
   1009 T=   223. E= -.70218770E+03 F= -.70634005E+03 E0= -.70634005E+03  EK= 0.41524E+01 SP= 0.00E+00 SK= 0.00E+00
   1010 T=   221. E= -.70219694E+03 F= -.70631585E+03 E0= -.70631585E+03  EK= 0.41189E+01 SP= 0.00E+00 SK= 0.00E+00
   1011 T=   218. E= -.70216010E+03 F= -.70621395E+03 E0= -.70621395E+03  EK= 0.40539E+01 SP= 0.00E+00 SK= 0.00E+00
   1012 T=   210. E= -.70215234E+03 F= -.70606302E+03 E0= -.70606302E+03  EK= 0.39107E+01 SP= 0.00E+00 SK= 0.00E+00
   1013 T=   204. E= -.70215662E+03 F= -.70595930E+03 E0= -.70595930E+03  EK= 0.38027E+01 SP= 0.00E+00 SK= 0.00E+00
   1014 T=   203. E= -.70213284E+03 F= -.70591225E+03 E0= -.70591225E+03  EK= 0.37794E+01 SP= 0.00E+00 SK= 0.00E+00
   1015 T=   203. E= -.70215846E+03 F= -.70593013E+03 E0= -.70593013E+03  EK= 0.37717E+01 SP= 0.00E+00 SK= 0.00E+00
   1016 T=   204. E= -.70221108E+03 F= -.70601745E+03 E0= -.70601745E+03  EK= 0.38064E+01 SP= 0.00E+00 SK= 0.00E+00
   1017 T=   208. E= -.70221312E+03 F= -.70607784E+03 E0= -.70607784E+03  EK= 0.38647E+01 SP= 0.00E+00 SK= 0.00E+00
   1018 T=   209. E= -.70221156E+03 F= -.70610584E+03 E0= -.70610584E+03  EK= 0.38943E+01 SP= 0.00E+00 SK= 0.00E+00
   1019 T=   209. E= -.70220776E+03 F= -.70609479E+03 E0= -.70609479E+03  EK= 0.38870E+01 SP= 0.00E+00 SK= 0.00E+00
   1020 T=   208. E= -.70221727E+03 F= -.70608006E+03 E0= -.70608006E+03  EK= 0.38628E+01 SP= 0.00E+00 SK= 0.00E+00
   1021 T=   207. E= -.70224782E+03 F= -.70609736E+03 E0= -.70609736E+03  EK= 0.38495E+01 SP= 0.00E+00 SK= 0.00E+00
   1022 T=   205. E= -.70231068E+03 F= -.70613042E+03 E0= -.70613042E+03  EK= 0.38197E+01 SP= 0.00E+00 SK= 0.00E+00
   1023 T=   204. E= -.70237954E+03 F= -.70618394E+03 E0= -.70618394E+03  EK= 0.38044E+01 SP= 0.00E+00 SK= 0.00E+00
   1024 T=   210. E= -.70232911E+03 F= -.70623817E+03 E0= -.70623817E+03  EK= 0.39091E+01 SP= 0.00E+00 SK= 0.00E+00
   1025 T=   218. E= -.70223908E+03 F= -.70628936E+03 E0= -.70628936E+03  EK= 0.40503E+01 SP= 0.00E+00 SK= 0.00E+00
   1026 T=   220. E= -.70222088E+03 F= -.70631954E+03 E0= -.70631954E+03  EK= 0.40987E+01 SP= 0.00E+00 SK= 0.00E+00
   1027 T=   221. E= -.70223210E+03 F= -.70635331E+03 E0= -.70635331E+03  EK= 0.41212E+01 SP= 0.00E+00 SK= 0.00E+00
   1028 T=   222. E= -.70226269E+03 F= -.70640392E+03 E0= -.70640392E+03  EK= 0.41412E+01 SP= 0.00E+00 SK= 0.00E+00
   1029 T=   224. E= -.70225933E+03 F= -.70642367E+03 E0= -.70642367E+03  EK= 0.41643E+01 SP= 0.00E+00 SK= 0.00E+00
   1030 T=   225. E= -.70219481E+03 F= -.70638184E+03 E0= -.70638184E+03  EK= 0.41870E+01 SP= 0.00E+00 SK= 0.00E+00
   1031 T=   220. E= -.70217624E+03 F= -.70627017E+03 E0= -.70627017E+03  EK= 0.40939E+01 SP= 0.00E+00 SK= 0.00E+00
   1032 T=   214. E= -.70216210E+03 F= -.70615153E+03 E0= -.70615153E+03  EK= 0.39894E+01 SP= 0.00E+00 SK= 0.00E+00
   1033 T=   213. E= -.70211824E+03 F= -.70608607E+03 E0= -.70608607E+03  EK= 0.39678E+01 SP= 0.00E+00 SK= 0.00E+00
   1034 T=   214. E= -.70211095E+03 F= -.70609017E+03 E0= -.70609017E+03  EK= 0.39792E+01 SP= 0.00E+00 SK= 0.00E+00
   1035 T=   216. E= -.70214625E+03 F= -.70616307E+03 E0= -.70616307E+03  EK= 0.40168E+01 SP= 0.00E+00 SK= 0.00E+00
   1036 T=   218. E= -.70214342E+03 F= -.70620336E+03 E0= -.70620336E+03  EK= 0.40599E+01 SP= 0.00E+00 SK= 0.00E+00
   1037 T=   222. E= -.70206010E+03 F= -.70619334E+03 E0= -.70619334E+03  EK= 0.41332E+01 SP= 0.00E+00 SK= 0.00E+00
   1038 T=   221. E= -.70199744E+03 F= -.70611785E+03 E0= -.70611785E+03  EK= 0.41204E+01 SP= 0.00E+00 SK= 0.00E+00
   1039 T=   212. E= -.70204036E+03 F= -.70597980E+03 E0= -.70597980E+03  EK= 0.39394E+01 SP= 0.00E+00 SK= 0.00E+00
   1040 T=   201. E= -.70212016E+03 F= -.70585503E+03 E0= -.70585503E+03  EK= 0.37349E+01 SP= 0.00E+00 SK= 0.00E+00
   1041 T=   198. E= -.70214577E+03 F= -.70582555E+03 E0= -.70582555E+03  EK= 0.36798E+01 SP= 0.00E+00 SK= 0.00E+00
   1042 T=   207. E= -.70206348E+03 F= -.70590987E+03 E0= -.70590987E+03  EK= 0.38464E+01 SP= 0.00E+00 SK= 0.00E+00
   1043 T=   215. E= -.70200625E+03 F= -.70600863E+03 E0= -.70600863E+03  EK= 0.40024E+01 SP= 0.00E+00 SK= 0.00E+00
   1044 T=   222. E= -.70198104E+03 F= -.70611850E+03 E0= -.70611850E+03  EK= 0.41375E+01 SP= 0.00E+00 SK= 0.00E+00
   1045 T=   227. E= -.70197111E+03 F= -.70620103E+03 E0= -.70620103E+03  EK= 0.42299E+01 SP= 0.00E+00 SK= 0.00E+00
   1046 T=   228. E= -.70198436E+03 F= -.70622831E+03 E0= -.70622831E+03  EK= 0.42440E+01 SP= 0.00E+00 SK= 0.00E+00
   1047 T=   226. E= -.70197783E+03 F= -.70618871E+03 E0= -.70618871E+03  EK= 0.42109E+01 SP= 0.00E+00 SK= 0.00E+00
   1048 T=   221. E= -.70197816E+03 F= -.70608606E+03 E0= -.70608606E+03  EK= 0.41079E+01 SP= 0.00E+00 SK= 0.00E+00
   1049 T=   214. E= -.70197009E+03 F= -.70596084E+03 E0= -.70596084E+03  EK= 0.39908E+01 SP= 0.00E+00 SK= 0.00E+00
   1050 T=   212. E= -.70195712E+03 F= -.70589472E+03 E0= -.70589472E+03  EK= 0.39376E+01 SP= 0.00E+00 SK= 0.00E+00
   1051 T=   213. E= -.70197266E+03 F= -.70593671E+03 E0= -.70593671E+03  EK= 0.39641E+01 SP= 0.00E+00 SK= 0.00E+00
   1052 T=   220. E= -.70198414E+03 F= -.70606987E+03 E0= -.70606987E+03  EK= 0.40857E+01 SP= 0.00E+00 SK= 0.00E+00
   1053 T=   232. E= -.70190672E+03 F= -.70623420E+03 E0= -.70623420E+03  EK= 0.43275E+01 SP= 0.00E+00 SK= 0.00E+00
   1054 T=   244. E= -.70180259E+03 F= -.70634051E+03 E0= -.70634051E+03  EK= 0.45379E+01 SP= 0.00E+00 SK= 0.00E+00
   1055 T=   248. E= -.70172880E+03 F= -.70633838E+03 E0= -.70633838E+03  EK= 0.46096E+01 SP= 0.00E+00 SK= 0.00E+00
   1056 T=   243. E= -.70169578E+03 F= -.70621919E+03 E0= -.70621919E+03  EK= 0.45234E+01 SP= 0.00E+00 SK= 0.00E+00
   1057 T=   235. E= -.70167665E+03 F= -.70604830E+03 E0= -.70604830E+03  EK= 0.43717E+01 SP= 0.00E+00 SK= 0.00E+00
   1058 T=   226. E= -.70164987E+03 F= -.70585952E+03 E0= -.70585952E+03  EK= 0.42096E+01 SP= 0.00E+00 SK= 0.00E+00
   1059 T=   221. E= -.70166060E+03 F= -.70577520E+03 E0= -.70577520E+03  EK= 0.41146E+01 SP= 0.00E+00 SK= 0.00E+00
   1060 T=   223. E= -.70165548E+03 F= -.70579727E+03 E0= -.70579727E+03  EK= 0.41418E+01 SP= 0.00E+00 SK= 0.00E+00
   1061 T=   231. E= -.70162044E+03 F= -.70591315E+03 E0= -.70591315E+03  EK= 0.42927E+01 SP= 0.00E+00 SK= 0.00E+00
   1062 T=   237. E= -.70164243E+03 F= -.70606240E+03 E0= -.70606240E+03  EK= 0.44200E+01 SP= 0.00E+00 SK= 0.00E+00
   1063 T=   238. E= -.70166465E+03 F= -.70610055E+03 E0= -.70610055E+03  EK= 0.44359E+01 SP= 0.00E+00 SK= 0.00E+00
   1064 T=   232. E= -.70167594E+03 F= -.70600195E+03 E0= -.70600195E+03  EK= 0.43260E+01 SP= 0.00E+00 SK= 0.00E+00
   1065 T=   219. E= -.70171919E+03 F= -.70579533E+03 E0= -.70579533E+03  EK= 0.40761E+01 SP= 0.00E+00 SK= 0.00E+00
   1066 T=   208. E= -.70172165E+03 F= -.70559778E+03 E0= -.70559778E+03  EK= 0.38761E+01 SP= 0.00E+00 SK= 0.00E+00
   1067 T=   204. E= -.70168027E+03 F= -.70547960E+03 E0= -.70547960E+03  EK= 0.37993E+01 SP= 0.00E+00 SK= 0.00E+00
   1068 T=   208. E= -.70159748E+03 F= -.70546479E+03 E0= -.70546479E+03  EK= 0.38673E+01 SP= 0.00E+00 SK= 0.00E+00
   1069 T=   216. E= -.70150680E+03 F= -.70553404E+03 E0= -.70553404E+03  EK= 0.40272E+01 SP= 0.00E+00 SK= 0.00E+00
   1070 T=   225. E= -.70144754E+03 F= -.70563497E+03 E0= -.70563497E+03  EK= 0.41874E+01 SP= 0.00E+00 SK= 0.00E+00
   1071 T=   234. E= -.70137638E+03 F= -.70572362E+03 E0= -.70572362E+03  EK= 0.43472E+01 SP= 0.00E+00 SK= 0.00E+00
   1072 T=   238. E= -.70132218E+03 F= -.70574674E+03 E0= -.70574674E+03  EK= 0.44246E+01 SP= 0.00E+00 SK= 0.00E+00
   1073 T=   233. E= -.70133127E+03 F= -.70566584E+03 E0= -.70566584E+03  EK= 0.43346E+01 SP= 0.00E+00 SK= 0.00E+00
   1074 T=   228. E= -.70132804E+03 F= -.70557067E+03 E0= -.70557067E+03  EK= 0.42426E+01 SP= 0.00E+00 SK= 0.00E+00
   1075 T=   225. E= -.70132860E+03 F= -.70551768E+03 E0= -.70551768E+03  EK= 0.41891E+01 SP= 0.00E+00 SK= 0.00E+00
   1076 T=   222. E= -.70138156E+03 F= -.70551915E+03 E0= -.70551915E+03  EK= 0.41376E+01 SP= 0.00E+00 SK= 0.00E+00
   1077 T=   224. E= -.70140850E+03 F= -.70557773E+03 E0= -.70557773E+03  EK= 0.41692E+01 SP= 0.00E+00 SK= 0.00E+00
   1078 T=   226. E= -.70144254E+03 F= -.70564295E+03 E0= -.70564295E+03  EK= 0.42004E+01 SP= 0.00E+00 SK= 0.00E+00
   1079 T=   222. E= -.70153484E+03 F= -.70565965E+03 E0= -.70565965E+03  EK= 0.41248E+01 SP= 0.00E+00 SK= 0.00E+00
   1080 T=   218. E= -.70155163E+03 F= -.70560672E+03 E0= -.70560672E+03  EK= 0.40551E+01 SP= 0.00E+00 SK= 0.00E+00
   1081 T=   219. E= -.70148366E+03 F= -.70556459E+03 E0= -.70556459E+03  EK= 0.40809E+01 SP= 0.00E+00 SK= 0.00E+00
   1082 T=   223. E= -.70145556E+03 F= -.70559761E+03 E0= -.70559761E+03  EK= 0.41420E+01 SP= 0.00E+00 SK= 0.00E+00
   1083 T=   229. E= -.70145205E+03 F= -.70570706E+03 E0= -.70570706E+03  EK= 0.42550E+01 SP= 0.00E+00 SK= 0.00E+00
   1084 T=   238. E= -.70138337E+03 F= -.70581430E+03 E0= -.70581430E+03  EK= 0.44309E+01 SP= 0.00E+00 SK= 0.00E+00
   1085 T=   240. E= -.70135257E+03 F= -.70581527E+03 E0= -.70581527E+03  EK= 0.44627E+01 SP= 0.00E+00 SK= 0.00E+00
   1086 T=   235. E= -.70137576E+03 F= -.70575393E+03 E0= -.70575393E+03  EK= 0.43782E+01 SP= 0.00E+00 SK= 0.00E+00
   1087 T=   229. E= -.70142311E+03 F= -.70568538E+03 E0= -.70568538E+03  EK= 0.42623E+01 SP= 0.00E+00 SK= 0.00E+00
   1088 T=   229. E= -.70146376E+03 F= -.70572354E+03 E0= -.70572354E+03  EK= 0.42598E+01 SP= 0.00E+00 SK= 0.00E+00
   1089 T=   234. E= -.70150463E+03 F= -.70586526E+03 E0= -.70586526E+03  EK= 0.43606E+01 SP= 0.00E+00 SK= 0.00E+00
   1090 T=   238. E= -.70157032E+03 F= -.70600891E+03 E0= -.70600891E+03  EK= 0.44386E+01 SP= 0.00E+00 SK= 0.00E+00
   1091 T=   241. E= -.70155665E+03 F= -.70605113E+03 E0= -.70605113E+03  EK= 0.44945E+01 SP= 0.00E+00 SK= 0.00E+00
   1092 T=   242. E= -.70152651E+03 F= -.70602471E+03 E0= -.70602471E+03  EK= 0.44982E+01 SP= 0.00E+00 SK= 0.00E+00
   1093 T=   235. E= -.70153305E+03 F= -.70590898E+03 E0= -.70590898E+03  EK= 0.43759E+01 SP= 0.00E+00 SK= 0.00E+00
   1094 T=   229. E= -.70153985E+03 F= -.70580051E+03 E0= -.70580051E+03  EK= 0.42607E+01 SP= 0.00E+00 SK= 0.00E+00
   1095 T=   223. E= -.70156323E+03 F= -.70570963E+03 E0= -.70570963E+03  EK= 0.41464E+01 SP= 0.00E+00 SK= 0.00E+00
   1096 T=   221. E= -.70156004E+03 F= -.70568084E+03 E0= -.70568084E+03  EK= 0.41208E+01 SP= 0.00E+00 SK= 0.00E+00
   1097 T=   226. E= -.70150896E+03 F= -.70571447E+03 E0= -.70571447E+03  EK= 0.42055E+01 SP= 0.00E+00 SK= 0.00E+00
   1098 T=   231. E= -.70149397E+03 F= -.70578964E+03 E0= -.70578964E+03  EK= 0.42957E+01 SP= 0.00E+00 SK= 0.00E+00
   1099 T=   232. E= -.70152991E+03 F= -.70584804E+03 E0= -.70584804E+03  EK= 0.43181E+01 SP= 0.00E+00 SK= 0.00E+00
   1100 T=   233. E= -.70150151E+03 F= -.70583874E+03 E0= -.70583874E+03  EK= 0.43372E+01 SP= 0.00E+00 SK= 0.00E+00
   1101 T=   227. E= -.70153456E+03 F= -.70576165E+03 E0= -.70576165E+03  EK= 0.42271E+01 SP= 0.00E+00 SK= 0.00E+00
   1102 T=   217. E= -.70160451E+03 F= -.70565162E+03 E0= -.70565162E+03  EK= 0.40471E+01 SP= 0.00E+00 SK= 0.00E+00
   1103 T=   212. E= -.70161302E+03 F= -.70556383E+03 E0= -.70556383E+03  EK= 0.39508E+01 SP= 0.00E+00 SK= 0.00E+00
   1104 T=   210. E= -.70164317E+03 F= -.70554415E+03 E0= -.70554415E+03  EK= 0.39010E+01 SP= 0.00E+00 SK= 0.00E+00
   1105 T=   208. E= -.70170674E+03 F= -.70558135E+03 E0= -.70558135E+03  EK= 0.38746E+01 SP= 0.00E+00 SK= 0.00E+00
   1106 T=   208. E= -.70173777E+03 F= -.70560513E+03 E0= -.70560513E+03  EK= 0.38674E+01 SP= 0.00E+00 SK= 0.00E+00
   1107 T=   206. E= -.70178003E+03 F= -.70561979E+03 E0= -.70561979E+03  EK= 0.38398E+01 SP= 0.00E+00 SK= 0.00E+00
   1108 T=   204. E= -.70180847E+03 F= -.70561020E+03 E0= -.70561020E+03  EK= 0.38017E+01 SP= 0.00E+00 SK= 0.00E+00
   1109 T=   206. E= -.70178700E+03 F= -.70562648E+03 E0= -.70562648E+03  EK= 0.38395E+01 SP= 0.00E+00 SK= 0.00E+00
   1110 T=   212. E= -.70172203E+03 F= -.70566265E+03 E0= -.70566265E+03  EK= 0.39406E+01 SP= 0.00E+00 SK= 0.00E+00
   1111 T=   218. E= -.70162821E+03 F= -.70567918E+03 E0= -.70567918E+03  EK= 0.40510E+01 SP= 0.00E+00 SK= 0.00E+00
   1112 T=   224. E= -.70152863E+03 F= -.70569216E+03 E0= -.70569216E+03  EK= 0.41635E+01 SP= 0.00E+00 SK= 0.00E+00
   1113 T=   222. E= -.70153311E+03 F= -.70566209E+03 E0= -.70566209E+03  EK= 0.41290E+01 SP= 0.00E+00 SK= 0.00E+00
   1114 T=   217. E= -.70153299E+03 F= -.70557510E+03 E0= -.70557510E+03  EK= 0.40421E+01 SP= 0.00E+00 SK= 0.00E+00
   1115 T=   214. E= -.70147292E+03 F= -.70545787E+03 E0= -.70545787E+03  EK= 0.39850E+01 SP= 0.00E+00 SK= 0.00E+00
   1116 T=   206. E= -.70152215E+03 F= -.70536182E+03 E0= -.70536182E+03  EK= 0.38397E+01 SP= 0.00E+00 SK= 0.00E+00
   1117 T=   199. E= -.70165081E+03 F= -.70536345E+03 E0= -.70536345E+03  EK= 0.37126E+01 SP= 0.00E+00 SK= 0.00E+00
   1118 T=   200. E= -.70174930E+03 F= -.70546498E+03 E0= -.70546498E+03  EK= 0.37157E+01 SP= 0.00E+00 SK= 0.00E+00
   1119 T=   207. E= -.70181535E+03 F= -.70566639E+03 E0= -.70566639E+03  EK= 0.38510E+01 SP= 0.00E+00 SK= 0.00E+00
   1120 T=   214. E= -.70184410E+03 F= -.70583404E+03 E0= -.70583404E+03  EK= 0.39899E+01 SP= 0.00E+00 SK= 0.00E+00
   1121 T=   221. E= -.70181437E+03 F= -.70592416E+03 E0= -.70592416E+03  EK= 0.41098E+01 SP= 0.00E+00 SK= 0.00E+00
   1122 T=   223. E= -.70176787E+03 F= -.70592244E+03 E0= -.70592244E+03  EK= 0.41546E+01 SP= 0.00E+00 SK= 0.00E+00
   1123 T=   220. E= -.70175699E+03 F= -.70585676E+03 E0= -.70585676E+03  EK= 0.40998E+01 SP= 0.00E+00 SK= 0.00E+00
   1124 T=   220. E= -.70169610E+03 F= -.70579293E+03 E0= -.70579293E+03  EK= 0.40968E+01 SP= 0.00E+00 SK= 0.00E+00
   1125 T=   228. E= -.70155170E+03 F= -.70578929E+03 E0= -.70578929E+03  EK= 0.42376E+01 SP= 0.00E+00 SK= 0.00E+00
   1126 T=   239. E= -.70144208E+03 F= -.70588221E+03 E0= -.70588221E+03  EK= 0.44401E+01 SP= 0.00E+00 SK= 0.00E+00
   1127 T=   249. E= -.70140146E+03 F= -.70604515E+03 E0= -.70604515E+03  EK= 0.46437E+01 SP= 0.00E+00 SK= 0.00E+00
   1128 T=   260. E= -.70138111E+03 F= -.70621404E+03 E0= -.70621404E+03  EK= 0.48329E+01 SP= 0.00E+00 SK= 0.00E+00
   1129 T=   265. E= -.70136424E+03 F= -.70630095E+03 E0= -.70630095E+03  EK= 0.49367E+01 SP= 0.00E+00 SK= 0.00E+00
   1130 T=   267. E= -.70129945E+03 F= -.70627144E+03 E0= -.70627144E+03  EK= 0.49720E+01 SP= 0.00E+00 SK= 0.00E+00
   1131 T=   265. E= -.70118749E+03 F= -.70612838E+03 E0= -.70612838E+03  EK= 0.49409E+01 SP= 0.00E+00 SK= 0.00E+00
   1132 T=   259. E= -.70110635E+03 F= -.70592939E+03 E0= -.70592939E+03  EK= 0.48230E+01 SP= 0.00E+00 SK= 0.00E+00
   1133 T=   247. E= -.70113883E+03 F= -.70572927E+03 E0= -.70572927E+03  EK= 0.45904E+01 SP= 0.00E+00 SK= 0.00E+00
   1134 T=   231. E= -.70129224E+03 F= -.70558419E+03 E0= -.70558419E+03  EK= 0.42920E+01 SP= 0.00E+00 SK= 0.00E+00
   1135 T=   227. E= -.70134222E+03 F= -.70556460E+03 E0= -.70556460E+03  EK= 0.42224E+01 SP= 0.00E+00 SK= 0.00E+00
   1136 T=   232. E= -.70134235E+03 F= -.70566667E+03 E0= -.70566667E+03  EK= 0.43243E+01 SP= 0.00E+00 SK= 0.00E+00
   1137 T=   237. E= -.70138264E+03 F= -.70578865E+03 E0= -.70578865E+03  EK= 0.44060E+01 SP= 0.00E+00 SK= 0.00E+00
   1138 T=   241. E= -.70137825E+03 F= -.70587189E+03 E0= -.70587189E+03  EK= 0.44936E+01 SP= 0.00E+00 SK= 0.00E+00
   1139 T=   238. E= -.70143523E+03 F= -.70586499E+03 E0= -.70586499E+03  EK= 0.44298E+01 SP= 0.00E+00 SK= 0.00E+00
   1140 T=   233. E= -.70145853E+03 F= -.70579601E+03 E0= -.70579601E+03  EK= 0.43375E+01 SP= 0.00E+00 SK= 0.00E+00
   1141 T=   231. E= -.70140563E+03 F= -.70571279E+03 E0= -.70571279E+03  EK= 0.43072E+01 SP= 0.00E+00 SK= 0.00E+00
   1142 T=   227. E= -.70141960E+03 F= -.70563940E+03 E0= -.70563940E+03  EK= 0.42198E+01 SP= 0.00E+00 SK= 0.00E+00
   1143 T=   221. E= -.70151380E+03 F= -.70562837E+03 E0= -.70562837E+03  EK= 0.41146E+01 SP= 0.00E+00 SK= 0.00E+00
   1144 T=   220. E= -.70159420E+03 F= -.70569054E+03 E0= -.70569054E+03  EK= 0.40963E+01 SP= 0.00E+00 SK= 0.00E+00
   1145 T=   224. E= -.70160435E+03 F= -.70576960E+03 E0= -.70576960E+03  EK= 0.41653E+01 SP= 0.00E+00 SK= 0.00E+00
   1146 T=   226. E= -.70160390E+03 F= -.70580340E+03 E0= -.70580340E+03  EK= 0.41995E+01 SP= 0.00E+00 SK= 0.00E+00
   1147 T=   225. E= -.70161022E+03 F= -.70579554E+03 E0= -.70579554E+03  EK= 0.41853E+01 SP= 0.00E+00 SK= 0.00E+00
   1148 T=   221. E= -.70163283E+03 F= -.70575503E+03 E0= -.70575503E+03  EK= 0.41222E+01 SP= 0.00E+00 SK= 0.00E+00
   1149 T=   217. E= -.70165582E+03 F= -.70568694E+03 E0= -.70568694E+03  EK= 0.40311E+01 SP= 0.00E+00 SK= 0.00E+00
   1150 T=   210. E= -.70170387E+03 F= -.70560400E+03 E0= -.70560400E+03  EK= 0.39001E+01 SP= 0.00E+00 SK= 0.00E+00
   1151 T=   206. E= -.70170753E+03 F= -.70554237E+03 E0= -.70554237E+03  EK= 0.38348E+01 SP= 0.00E+00 SK= 0.00E+00
   1152 T=   210. E= -.70166368E+03 F= -.70558102E+03 E0= -.70558102E+03  EK= 0.39173E+01 SP= 0.00E+00 SK= 0.00E+00
       N       E                     dE             d eps       ncg     rms          rms(c)
DAV:   1     0.237068332682E+02    0.72082E+03   -0.52048E+04 12910   0.458E+02
DAV:   2    -0.688843195793E+03   -0.71255E+03   -0.69769E+03 14518   0.152E+02
DAV:   3    -0.717897169427E+03   -0.29054E+02   -0.28962E+02 14748   0.347E+01
DAV:   4    -0.718341840312E+03   -0.44467E+00   -0.44435E+00 14580   0.415E+00    0.376E+01
DAV:   5    -0.695336494489E+03    0.23005E+02   -0.63561E+01 14708   0.182E+01    0.188E+01
DAV:   6    -0.695809284225E+03   -0.47279E+00   -0.16568E+01 13716   0.930E+00    0.922E+00
DAV:   7    -0.697305904789E+03   -0.14966E+01   -0.40780E+00 13668   0.595E+00    0.244E+00
DAV:   8    -0.697420837648E+03   -0.11493E+00   -0.60798E-01 13836   0.219E+00    0.126E+00
DAV:   9    -0.697446121172E+03   -0.25284E-01   -0.25459E-01 14132   0.124E+00    0.740E-01
DAV:  10    -0.697440954220E+03    0.51670E-02   -0.30682E-02 16628   0.605E-01    0.286E-01
DAV:  11    -0.697439899045E+03    0.10552E-02   -0.19824E-02 14244   0.394E-01    0.137E-01
DAV:  12    -0.697439041861E+03    0.85718E-03   -0.21489E-03 14508   0.146E-01    0.785E-02
DAV:  13    -0.697438478085E+03    0.56378E-03   -0.90538E-04 13372   0.109E-01    0.292E-02
DAV:  14    -0.697438199985E+03    0.27810E-03   -0.26289E-04 11436   0.101E-01    0.311E-02
DAV:  15    -0.697438165381E+03    0.34603E-04   -0.42168E-04 14164   0.685E-02
   1153 T=   219. E= -.70162236E+03 F= -.70568968E+03 E0= -.70568968E+03  EK= 0.40673E+01 SP= 0.00E+00 SK= 0.00E+00
   1154 T=   225. E= -.70166760E+03 F= -.70586293E+03 E0= -.70586293E+03  EK= 0.41953E+01 SP= 0.00E+00 SK= 0.00E+00
   1155 T=   230. E= -.70169121E+03 F= -.70596796E+03 E0= -.70596796E+03  EK= 0.42767E+01 SP= 0.00E+00 SK= 0.00E+00
   1156 T=   229. E= -.70169709E+03 F= -.70595767E+03 E0= -.70595767E+03  EK= 0.42606E+01 SP= 0.00E+00 SK= 0.00E+00
   1157 T=   224. E= -.70169695E+03 F= -.70587265E+03 E0= -.70587265E+03  EK= 0.41757E+01 SP= 0.00E+00 SK= 0.00E+00
   1158 T=   222. E= -.70167961E+03 F= -.70581368E+03 E0= -.70581368E+03  EK= 0.41341E+01 SP= 0.00E+00 SK= 0.00E+00
   1159 T=   221. E= -.70167024E+03 F= -.70578092E+03 E0= -.70578092E+03  EK= 0.41107E+01 SP= 0.00E+00 SK= 0.00E+00
   1160 T=   221. E= -.70163470E+03 F= -.70574956E+03 E0= -.70574956E+03  EK= 0.41149E+01 SP= 0.00E+00 SK= 0.00E+00
   1161 T=   220. E= -.70160628E+03 F= -.70570544E+03 E0= -.70570544E+03  EK= 0.40992E+01 SP= 0.00E+00 SK= 0.00E+00
   1162 T=   215. E= -.70163443E+03 F= -.70564245E+03 E0= -.70564245E+03  EK= 0.40080E+01 SP= 0.00E+00 SK= 0.00E+00
   1163 T=   211. E= -.70164809E+03 F= -.70557009E+03 E0= -.70557009E+03  EK= 0.39220E+01 SP= 0.00E+00 SK= 0.00E+00
   1164 T=   205. E= -.70171658E+03 F= -.70553326E+03 E0= -.70553326E+03  EK= 0.38167E+01 SP= 0.00E+00 SK= 0.00E+00
   1165 T=   202. E= -.70178398E+03 F= -.70553829E+03 E0= -.70553829E+03  EK= 0.37543E+01 SP= 0.00E+00 SK= 0.00E+00
   1166 T=   204. E= -.70179126E+03 F= -.70558098E+03 E0= -.70558098E+03  EK= 0.37897E+01 SP= 0.00E+00 SK= 0.00E+00
   1167 T=   210. E= -.70175053E+03 F= -.70565819E+03 E0= -.70565819E+03  EK= 0.39077E+01 SP= 0.00E+00 SK= 0.00E+00
   1168 T=   217. E= -.70170646E+03 F= -.70574497E+03 E0= -.70574497E+03  EK= 0.40385E+01 SP= 0.00E+00 SK= 0.00E+00
   1169 T=   222. E= -.70173866E+03 F= -.70586198E+03 E0= -.70586198E+03  EK= 0.41233E+01 SP= 0.00E+00 SK= 0.00E+00
   1170 T=   224. E= -.70181250E+03 F= -.70597506E+03 E0= -.70597506E+03  EK= 0.41626E+01 SP= 0.00E+00 SK= 0.00E+00
   1171 T=   227. E= -.70183597E+03 F= -.70605731E+03 E0= -.70605731E+03  EK= 0.42213E+01 SP= 0.00E+00 SK= 0.00E+00
   1172 T=   231. E= -.70176934E+03 F= -.70607540E+03 E0= -.70607540E+03  EK= 0.43061E+01 SP= 0.00E+00 SK= 0.00E+00
   1173 T=   233. E= -.70176106E+03 F= -.70608912E+03 E0= -.70608912E+03  EK= 0.43281E+01 SP= 0.00E+00 SK= 0.00E+00
   1174 T=   233. E= -.70178573E+03 F= -.70612966E+03 E0= -.70612966E+03  EK= 0.43439E+01 SP= 0.00E+00 SK= 0.00E+00
   1175 T=   235. E= -.70181296E+03 F= -.70618842E+03 E0= -.70618842E+03  EK= 0.43755E+01 SP= 0.00E+00 SK= 0.00E+00
       N       E                     dE             d eps       ncg     rms          rms(c)
DAV:   1    -0.673178145705E+03    0.24260E+02   -0.66523E+03 12190   0.181E+02
DAV:   2    -0.699441855320E+03   -0.26264E+02   -0.26251E+02 14212   0.319E+01
DAV:   3    -0.699738645897E+03   -0.29679E+00   -0.29676E+00 14612   0.369E+00
DAV:   4    -0.699745094702E+03   -0.64488E-02   -0.64485E-02 14284   0.505E-01    0.138E+01
DAV:   5    -0.698150571397E+03    0.15945E+01   -0.24672E+00 14548   0.463E+00    0.789E+00
DAV:   6    -0.697963709097E+03    0.18686E+00   -0.30475E+00 14692   0.461E+00    0.181E+00
DAV:   7    -0.697996075297E+03   -0.32366E-01   -0.55825E-01 13988   0.201E+00    0.864E-01
DAV:   8    -0.697990043289E+03    0.60320E-02   -0.59299E-02 14076   0.598E-01    0.437E-01
DAV:   9    -0.697985067465E+03    0.49758E-02   -0.15707E-02 14020   0.389E-01    0.212E-01
DAV:  10    -0.697981870100E+03    0.31974E-02   -0.36926E-03 14980   0.280E-01    0.807E-02
DAV:  11    -0.697981012180E+03    0.85792E-03   -0.31522E-03 14708   0.185E-01    0.728E-02
DAV:  12    -0.697980346655E+03    0.66552E-03   -0.63236E-04 13956   0.101E-01    0.310E-02
DAV:  13    -0.697979900208E+03    0.44645E-03   -0.37271E-04 12420   0.129E-01    0.392E-02
DAV:  14    -0.697979868817E+03    0.31391E-04   -0.51928E-04 13700   0.728E-02
   1176 T=   236. E= -.70184570E+03 F= -.70624730E+03 E0= -.70624730E+03  EK= 0.44016E+01 SP= 0.00E+00 SK= 0.00E+00
   1177 T=   236. E= -.70190367E+03 F= -.70630086E+03 E0= -.70630086E+03  EK= 0.43972E+01 SP= 0.00E+00 SK= 0.00E+00
   1178 T=   235. E= -.70192623E+03 F= -.70630456E+03 E0= -.70630456E+03  EK= 0.43783E+01 SP= 0.00E+00 SK= 0.00E+00
   1179 T=   228. E= -.70200127E+03 F= -.70624901E+03 E0= -.70624901E+03  EK= 0.42477E+01 SP= 0.00E+00 SK= 0.00E+00
   1180 T=   221. E= -.70205389E+03 F= -.70616390E+03 E0= -.70616390E+03  EK= 0.41100E+01 SP= 0.00E+00 SK= 0.00E+00
   1181 T=   218. E= -.70203713E+03 F= -.70610087E+03 E0= -.70610087E+03  EK= 0.40637E+01 SP= 0.00E+00 SK= 0.00E+00
   1182 T=   215. E= -.70203932E+03 F= -.70603752E+03 E0= -.70603752E+03  EK= 0.39982E+01 SP= 0.00E+00 SK= 0.00E+00
   1183 T=   211. E= -.70209543E+03 F= -.70602889E+03 E0= -.70602889E+03  EK= 0.39335E+01 SP= 0.00E+00 SK= 0.00E+00
   1184 T=   212. E= -.70211983E+03 F= -.70605702E+03 E0= -.70605702E+03  EK= 0.39372E+01 SP= 0.00E+00 SK= 0.00E+00
   1185 T=   216. E= -.70209756E+03 F= -.70612459E+03 E0= -.70612459E+03  EK= 0.40270E+01 SP= 0.00E+00 SK= 0.00E+00
       N       E                     dE             d eps       ncg     rms          rms(c)
DAV:   1    -0.692762123969E+03    0.52178E+01   -0.21525E+03 12190   0.104E+02
DAV:   2    -0.698643420202E+03   -0.58813E+01   -0.58801E+01 14180   0.155E+01
DAV:   3    -0.698706743123E+03   -0.63323E-01   -0.63320E-01 14628   0.167E+00
DAV:   4    -0.698708228772E+03   -0.14856E-02   -0.14856E-02 14380   0.239E-01    0.837E+00
DAV:   5    -0.697983562286E+03    0.72467E+00   -0.13089E+00 15300   0.361E+00    0.456E+00
DAV:   6    -0.697898584218E+03    0.84978E-01   -0.11919E+00 14652   0.291E+00    0.131E+00
DAV:   7    -0.697906382293E+03   -0.77981E-02   -0.22255E-01 13908   0.136E+00    0.508E-01
DAV:   8    -0.697902876985E+03    0.35053E-02   -0.21699E-02 14292   0.436E-01    0.255E-01
DAV:   9    -0.697900234237E+03    0.26427E-02   -0.10121E-02 13820   0.305E-01    0.157E-01
DAV:  10    -0.697898702458E+03    0.15318E-02   -0.28386E-03 16468   0.215E-01    0.477E-02
DAV:  11    -0.697898273738E+03    0.42872E-03   -0.11657E-03 14036   0.107E-01    0.472E-02
DAV:  12    -0.697897870643E+03    0.40310E-03   -0.24361E-04 11028   0.921E-02    0.183E-02
DAV:  13    -0.697897771213E+03    0.99430E-04   -0.34270E-04 12852   0.807E-02
   1186 T=   219. E= -.70209559E+03 F= -.70616905E+03 E0= -.70616905E+03  EK= 0.40735E+01 SP= 0.00E+00 SK= 0.00E+00
   1187 T=   223. E= -.70208848E+03 F= -.70623638E+03 E0= -.70623638E+03  EK= 0.41479E+01 SP= 0.00E+00 SK= 0.00E+00
   1188 T=   226. E= -.70207672E+03 F= -.70628756E+03 E0= -.70628756E+03  EK= 0.42108E+01 SP= 0.00E+00 SK= 0.00E+00
   1189 T=   222. E= -.70220676E+03 F= -.70633770E+03 E0= -.70633770E+03  EK= 0.41309E+01 SP= 0.00E+00 SK= 0.00E+00
   1190 T=   222. E= -.70225393E+03 F= -.70638956E+03 E0= -.70638956E+03  EK= 0.41356E+01 SP= 0.00E+00 SK= 0.00E+00
   1191 T=   229. E= -.70215665E+03 F= -.70641491E+03 E0= -.70641491E+03  EK= 0.42583E+01 SP= 0.00E+00 SK= 0.00E+00
   1192 T=   229. E= -.70208453E+03 F= -.70634119E+03 E0= -.70634119E+03  EK= 0.42567E+01 SP= 0.00E+00 SK= 0.00E+00
   1193 T=   218. E= -.70212962E+03 F= -.70618222E+03 E0= -.70618222E+03  EK= 0.40526E+01 SP= 0.00E+00 SK= 0.00E+00
   1194 T=   209. E= -.70216486E+03 F= -.70605226E+03 E0= -.70605226E+03  EK= 0.38874E+01 SP= 0.00E+00 SK= 0.00E+00
   1195 T=   205. E= -.70219057E+03 F= -.70600511E+03 E0= -.70600511E+03  EK= 0.38145E+01 SP= 0.00E+00 SK= 0.00E+00
       N       E                     dE             d eps       ncg     rms          rms(c)
DAV:   1    -0.693543139968E+03    0.43547E+01   -0.18998E+03 12190   0.985E+01
DAV:   2    -0.698408366762E+03   -0.48652E+01   -0.48642E+01 14284   0.144E+01
DAV:   3    -0.698460656480E+03   -0.52290E-01   -0.52287E-01 14636   0.152E+00
DAV:   4    -0.698461878628E+03   -0.12221E-02   -0.12221E-02 14364   0.220E-01    0.821E+00
DAV:   5    -0.697805825295E+03    0.65605E+00   -0.13239E+00 15212   0.357E+00    0.446E+00
DAV:   6    -0.697746024770E+03    0.59801E-01   -0.10201E+00 14652   0.273E+00    0.136E+00
DAV:   7    -0.697757315993E+03   -0.11291E-01   -0.20377E-01 14124   0.130E+00    0.528E-01
DAV:   8    -0.697753418774E+03    0.38972E-02   -0.22218E-02 14116   0.419E-01    0.251E-01
DAV:   9    -0.697750449839E+03    0.29689E-02   -0.67780E-03 13980   0.253E-01    0.122E-01
DAV:  10    -0.697748943620E+03    0.15062E-02   -0.18146E-03 16356   0.192E-01    0.509E-02
DAV:  11    -0.697748399556E+03    0.54406E-03   -0.11819E-03 14132   0.122E-01    0.497E-02
DAV:  12    -0.697747984601E+03    0.41495E-03   -0.33928E-04 12068   0.991E-02    0.211E-02
DAV:  13    -0.697747874764E+03    0.10984E-03   -0.23113E-04 10564   0.738E-02    0.279E-02
DAV:  14    -0.697747866696E+03    0.80682E-05   -0.24242E-04 11380   0.449E-02
   1196 T=   205. E= -.70221813E+03 F= -.70602540E+03 E0= -.70602540E+03  EK= 0.38073E+01 SP= 0.00E+00 SK= 0.00E+00
   1197 T=   208. E= -.70223221E+03 F= -.70610587E+03 E0= -.70610587E+03  EK= 0.38737E+01 SP= 0.00E+00 SK= 0.00E+00
   1198 T=   205. E= -.70224306E+03 F= -.70605887E+03 E0= -.70605887E+03  EK= 0.38158E+01 SP= 0.00E+00 SK= 0.00E+00
   1199 T=   196. E= -.70227241E+03 F= -.70592204E+03 E0= -.70592204E+03  EK= 0.36496E+01 SP= 0.00E+00 SK= 0.00E+00
   1200 T=   187. E= -.70228442E+03 F= -.70576886E+03 E0= -.70576886E+03  EK= 0.34844E+01 SP= 0.00E+00 SK= 0.00E+00
   1201 T=   179. E= -.70231075E+03 F= -.70564798E+03 E0= -.70564798E+03  EK= 0.33372E+01 SP= 0.00E+00 SK= 0.00E+00
   1202 T=   178. E= -.70231320E+03 F= -.70561950E+03 E0= -.70561950E+03  EK= 0.33063E+01 SP= 0.00E+00 SK= 0.00E+00
   1203 T=   180. E= -.70230868E+03 F= -.70566787E+03 E0= -.70566787E+03  EK= 0.33592E+01 SP= 0.00E+00 SK= 0.00E+00
   1204 T=   189. E= -.70229484E+03 F= -.70580395E+03 E0= -.70580395E+03  EK= 0.35091E+01 SP= 0.00E+00 SK= 0.00E+00
   1205 T=   200. E= -.70227589E+03 F= -.70600056E+03 E0= -.70600056E+03  EK= 0.37247E+01 SP= 0.00E+00 SK= 0.00E+00
       N       E                     dE             d eps       ncg     rms          rms(c)
DAV:   1    -0.694496836905E+03    0.32510E+01   -0.15990E+03 12190   0.900E+01
DAV:   2    -0.698453256354E+03   -0.39564E+01   -0.39556E+01 14268   0.130E+01
DAV:   3    -0.698495613940E+03   -0.42358E-01   -0.42356E-01 14620   0.137E+00
DAV:   4    -0.698496626430E+03   -0.10125E-02   -0.10125E-02 14340   0.199E-01    0.757E+00
DAV:   5    -0.697914354741E+03    0.58227E+00   -0.11562E+00 15292   0.334E+00    0.410E+00
DAV:   6    -0.697856053430E+03    0.58301E-01   -0.92216E-01 14644   0.247E+00    0.124E+00
DAV:   7    -0.697863637636E+03   -0.75842E-02   -0.18438E-01 14140   0.129E+00    0.482E-01
DAV:   8    -0.697860856423E+03    0.27812E-02   -0.21549E-02 14668   0.463E-01    0.239E-01
DAV:   9    -0.697858773718E+03    0.20827E-02   -0.91776E-03 13868   0.272E-01    0.148E-01
DAV:  10    -0.697857589552E+03    0.11842E-02   -0.25884E-03 17044   0.209E-01    0.450E-02
DAV:  11    -0.697857226171E+03    0.36338E-03   -0.10671E-03 14196   0.110E-01    0.451E-02
DAV:  12    -0.697856838788E+03    0.38738E-03   -0.17118E-04 10716   0.105E-01    0.192E-02
DAV:  13    -0.697856718676E+03    0.12011E-03   -0.42882E-04 13196   0.975E-02    0.268E-02
DAV:  14    -0.697856717523E+03    0.11534E-05   -0.26165E-04 12084   0.436E-02
   1206 T=   208. E= -.70226285E+03 F= -.70613471E+03 E0= -.70613471E+03  EK= 0.38719E+01 SP= 0.00E+00 SK= 0.00E+00
   1207 T=   212. E= -.70235612E+03 F= -.70629573E+03 E0= -.70629573E+03  EK= 0.39396E+01 SP= 0.00E+00 SK= 0.00E+00
   1208 T=   210. E= -.70236589E+03 F= -.70627591E+03 E0= -.70627591E+03  EK= 0.39100E+01 SP= 0.00E+00 SK= 0.00E+00
   1209 T=   207. E= -.70232975E+03 F= -.70617466E+03 E0= -.70617466E+03  EK= 0.38449E+01 SP= 0.00E+00 SK= 0.00E+00
   1210 T=   201. E= -.70233389E+03 F= -.70607959E+03 E0= -.70607959E+03  EK= 0.37457E+01 SP= 0.00E+00 SK= 0.00E+00
   1211 T=   199. E= -.70231792E+03 F= -.70602105E+03 E0= -.70602105E+03  EK= 0.37031E+01 SP= 0.00E+00 SK= 0.00E+00
   1212 T=   201. E= -.70229086E+03 F= -.70603603E+03 E0= -.70603603E+03  EK= 0.37452E+01 SP= 0.00E+00 SK= 0.00E+00
   1213 T=   204. E= -.70229638E+03 F= -.70609310E+03 E0= -.70609310E+03  EK= 0.37967E+01 SP= 0.00E+00 SK= 0.00E+00
   1214 T=   210. E= -.70223694E+03 F= -.70613946E+03 E0= -.70613946E+03  EK= 0.39025E+01 SP= 0.00E+00 SK= 0.00E+00
   1215 T=   214. E= -.70214990E+03 F= -.70612834E+03 E0= -.70612834E+03  EK= 0.39784E+01 SP= 0.00E+00 SK= 0.00E+00
   1216 T=   215. E= -.70207776E+03 F= -.70608639E+03 E0= -.70608639E+03  EK= 0.40086E+01 SP= 0.00E+00 SK= 0.00E+00
   1217 T=   215. E= -.70205125E+03 F= -.70605402E+03 E0= -.70605402E+03  EK= 0.40028E+01 SP= 0.00E+00 SK= 0.00E+00
   1218 T=   215. E= -.70206621E+03 F= -.70606019E+03 E0= -.70606019E+03  EK= 0.39940E+01 SP= 0.00E+00 SK= 0.00E+00
   1219 T=   215. E= -.70208837E+03 F= -.70609203E+03 E0= -.70609203E+03  EK= 0.40037E+01 SP= 0.00E+00 SK= 0.00E+00
   1220 T=   217. E= -.70211726E+03 F= -.70614950E+03 E0= -.70614950E+03  EK= 0.40322E+01 SP= 0.00E+00 SK= 0.00E+00
   1221 T=   221. E= -.70208338E+03 F= -.70620322E+03 E0= -.70620322E+03  EK= 0.41198E+01 SP= 0.00E+00 SK= 0.00E+00
   1222 T=   225. E= -.70205522E+03 F= -.70623811E+03 E0= -.70623811E+03  EK= 0.41829E+01 SP= 0.00E+00 SK= 0.00E+00
   1223 T=   224. E= -.70207544E+03 F= -.70623611E+03 E0= -.70623611E+03  EK= 0.41607E+01 SP= 0.00E+00 SK= 0.00E+00
   1224 T=   223. E= -.70206233E+03 F= -.70620799E+03 E0= -.70620799E+03  EK= 0.41457E+01 SP= 0.00E+00 SK= 0.00E+00
   1225 T=   222. E= -.70203113E+03 F= -.70616152E+03 E0= -.70616152E+03  EK= 0.41304E+01 SP= 0.00E+00 SK= 0.00E+00
   1226 T=   219. E= -.70201589E+03 F= -.70609885E+03 E0= -.70609885E+03  EK= 0.40830E+01 SP= 0.00E+00 SK= 0.00E+00
   1227 T=   214. E= -.70200900E+03 F= -.70599176E+03 E0= -.70599176E+03  EK= 0.39828E+01 SP= 0.00E+00 SK= 0.00E+00
   1228 T=   212. E= -.70200564E+03 F= -.70595080E+03 E0= -.70595080E+03  EK= 0.39452E+01 SP= 0.00E+00 SK= 0.00E+00
   1229 T=   215. E= -.70196139E+03 F= -.70595672E+03 E0= -.70595672E+03  EK= 0.39953E+01 SP= 0.00E+00 SK= 0.00E+00
   1230 T=   223. E= -.70186762E+03 F= -.70601017E+03 E0= -.70601017E+03  EK= 0.41425E+01 SP= 0.00E+00 SK= 0.00E+00
   1231 T=   228. E= -.70179269E+03 F= -.70604140E+03 E0= -.70604140E+03  EK= 0.42487E+01 SP= 0.00E+00 SK= 0.00E+00
   1232 T=   229. E= -.70173280E+03 F= -.70599167E+03 E0= -.70599167E+03  EK= 0.42589E+01 SP= 0.00E+00 SK= 0.00E+00
   1233 T=   224. E= -.70169372E+03 F= -.70586242E+03 E0= -.70586242E+03  EK= 0.41687E+01 SP= 0.00E+00 SK= 0.00E+00
   1234 T=   217. E= -.70167431E+03 F= -.70570716E+03 E0= -.70570716E+03  EK= 0.40328E+01 SP= 0.00E+00 SK= 0.00E+00
       N       E                     dE             d eps       ncg     rms          rms(c)
DAV:   1    -0.663370888125E+03    0.34486E+02   -0.82459E+03 12190   0.201E+02
DAV:   2    -0.699157703910E+03   -0.35787E+02   -0.35768E+02 14156   0.366E+01
DAV:   3    -0.699555052342E+03   -0.39735E+00   -0.39731E+00 14628   0.432E+00
DAV:   4    -0.699562897866E+03   -0.78455E-02   -0.78452E-02 14276   0.582E-01    0.157E+01
DAV:   5    -0.697431943763E+03    0.21310E+01   -0.33218E+00 14172   0.534E+00    0.892E+00
DAV:   6    -0.697241979043E+03    0.18996E+00   -0.42632E+00 14644   0.534E+00    0.201E+00
DAV:   7    -0.697293189568E+03   -0.51211E-01   -0.73352E-01 14036   0.229E+00    0.933E-01
DAV:   8    -0.697288809421E+03    0.43801E-02   -0.66571E-02 14060   0.636E-01    0.466E-01
DAV:   9    -0.697284211856E+03    0.45976E-02   -0.19361E-02 14028   0.437E-01    0.237E-01
DAV:  10    -0.697281242759E+03    0.29691E-02   -0.57401E-03 15812   0.309E-01    0.740E-02
DAV:  11    -0.697280544024E+03    0.69874E-03   -0.27088E-03 14700   0.159E-01    0.651E-02
DAV:  12    -0.697279859656E+03    0.68437E-03   -0.36374E-04 12204   0.944E-02    0.312E-02
DAV:  13    -0.697279411280E+03    0.44838E-03   -0.46197E-04 12988   0.139E-01    0.370E-02
DAV:  14    -0.697279386554E+03    0.24726E-04   -0.62066E-04 13828   0.787E-02
   1235 T=   209. E= -.70166801E+03 F= -.70554985E+03 E0= -.70554985E+03  EK= 0.38818E+01 SP= 0.00E+00 SK= 0.00E+00
   1236 T=   208. E= -.70170798E+03 F= -.70557834E+03 E0= -.70557834E+03  EK= 0.38704E+01 SP= 0.00E+00 SK= 0.00E+00
   1237 T=   218. E= -.70163326E+03 F= -.70569078E+03 E0= -.70569078E+03  EK= 0.40575E+01 SP= 0.00E+00 SK= 0.00E+00
   1238 T=   230. E= -.70154309E+03 F= -.70583349E+03 E0= -.70583349E+03  EK= 0.42904E+01 SP= 0.00E+00 SK= 0.00E+00
   1239 T=   233. E= -.70155902E+03 F= -.70590044E+03 E0= -.70590044E+03  EK= 0.43414E+01 SP= 0.00E+00 SK= 0.00E+00
   1240 T=   231. E= -.70159454E+03 F= -.70589474E+03 E0= -.70589474E+03  EK= 0.43002E+01 SP= 0.00E+00 SK= 0.00E+00
   1241 T=   224. E= -.70163464E+03 F= -.70579788E+03 E0= -.70579788E+03  EK= 0.41632E+01 SP= 0.00E+00 SK= 0.00E+00
   1242 T=   213. E= -.70169939E+03 F= -.70566109E+03 E0= -.70566109E+03  EK= 0.39617E+01 SP= 0.00E+00 SK= 0.00E+00
   1243 T=   205. E= -.70173809E+03 F= -.70554755E+03 E0= -.70554755E+03  EK= 0.38095E+01 SP= 0.00E+00 SK= 0.00E+00
   1244 T=   204. E= -.70174431E+03 F= -.70555078E+03 E0= -.70555078E+03  EK= 0.38065E+01 SP= 0.00E+00 SK= 0.00E+00
   1245 T=   209. E= -.70179538E+03 F= -.70568005E+03 E0= -.70568005E+03  EK= 0.38847E+01 SP= 0.00E+00 SK= 0.00E+00
   1246 T=   217. E= -.70179737E+03 F= -.70584559E+03 E0= -.70584559E+03  EK= 0.40482E+01 SP= 0.00E+00 SK= 0.00E+00
   1247 T=   224. E= -.70175696E+03 F= -.70592061E+03 E0= -.70592061E+03  EK= 0.41636E+01 SP= 0.00E+00 SK= 0.00E+00
   1248 T=   220. E= -.70174259E+03 F= -.70583035E+03 E0= -.70583035E+03  EK= 0.40878E+01 SP= 0.00E+00 SK= 0.00E+00
   1249 T=   210. E= -.70168396E+03 F= -.70559103E+03 E0= -.70559103E+03  EK= 0.39071E+01 SP= 0.00E+00 SK= 0.00E+00
   1250 T=   199. E= -.70165377E+03 F= -.70536486E+03 E0= -.70536486E+03  EK= 0.37111E+01 SP= 0.00E+00 SK= 0.00E+00
   1251 T=   194. E= -.70165066E+03 F= -.70526838E+03 E0= -.70526838E+03  EK= 0.36177E+01 SP= 0.00E+00 SK= 0.00E+00
   1252 T=   198. E= -.70164551E+03 F= -.70532180E+03 E0= -.70532180E+03  EK= 0.36763E+01 SP= 0.00E+00 SK= 0.00E+00
   1253 T=   207. E= -.70166054E+03 F= -.70551157E+03 E0= -.70551157E+03  EK= 0.38510E+01 SP= 0.00E+00 SK= 0.00E+00
   1254 T=   218. E= -.70167282E+03 F= -.70572727E+03 E0= -.70572727E+03  EK= 0.40544E+01 SP= 0.00E+00 SK= 0.00E+00
   1255 T=   228. E= -.70164899E+03 F= -.70588379E+03 E0= -.70588379E+03  EK= 0.42348E+01 SP= 0.00E+00 SK= 0.00E+00
   1256 T=   229. E= -.70164181E+03 F= -.70590303E+03 E0= -.70590303E+03  EK= 0.42612E+01 SP= 0.00E+00 SK= 0.00E+00
   1257 T=   227. E= -.70155933E+03 F= -.70578394E+03 E0= -.70578394E+03  EK= 0.42246E+01 SP= 0.00E+00 SK= 0.00E+00
   1258 T=   219. E= -.70154165E+03 F= -.70561483E+03 E0= -.70561483E+03  EK= 0.40732E+01 SP= 0.00E+00 SK= 0.00E+00
   1259 T=   209. E= -.70160162E+03 F= -.70549111E+03 E0= -.70549111E+03  EK= 0.38895E+01 SP= 0.00E+00 SK= 0.00E+00
   1260 T=   214. E= -.70155281E+03 F= -.70553065E+03 E0= -.70553065E+03  EK= 0.39778E+01 SP= 0.00E+00 SK= 0.00E+00
   1261 T=   227. E= -.70145008E+03 F= -.70568432E+03 E0= -.70568432E+03  EK= 0.42342E+01 SP= 0.00E+00 SK= 0.00E+00
   1262 T=   237. E= -.70145218E+03 F= -.70585475E+03 E0= -.70585475E+03  EK= 0.44026E+01 SP= 0.00E+00 SK= 0.00E+00
   1263 T=   238. E= -.70152652E+03 F= -.70595367E+03 E0= -.70595367E+03  EK= 0.44271E+01 SP= 0.00E+00 SK= 0.00E+00
   1264 T=   231. E= -.70164013E+03 F= -.70593554E+03 E0= -.70593554E+03  EK= 0.42954E+01 SP= 0.00E+00 SK= 0.00E+00
   1265 T=   223. E= -.70168688E+03 F= -.70583363E+03 E0= -.70583363E+03  EK= 0.41468E+01 SP= 0.00E+00 SK= 0.00E+00
   1266 T=   217. E= -.70167246E+03 F= -.70571465E+03 E0= -.70571465E+03  EK= 0.40422E+01 SP= 0.00E+00 SK= 0.00E+00
   1267 T=   217. E= -.70165447E+03 F= -.70568860E+03 E0= -.70568860E+03  EK= 0.40341E+01 SP= 0.00E+00 SK= 0.00E+00
       N       E                     dE             d eps       ncg     rms          rms(c)
DAV:   1    -0.665026260768E+03    0.32253E+02   -0.76707E+03 12190   0.193E+02
DAV:   2    -0.698290555140E+03   -0.33264E+02   -0.33247E+02 14172   0.354E+01
DAV:   3    -0.698663565858E+03   -0.37301E+00   -0.37296E+00 14628   0.413E+00
DAV:   4    -0.698671007109E+03   -0.74413E-02   -0.74407E-02 14324   0.563E-01    0.150E+01
DAV:   5    -0.697351332488E+03    0.13197E+01   -0.24576E+00 13908   0.459E+00    0.867E+00
DAV:   6    -0.697386935033E+03   -0.35603E-01   -0.36134E+00 14612   0.487E+00    0.174E+00
DAV:   7    -0.697424307382E+03   -0.37372E-01   -0.58587E-01 13892   0.202E+00    0.787E-01
DAV:   8    -0.697423222364E+03    0.10850E-02   -0.49664E-02 14172   0.538E-01    0.396E-01
DAV:   9    -0.697420913196E+03    0.23092E-02   -0.15973E-02 14124   0.413E-01    0.215E-01
DAV:  10    -0.697419336571E+03    0.15766E-02   -0.46346E-03 14620   0.245E-01    0.664E-02
DAV:  11    -0.697419011341E+03    0.32523E-03   -0.17712E-03 14660   0.122E-01    0.467E-02
DAV:  12    -0.697418661535E+03    0.34981E-03   -0.18343E-04 10076   0.706E-02    0.248E-02
DAV:  13    -0.697418409806E+03    0.25173E-03   -0.32618E-04 11500   0.103E-01    0.249E-02
DAV:  14    -0.697418386736E+03    0.23070E-04   -0.30244E-04 12700   0.605E-02
   1268 T=   218. E= -.70164166E+03 F= -.70570282E+03 E0= -.70570282E+03  EK= 0.40612E+01 SP= 0.00E+00 SK= 0.00E+00
   1269 T=   222. E= -.70169480E+03 F= -.70581947E+03 E0= -.70581947E+03  EK= 0.41247E+01 SP= 0.00E+00 SK= 0.00E+00
   1270 T=   225. E= -.70167920E+03 F= -.70586287E+03 E0= -.70586287E+03  EK= 0.41837E+01 SP= 0.00E+00 SK= 0.00E+00
   1271 T=   230. E= -.70160666E+03 F= -.70588114E+03 E0= -.70588114E+03  EK= 0.42745E+01 SP= 0.00E+00 SK= 0.00E+00
   1272 T=   229. E= -.70156396E+03 F= -.70582140E+03 E0= -.70582140E+03  EK= 0.42574E+01 SP= 0.00E+00 SK= 0.00E+00
   1273 T=   224. E= -.70159476E+03 F= -.70576644E+03 E0= -.70576644E+03  EK= 0.41717E+01 SP= 0.00E+00 SK= 0.00E+00
   1274 T=   222. E= -.70160023E+03 F= -.70574034E+03 E0= -.70574034E+03  EK= 0.41401E+01 SP= 0.00E+00 SK= 0.00E+00
   1275 T=   221. E= -.70164783E+03 F= -.70576009E+03 E0= -.70576009E+03  EK= 0.41123E+01 SP= 0.00E+00 SK= 0.00E+00
   1276 T=   218. E= -.70170302E+03 F= -.70575528E+03 E0= -.70575528E+03  EK= 0.40523E+01 SP= 0.00E+00 SK= 0.00E+00
   1277 T=   216. E= -.70172699E+03 F= -.70573884E+03 E0= -.70573884E+03  EK= 0.40118E+01 SP= 0.00E+00 SK= 0.00E+00
   1278 T=   215. E= -.70168345E+03 F= -.70568794E+03 E0= -.70568794E+03  EK= 0.40045E+01 SP= 0.00E+00 SK= 0.00E+00
   1279 T=   212. E= -.70165442E+03 F= -.70559691E+03 E0= -.70559691E+03  EK= 0.39425E+01 SP= 0.00E+00 SK= 0.00E+00
   1280 T=   201. E= -.70176472E+03 F= -.70550861E+03 E0= -.70550861E+03  EK= 0.37439E+01 SP= 0.00E+00 SK= 0.00E+00
       N       E                     dE             d eps       ncg     rms          rms(c)
DAV:   1    -0.691171328360E+03    0.62471E+01   -0.24765E+03 12190   0.112E+02
DAV:   2    -0.697720265327E+03   -0.65489E+01   -0.65472E+01 14332   0.165E+01
DAV:   3    -0.697787168975E+03   -0.66904E-01   -0.66900E-01 14628   0.175E+00
DAV:   4    -0.697788673642E+03   -0.15047E-02   -0.15046E-02 14420   0.249E-01    0.920E+00
DAV:   5    -0.697136073012E+03    0.65260E+00   -0.12093E+00 15220   0.346E+00    0.518E+00
DAV:   6    -0.697117952415E+03    0.18121E-01   -0.13605E+00 14596   0.305E+00    0.132E+00
DAV:   7    -0.697130035137E+03   -0.12083E-01   -0.23151E-01 13868   0.141E+00    0.512E-01
DAV:   8    -0.697127816252E+03    0.22189E-02   -0.25766E-02 14172   0.433E-01    0.267E-01
DAV:   9    -0.697125791566E+03    0.20247E-02   -0.88564E-03 13804   0.280E-01    0.151E-01
DAV:  10    -0.697124477064E+03    0.13145E-02   -0.22240E-03 15748   0.195E-01    0.442E-02
DAV:  11    -0.697124171968E+03    0.30510E-03   -0.98796E-04 14468   0.987E-02    0.367E-02
DAV:  12    -0.697123898603E+03    0.27337E-03   -0.12403E-04  9668   0.648E-02    0.172E-02
DAV:  13    -0.697123781960E+03    0.11664E-03   -0.20808E-04 10716   0.766E-02    0.201E-02
DAV:  14    -0.697123776378E+03    0.55820E-05   -0.18159E-04 10412   0.435E-02
   1281 T=   195. E= -.70180107E+03 F= -.70543722E+03 E0= -.70543722E+03  EK= 0.36362E+01 SP= 0.00E+00 SK= 0.00E+00
   1282 T=   199. E= -.70170654E+03 F= -.70541072E+03 E0= -.70541072E+03  EK= 0.37042E+01 SP= 0.00E+00 SK= 0.00E+00
   1283 T=   205. E= -.70159513E+03 F= -.70541664E+03 E0= -.70541664E+03  EK= 0.38215E+01 SP= 0.00E+00 SK= 0.00E+00
   1284 T=   211. E= -.70151082E+03 F= -.70544625E+03 E0= -.70544625E+03  EK= 0.39354E+01 SP= 0.00E+00 SK= 0.00E+00
   1285 T=   215. E= -.70146742E+03 F= -.70546480E+03 E0= -.70546480E+03  EK= 0.39974E+01 SP= 0.00E+00 SK= 0.00E+00
   1286 T=   217. E= -.70143541E+03 F= -.70548132E+03 E0= -.70548132E+03  EK= 0.40459E+01 SP= 0.00E+00 SK= 0.00E+00
   1287 T=   218. E= -.70143821E+03 F= -.70550181E+03 E0= -.70550181E+03  EK= 0.40636E+01 SP= 0.00E+00 SK= 0.00E+00
   1288 T=   220. E= -.70145778E+03 F= -.70555060E+03 E0= -.70555060E+03  EK= 0.40928E+01 SP= 0.00E+00 SK= 0.00E+00
   1289 T=   226. E= -.70143485E+03 F= -.70564192E+03 E0= -.70564192E+03  EK= 0.42071E+01 SP= 0.00E+00 SK= 0.00E+00
   1290 T=   232. E= -.70139189E+03 F= -.70571028E+03 E0= -.70571028E+03  EK= 0.43184E+01 SP= 0.00E+00 SK= 0.00E+00
       N       E                     dE             d eps       ncg     rms          rms(c)
DAV:   1    -0.693706090865E+03    0.34177E+01   -0.16508E+03 12190   0.921E+01
DAV:   2    -0.698101608645E+03   -0.43955E+01   -0.43945E+01 14404   0.136E+01
DAV:   3    -0.698147292614E+03   -0.45684E-01   -0.45682E-01 14628   0.142E+00
DAV:   4    -0.698148352551E+03   -0.10599E-02   -0.10599E-02 14436   0.206E-01    0.794E+00
DAV:   5    -0.697489056151E+03    0.65930E+00   -0.13087E+00 15348   0.368E+00    0.427E+00
DAV:   6    -0.697423729946E+03    0.65326E-01   -0.96337E-01 14652   0.264E+00    0.138E+00
DAV:   7    -0.697434286707E+03   -0.10557E-01   -0.18762E-01 14124   0.122E+00    0.495E-01
DAV:   8    -0.697431446953E+03    0.28398E-02   -0.18331E-02 14604   0.434E-01    0.220E-01
DAV:   9    -0.697430093804E+03    0.13531E-02   -0.65962E-03 13660   0.220E-01    0.120E-01
DAV:  10    -0.697429334193E+03    0.75961E-03   -0.18900E-03 16404   0.163E-01    0.366E-02
DAV:  11    -0.697429177056E+03    0.15714E-03   -0.51625E-04 14004   0.698E-02    0.325E-02
DAV:  12    -0.697429025248E+03    0.15181E-03   -0.13112E-04  9628   0.528E-02    0.127E-02
DAV:  13    -0.697428981245E+03    0.44003E-04   -0.11591E-04 10052   0.488E-02
   1291 T=   234. E= -.70136937E+03 F= -.70573265E+03 E0= -.70573265E+03  EK= 0.43633E+01 SP= 0.00E+00 SK= 0.00E+00
   1292 T=   234. E= -.70139145E+03 F= -.70574006E+03 E0= -.70574006E+03  EK= 0.43486E+01 SP= 0.00E+00 SK= 0.00E+00
   1293 T=   231. E= -.70140988E+03 F= -.70570766E+03 E0= -.70570766E+03  EK= 0.42978E+01 SP= 0.00E+00 SK= 0.00E+00
   1294 T=   230. E= -.70138720E+03 F= -.70566320E+03 E0= -.70566320E+03  EK= 0.42760E+01 SP= 0.00E+00 SK= 0.00E+00
   1295 T=   227. E= -.70140545E+03 F= -.70562430E+03 E0= -.70562430E+03  EK= 0.42189E+01 SP= 0.00E+00 SK= 0.00E+00
   1296 T=   226. E= -.70140764E+03 F= -.70561303E+03 E0= -.70561303E+03  EK= 0.42054E+01 SP= 0.00E+00 SK= 0.00E+00
   1297 T=   228. E= -.70138521E+03 F= -.70562619E+03 E0= -.70562619E+03  EK= 0.42410E+01 SP= 0.00E+00 SK= 0.00E+00
   1298 T=   227. E= -.70139130E+03 F= -.70561562E+03 E0= -.70561562E+03  EK= 0.42243E+01 SP= 0.00E+00 SK= 0.00E+00
   1299 T=   227. E= -.70133631E+03 F= -.70556363E+03 E0= -.70556363E+03  EK= 0.42273E+01 SP= 0.00E+00 SK= 0.00E+00
   1300 T=   223. E= -.70130486E+03 F= -.70546121E+03 E0= -.70546121E+03  EK= 0.41563E+01 SP= 0.00E+00 SK= 0.00E+00
       N       E                     dE             d eps       ncg     rms          rms(c)
DAV:   1    -0.693175865572E+03    0.42532E+01   -0.16990E+03 12190   0.929E+01
DAV:   2    -0.697799224413E+03   -0.46234E+01   -0.46220E+01 14508   0.139E+01
DAV:   3    -0.697846750995E+03   -0.47527E-01   -0.47524E-01 14628   0.144E+00
DAV:   4    -0.697847817427E+03   -0.10664E-02   -0.10664E-02 14452   0.208E-01    0.831E+00
DAV:   5    -0.697080664544E+03    0.76715E+00   -0.17052E+00 15308   0.396E+00    0.436E+00
DAV:   6    -0.697028782832E+03    0.51882E-01   -0.99475E-01 14644   0.252E+00    0.154E+00
DAV:   7    -0.697043732658E+03   -0.14950E-01   -0.20072E-01 14348   0.129E+00    0.521E-01
DAV:   8    -0.697040622302E+03    0.31104E-02   -0.24906E-02 15324   0.522E-01    0.235E-01
DAV:   9    -0.697039070937E+03    0.15514E-02   -0.77730E-03 13628   0.228E-01    0.126E-01
DAV:  10    -0.697038188711E+03    0.88223E-03   -0.18412E-03 16300   0.163E-01    0.378E-02
DAV:  11    -0.697037918603E+03    0.27011E-03   -0.58028E-04 14036   0.776E-02    0.340E-02
DAV:  12    -0.697037646782E+03    0.27182E-03   -0.12152E-04  9988   0.768E-02    0.128E-02
DAV:  13    -0.697037583673E+03    0.63109E-04   -0.26189E-04 11492   0.683E-02
   1301 T=   214. E= -.70136340E+03 F= -.70535401E+03 E0= -.70535401E+03  EK= 0.39906E+01 SP= 0.00E+00 SK= 0.00E+00
   1302 T=   208. E= -.70141142E+03 F= -.70528776E+03 E0= -.70528776E+03  EK= 0.38763E+01 SP= 0.00E+00 SK= 0.00E+00
   1303 T=   211. E= -.70139609E+03 F= -.70531785E+03 E0= -.70531785E+03  EK= 0.39218E+01 SP= 0.00E+00 SK= 0.00E+00
   1304 T=   214. E= -.70141308E+03 F= -.70539248E+03 E0= -.70539248E+03  EK= 0.39794E+01 SP= 0.00E+00 SK= 0.00E+00
   1305 T=   214. E= -.70145992E+03 F= -.70544536E+03 E0= -.70544536E+03  EK= 0.39854E+01 SP= 0.00E+00 SK= 0.00E+00
   1306 T=   213. E= -.70147829E+03 F= -.70543885E+03 E0= -.70543885E+03  EK= 0.39606E+01 SP= 0.00E+00 SK= 0.00E+00
   1307 T=   210. E= -.70152433E+03 F= -.70542634E+03 E0= -.70542634E+03  EK= 0.39020E+01 SP= 0.00E+00 SK= 0.00E+00
   1308 T=   207. E= -.70155483E+03 F= -.70540329E+03 E0= -.70540329E+03  EK= 0.38485E+01 SP= 0.00E+00 SK= 0.00E+00
   1309 T=   212. E= -.70149187E+03 F= -.70544318E+03 E0= -.70544318E+03  EK= 0.39513E+01 SP= 0.00E+00 SK= 0.00E+00
   1310 T=   224. E= -.70137946E+03 F= -.70554763E+03 E0= -.70554763E+03  EK= 0.41682E+01 SP= 0.00E+00 SK= 0.00E+00
   1311 T=   235. E= -.70132479E+03 F= -.70569841E+03 E0= -.70569841E+03  EK= 0.43736E+01 SP= 0.00E+00 SK= 0.00E+00
   1312 T=   244. E= -.70129997E+03 F= -.70584413E+03 E0= -.70584413E+03  EK= 0.45442E+01 SP= 0.00E+00 SK= 0.00E+00
   1313 T=   243. E= -.70133598E+03 F= -.70586731E+03 E0= -.70586731E+03  EK= 0.45313E+01 SP= 0.00E+00 SK= 0.00E+00
   1314 T=   238. E= -.70140182E+03 F= -.70583322E+03 E0= -.70583322E+03  EK= 0.44314E+01 SP= 0.00E+00 SK= 0.00E+00
   1315 T=   237. E= -.70138147E+03 F= -.70578373E+03 E0= -.70578373E+03  EK= 0.44023E+01 SP= 0.00E+00 SK= 0.00E+00
   1316 T=   235. E= -.70135802E+03 F= -.70573001E+03 E0= -.70573001E+03  EK= 0.43720E+01 SP= 0.00E+00 SK= 0.00E+00
   1317 T=   234. E= -.70137733E+03 F= -.70573948E+03 E0= -.70573948E+03  EK= 0.43622E+01 SP= 0.00E+00 SK= 0.00E+00
   1318 T=   237. E= -.70138144E+03 F= -.70579204E+03 E0= -.70579204E+03  EK= 0.44106E+01 SP= 0.00E+00 SK= 0.00E+00
   1319 T=   239. E= -.70141671E+03 F= -.70585878E+03 E0= -.70585878E+03  EK= 0.44421E+01 SP= 0.00E+00 SK= 0.00E+00
   1320 T=   237. E= -.70148714E+03 F= -.70590672E+03 E0= -.70590672E+03  EK= 0.44196E+01 SP= 0.00E+00 SK= 0.00E+00
   1321 T=   239. E= -.70149353E+03 F= -.70595059E+03 E0= -.70595059E+03  EK= 0.44571E+01 SP= 0.00E+00 SK= 0.00E+00
   1322 T=   234. E= -.70159710E+03 F= -.70595963E+03 E0= -.70595963E+03  EK= 0.43625E+01 SP= 0.00E+00 SK= 0.00E+00
   1323 T=   225. E= -.70172334E+03 F= -.70591472E+03 E0= -.70591472E+03  EK= 0.41914E+01 SP= 0.00E+00 SK= 0.00E+00
   1324 T=   220. E= -.70177497E+03 F= -.70587192E+03 E0= -.70587192E+03  EK= 0.40970E+01 SP= 0.00E+00 SK= 0.00E+00
   1325 T=   218. E= -.70183441E+03 F= -.70589630E+03 E0= -.70589630E+03  EK= 0.40619E+01 SP= 0.00E+00 SK= 0.00E+00
   1326 T=   221. E= -.70184603E+03 F= -.70596759E+03 E0= -.70596759E+03  EK= 0.41216E+01 SP= 0.00E+00 SK= 0.00E+00
   1327 T=   228. E= -.70180802E+03 F= -.70605188E+03 E0= -.70605188E+03  EK= 0.42439E+01 SP= 0.00E+00 SK= 0.00E+00
   1328 T=   229. E= -.70181869E+03 F= -.70607445E+03 E0= -.70607445E+03  EK= 0.42558E+01 SP= 0.00E+00 SK= 0.00E+00
   1329 T=   227. E= -.70183301E+03 F= -.70604984E+03 E0= -.70604984E+03  EK= 0.42168E+01 SP= 0.00E+00 SK= 0.00E+00
   1330 T=   222. E= -.70185867E+03 F= -.70598636E+03 E0= -.70598636E+03  EK= 0.41277E+01 SP= 0.00E+00 SK= 0.00E+00
   1331 T=   219. E= -.70185430E+03 F= -.70592257E+03 E0= -.70592257E+03  EK= 0.40683E+01 SP= 0.00E+00 SK= 0.00E+00
   1332 T=   219. E= -.70181467E+03 F= -.70588714E+03 E0= -.70588714E+03  EK= 0.40725E+01 SP= 0.00E+00 SK= 0.00E+00
   1333 T=   217. E= -.70185762E+03 F= -.70589277E+03 E0= -.70589277E+03  EK= 0.40351E+01 SP= 0.00E+00 SK= 0.00E+00
   1334 T=   217. E= -.70187485E+03 F= -.70591047E+03 E0= -.70591047E+03  EK= 0.40356E+01 SP= 0.00E+00 SK= 0.00E+00
   1335 T=   221. E= -.70179103E+03 F= -.70590551E+03 E0= -.70590551E+03  EK= 0.41145E+01 SP= 0.00E+00 SK= 0.00E+00
   1336 T=   225. E= -.70168448E+03 F= -.70587075E+03 E0= -.70587075E+03  EK= 0.41863E+01 SP= 0.00E+00 SK= 0.00E+00
   1337 T=   222. E= -.70171890E+03 F= -.70584647E+03 E0= -.70584647E+03  EK= 0.41276E+01 SP= 0.00E+00 SK= 0.00E+00
   1338 T=   217. E= -.70178062E+03 F= -.70582268E+03 E0= -.70582268E+03  EK= 0.40421E+01 SP= 0.00E+00 SK= 0.00E+00
   1339 T=   220. E= -.70173740E+03 F= -.70583209E+03 E0= -.70583209E+03  EK= 0.40947E+01 SP= 0.00E+00 SK= 0.00E+00
   1340 T=   225. E= -.70164758E+03 F= -.70583113E+03 E0= -.70583113E+03  EK= 0.41836E+01 SP= 0.00E+00 SK= 0.00E+00
   1341 T=   225. E= -.70161862E+03 F= -.70579877E+03 E0= -.70579877E+03  EK= 0.41801E+01 SP= 0.00E+00 SK= 0.00E+00
   1342 T=   224. E= -.70161398E+03 F= -.70578987E+03 E0= -.70578987E+03  EK= 0.41759E+01 SP= 0.00E+00 SK= 0.00E+00
   1343 T=   229. E= -.70155738E+03 F= -.70582841E+03 E0= -.70582841E+03  EK= 0.42710E+01 SP= 0.00E+00 SK= 0.00E+00
   1344 T=   237. E= -.70153062E+03 F= -.70593432E+03 E0= -.70593432E+03  EK= 0.44037E+01 SP= 0.00E+00 SK= 0.00E+00
   1345 T=   243. E= -.70155675E+03 F= -.70607729E+03 E0= -.70607729E+03  EK= 0.45205E+01 SP= 0.00E+00 SK= 0.00E+00
   1346 T=   244. E= -.70163536E+03 F= -.70618453E+03 E0= -.70618453E+03  EK= 0.45492E+01 SP= 0.00E+00 SK= 0.00E+00
       N       E                     dE             d eps       ncg     rms          rms(c)
DAV:   1    -0.616506370825E+03    0.80531E+02   -0.13734E+04 12190   0.256E+02
DAV:   2    -0.699404174601E+03   -0.82898E+02   -0.82780E+02 14052   0.549E+01
DAV:   3    -0.700549272940E+03   -0.11451E+01   -0.11449E+01 14636   0.720E+00
DAV:   4    -0.700571107728E+03   -0.21835E-01   -0.21834E-01 14228   0.956E-01    0.196E+01
DAV:   5    -0.697913520251E+03    0.26576E+01   -0.47066E+00 13684   0.603E+00    0.112E+01
DAV:   6    -0.697781304349E+03    0.13222E+00   -0.60136E+00 14612   0.609E+00    0.245E+00
DAV:   7    -0.697872061943E+03   -0.90758E-01   -0.98725E-01 14036   0.265E+00    0.115E+00
DAV:   8    -0.697875208867E+03   -0.31469E-02   -0.93877E-02 14172   0.757E-01    0.569E-01
DAV:   9    -0.697873514634E+03    0.16942E-02   -0.30693E-02 14476   0.529E-01    0.289E-01
DAV:  10    -0.697871804474E+03    0.17102E-02   -0.72605E-03 15188   0.315E-01    0.917E-02
DAV:  11    -0.697871530908E+03    0.27357E-03   -0.35638E-03 14812   0.164E-01    0.676E-02
DAV:  12    -0.697871057190E+03    0.47372E-03   -0.40840E-04 13028   0.100E-01    0.259E-02
DAV:  13    -0.697870824388E+03    0.23280E-03   -0.41031E-04 13180   0.103E-01    0.390E-02
DAV:  14    -0.697870742737E+03    0.81651E-04   -0.33647E-04 12956   0.780E-02
   1347 T=   241. E= -.70168566E+03 F= -.70617333E+03 E0= -.70617333E+03  EK= 0.44877E+01 SP= 0.00E+00 SK= 0.00E+00
   1348 T=   236. E= -.70171196E+03 F= -.70609736E+03 E0= -.70609736E+03  EK= 0.43854E+01 SP= 0.00E+00 SK= 0.00E+00
   1349 T=   228. E= -.70167195E+03 F= -.70591533E+03 E0= -.70591533E+03  EK= 0.42434E+01 SP= 0.00E+00 SK= 0.00E+00
   1350 T=   215. E= -.70170072E+03 F= -.70569852E+03 E0= -.70569852E+03  EK= 0.39978E+01 SP= 0.00E+00 SK= 0.00E+00
   1351 T=   209. E= -.70168705E+03 F= -.70557382E+03 E0= -.70557382E+03  EK= 0.38868E+01 SP= 0.00E+00 SK= 0.00E+00
   1352 T=   209. E= -.70170007E+03 F= -.70559341E+03 E0= -.70559341E+03  EK= 0.38933E+01 SP= 0.00E+00 SK= 0.00E+00
   1353 T=   214. E= -.70171986E+03 F= -.70569691E+03 E0= -.70569691E+03  EK= 0.39771E+01 SP= 0.00E+00 SK= 0.00E+00
   1354 T=   222. E= -.70171962E+03 F= -.70585861E+03 E0= -.70585861E+03  EK= 0.41390E+01 SP= 0.00E+00 SK= 0.00E+00
   1355 T=   224. E= -.70175402E+03 F= -.70592958E+03 E0= -.70592958E+03  EK= 0.41756E+01 SP= 0.00E+00 SK= 0.00E+00
   1356 T=   219. E= -.70179868E+03 F= -.70588330E+03 E0= -.70588330E+03  EK= 0.40846E+01 SP= 0.00E+00 SK= 0.00E+00
       N       E                     dE             d eps       ncg     rms          rms(c)
DAV:   1    -0.694105369983E+03    0.37655E+01   -0.15093E+03 12190   0.879E+01
DAV:   2    -0.697962011789E+03   -0.38566E+01   -0.38559E+01 14372   0.128E+01
DAV:   3    -0.698001713565E+03   -0.39702E-01   -0.39700E-01 14620   0.133E+00
DAV:   4    -0.698002602471E+03   -0.88891E-03   -0.88889E-03 14340   0.194E-01    0.789E+00
DAV:   5    -0.697466318573E+03    0.53628E+00   -0.10755E+00 14980   0.325E+00    0.434E+00
DAV:   6    -0.697428960325E+03    0.37358E-01   -0.96302E-01 14684   0.270E+00    0.124E+00
DAV:   7    -0.697438482966E+03   -0.95226E-02   -0.19058E-01 14100   0.127E+00    0.487E-01
DAV:   8    -0.697435996494E+03    0.24865E-02   -0.20361E-02 14044   0.413E-01    0.233E-01
DAV:   9    -0.697433989653E+03    0.20068E-02   -0.62174E-03 14076   0.252E-01    0.119E-01
DAV:  10    -0.697432825229E+03    0.11644E-02   -0.16101E-03 16084   0.177E-01    0.421E-02
DAV:  11    -0.697432459845E+03    0.36538E-03   -0.90478E-04 14364   0.107E-01    0.400E-02
DAV:  12    -0.697432160090E+03    0.29976E-03   -0.23418E-04 11164   0.914E-02    0.189E-02
DAV:  13    -0.697432087598E+03    0.72492E-04   -0.23406E-04 10764   0.730E-02
   1357 T=   208. E= -.70187670E+03 F= -.70573909E+03 E0= -.70573909E+03  EK= 0.38624E+01 SP= 0.00E+00 SK= 0.00E+00
   1358 T=   199. E= -.70192791E+03 F= -.70563237E+03 E0= -.70563237E+03  EK= 0.37045E+01 SP= 0.00E+00 SK= 0.00E+00
   1359 T=   199. E= -.70191860E+03 F= -.70563109E+03 E0= -.70563109E+03  EK= 0.37125E+01 SP= 0.00E+00 SK= 0.00E+00
   1360 T=   207. E= -.70193389E+03 F= -.70579444E+03 E0= -.70579444E+03  EK= 0.38605E+01 SP= 0.00E+00 SK= 0.00E+00
   1361 T=   222. E= -.70192873E+03 F= -.70605762E+03 E0= -.70605762E+03  EK= 0.41289E+01 SP= 0.00E+00 SK= 0.00E+00
   1362 T=   234. E= -.70195743E+03 F= -.70630500E+03 E0= -.70630500E+03  EK= 0.43476E+01 SP= 0.00E+00 SK= 0.00E+00
   1363 T=   237. E= -.70202260E+03 F= -.70643564E+03 E0= -.70643564E+03  EK= 0.44130E+01 SP= 0.00E+00 SK= 0.00E+00
   1364 T=   235. E= -.70202796E+03 F= -.70639320E+03 E0= -.70639320E+03  EK= 0.43652E+01 SP= 0.00E+00 SK= 0.00E+00
   1365 T=   230. E= -.70197378E+03 F= -.70625766E+03 E0= -.70625766E+03  EK= 0.42839E+01 SP= 0.00E+00 SK= 0.00E+00
   1366 T=   226. E= -.70187695E+03 F= -.70609147E+03 E0= -.70609147E+03  EK= 0.42145E+01 SP= 0.00E+00 SK= 0.00E+00
       N       E                     dE             d eps       ncg     rms          rms(c)
DAV:   1    -0.693518694264E+03    0.39135E+01   -0.17750E+03 12190   0.952E+01
DAV:   2    -0.698398996120E+03   -0.48803E+01   -0.48790E+01 14428   0.143E+01
DAV:   3    -0.698449180497E+03   -0.50184E-01   -0.50182E-01 14612   0.151E+00
DAV:   4    -0.698450286426E+03   -0.11059E-02   -0.11059E-02 14436   0.216E-01    0.851E+00
DAV:   5    -0.697702468075E+03    0.74782E+00   -0.15032E+00 15772   0.391E+00    0.458E+00
DAV:   6    -0.697635375469E+03    0.67093E-01   -0.11147E+00 14780   0.286E+00    0.146E+00
DAV:   7    -0.697645478868E+03   -0.10103E-01   -0.22123E-01 14436   0.143E+00    0.520E-01
DAV:   8    -0.697642136245E+03    0.33426E-02   -0.26767E-02 14404   0.473E-01    0.272E-01
DAV:   9    -0.697638614763E+03    0.35215E-02   -0.96862E-03 14044   0.312E-01    0.150E-01
DAV:  10    -0.697636654389E+03    0.19604E-02   -0.26968E-03 16468   0.252E-01    0.566E-02
DAV:  11    -0.697635916111E+03    0.73828E-03   -0.18276E-03 14268   0.166E-01    0.569E-02
DAV:  12    -0.697635351150E+03    0.56496E-03   -0.39778E-04 12932   0.130E-01    0.213E-02
DAV:  13    -0.697635181571E+03    0.16958E-03   -0.39519E-04 13332   0.111E-01    0.301E-02
DAV:  14    -0.697635191233E+03   -0.96614E-05   -0.47471E-04 14452   0.584E-02
   1367 T=   222. E= -.70180936E+03 F= -.70593361E+03 E0= -.70593361E+03  EK= 0.41242E+01 SP= 0.00E+00 SK= 0.00E+00
   1368 T=   218. E= -.70187186E+03 F= -.70592229E+03 E0= -.70592229E+03  EK= 0.40504E+01 SP= 0.00E+00 SK= 0.00E+00
   1369 T=   216. E= -.70191290E+03 F= -.70593681E+03 E0= -.70593681E+03  EK= 0.40239E+01 SP= 0.00E+00 SK= 0.00E+00
   1370 T=   218. E= -.70194541E+03 F= -.70600415E+03 E0= -.70600415E+03  EK= 0.40587E+01 SP= 0.00E+00 SK= 0.00E+00
   1371 T=   220. E= -.70193079E+03 F= -.70602354E+03 E0= -.70602354E+03  EK= 0.40928E+01 SP= 0.00E+00 SK= 0.00E+00
   1372 T=   220. E= -.70184610E+03 F= -.70594343E+03 E0= -.70594343E+03  EK= 0.40973E+01 SP= 0.00E+00 SK= 0.00E+00
   1373 T=   217. E= -.70177239E+03 F= -.70580327E+03 E0= -.70580327E+03  EK= 0.40309E+01 SP= 0.00E+00 SK= 0.00E+00
   1374 T=   209. E= -.70175667E+03 F= -.70564743E+03 E0= -.70564743E+03  EK= 0.38908E+01 SP= 0.00E+00 SK= 0.00E+00
   1375 T=   211. E= -.70165307E+03 F= -.70558823E+03 E0= -.70558823E+03  EK= 0.39352E+01 SP= 0.00E+00 SK= 0.00E+00
   1376 T=   217. E= -.70156610E+03 F= -.70560132E+03 E0= -.70560132E+03  EK= 0.40352E+01 SP= 0.00E+00 SK= 0.00E+00
       N       E                     dE             d eps       ncg     rms          rms(c)
DAV:   1    -0.693279358482E+03    0.43558E+01   -0.17966E+03 12190   0.955E+01
DAV:   2    -0.698155215521E+03   -0.48759E+01   -0.48746E+01 14484   0.142E+01
DAV:   3    -0.698206256605E+03   -0.51041E-01   -0.51038E-01 14628   0.150E+00
DAV:   4    -0.698207446559E+03   -0.11900E-02   -0.11899E-02 14492   0.217E-01    0.825E+00
DAV:   5    -0.697434922892E+03    0.77252E+00   -0.15387E+00 15156   0.366E+00    0.441E+00
DAV:   6    -0.697337392224E+03    0.97531E-01   -0.10648E+00 14716   0.269E+00    0.141E+00
DAV:   7    -0.697343228674E+03   -0.58364E-02   -0.22779E-01 14348   0.142E+00    0.544E-01
DAV:   8    -0.697338671734E+03    0.45569E-02   -0.25726E-02 13996   0.461E-01    0.276E-01
DAV:   9    -0.697334824317E+03    0.38474E-02   -0.10391E-02 13916   0.282E-01    0.146E-01
DAV:  10    -0.697333070935E+03    0.17534E-02   -0.24747E-03 16412   0.208E-01    0.551E-02
DAV:  11    -0.697332542194E+03    0.52874E-03   -0.14737E-03 14044   0.119E-01    0.578E-02
DAV:  12    -0.697332081871E+03    0.46032E-03   -0.35174E-04 12428   0.952E-02    0.207E-02
DAV:  13    -0.697331983852E+03    0.98019E-04   -0.35343E-04 13060   0.685E-02
   1377 T=   218. E= -.70155801E+03 F= -.70562023E+03 E0= -.70562023E+03  EK= 0.40622E+01 SP= 0.00E+00 SK= 0.00E+00
   1378 T=   222. E= -.70157155E+03 F= -.70569836E+03 E0= -.70569836E+03  EK= 0.41268E+01 SP= 0.00E+00 SK= 0.00E+00
   1379 T=   223. E= -.70152731E+03 F= -.70567364E+03 E0= -.70567364E+03  EK= 0.41463E+01 SP= 0.00E+00 SK= 0.00E+00
   1380 T=   218. E= -.70155424E+03 F= -.70561691E+03 E0= -.70561691E+03  EK= 0.40627E+01 SP= 0.00E+00 SK= 0.00E+00
   1381 T=   218. E= -.70151232E+03 F= -.70556222E+03 E0= -.70556222E+03  EK= 0.40499E+01 SP= 0.00E+00 SK= 0.00E+00
   1382 T=   222. E= -.70140128E+03 F= -.70552623E+03 E0= -.70552623E+03  EK= 0.41249E+01 SP= 0.00E+00 SK= 0.00E+00
   1383 T=   217. E= -.70142963E+03 F= -.70546524E+03 E0= -.70546524E+03  EK= 0.40356E+01 SP= 0.00E+00 SK= 0.00E+00
   1384 T=   211. E= -.70145872E+03 F= -.70538545E+03 E0= -.70538545E+03  EK= 0.39267E+01 SP= 0.00E+00 SK= 0.00E+00
   1385 T=   208. E= -.70141164E+03 F= -.70528217E+03 E0= -.70528217E+03  EK= 0.38705E+01 SP= 0.00E+00 SK= 0.00E+00
   1386 T=   204. E= -.70138995E+03 F= -.70518883E+03 E0= -.70518883E+03  EK= 0.37989E+01 SP= 0.00E+00 SK= 0.00E+00
       N       E                     dE             d eps       ncg     rms          rms(c)
DAV:   1    -0.693142894522E+03    0.41892E+01   -0.16613E+03 12190   0.924E+01
DAV:   2    -0.697539686766E+03   -0.43968E+01   -0.43956E+01 14404   0.136E+01
DAV:   3    -0.697584080739E+03   -0.44394E-01   -0.44392E-01 14668   0.142E+00
DAV:   4    -0.697585070725E+03   -0.98999E-03   -0.98996E-03 14468   0.204E-01    0.821E+00
DAV:   5    -0.696874004212E+03    0.71107E+00   -0.15080E+00 15620   0.382E+00    0.437E+00
DAV:   6    -0.696814039961E+03    0.59964E-01   -0.97474E-01 14636   0.259E+00    0.149E+00
DAV:   7    -0.696819518157E+03   -0.54782E-02   -0.19700E-01 14772   0.139E+00    0.487E-01
DAV:   8    -0.696815524132E+03    0.39940E-02   -0.26443E-02 14860   0.517E-01    0.233E-01
DAV:   9    -0.696812449819E+03    0.30743E-02   -0.91843E-03 13940   0.283E-01    0.141E-01
DAV:  10    -0.696811097498E+03    0.13523E-02   -0.26232E-03 16036   0.211E-01    0.504E-02
DAV:  11    -0.696810570550E+03    0.52695E-03   -0.11438E-03 14148   0.120E-01    0.477E-02
DAV:  12    -0.696810135070E+03    0.43548E-03   -0.18610E-04 10900   0.107E-01    0.226E-02
DAV:  13    -0.696809962175E+03    0.17289E-03   -0.40762E-04 12884   0.112E-01    0.228E-02
DAV:  14    -0.696809974382E+03   -0.12207E-04   -0.38090E-04 14068   0.498E-02
   1387 T=   199. E= -.70140443E+03 F= -.70511092E+03 E0= -.70511092E+03  EK= 0.37065E+01 SP= 0.00E+00 SK= 0.00E+00
   1388 T=   198. E= -.70146264E+03 F= -.70514380E+03 E0= -.70514380E+03  EK= 0.36812E+01 SP= 0.00E+00 SK= 0.00E+00
   1389 T=   207. E= -.70137628E+03 F= -.70522407E+03 E0= -.70522407E+03  EK= 0.38478E+01 SP= 0.00E+00 SK= 0.00E+00
   1390 T=   218. E= -.70130684E+03 F= -.70537303E+03 E0= -.70537303E+03  EK= 0.40662E+01 SP= 0.00E+00 SK= 0.00E+00
   1391 T=   227. E= -.70128347E+03 F= -.70550000E+03 E0= -.70550000E+03  EK= 0.42165E+01 SP= 0.00E+00 SK= 0.00E+00
   1392 T=   231. E= -.70128772E+03 F= -.70559486E+03 E0= -.70559486E+03  EK= 0.43071E+01 SP= 0.00E+00 SK= 0.00E+00
   1393 T=   234. E= -.70126286E+03 F= -.70562567E+03 E0= -.70562567E+03  EK= 0.43628E+01 SP= 0.00E+00 SK= 0.00E+00
   1394 T=   238. E= -.70119943E+03 F= -.70562047E+03 E0= -.70562047E+03  EK= 0.44210E+01 SP= 0.00E+00 SK= 0.00E+00
   1395 T=   239. E= -.70116609E+03 F= -.70560682E+03 E0= -.70560682E+03  EK= 0.44407E+01 SP= 0.00E+00 SK= 0.00E+00
   1396 T=   243. E= -.70113854E+03 F= -.70565642E+03 E0= -.70565642E+03  EK= 0.45179E+01 SP= 0.00E+00 SK= 0.00E+00
       N       E                     dE             d eps       ncg     rms          rms(c)
DAV:   1    -0.692641056948E+03    0.41689E+01   -0.19573E+03 12190   0.993E+01
DAV:   2    -0.698249843159E+03   -0.56088E+01   -0.56073E+01 14436   0.151E+01
DAV:   3    -0.698306493535E+03   -0.56650E-01   -0.56647E-01 14636   0.158E+00
DAV:   4    -0.698307746599E+03   -0.12531E-02   -0.12530E-02 14420   0.225E-01    0.853E+00
DAV:   5    -0.697536002103E+03    0.77174E+00   -0.15228E+00 15316   0.373E+00    0.457E+00
DAV:   6    -0.697454156537E+03    0.81846E-01   -0.10905E+00 14636   0.268E+00    0.145E+00
DAV:   7    -0.697462913742E+03   -0.87572E-02   -0.22129E-01 14508   0.148E+00    0.525E-01
DAV:   8    -0.697460289509E+03    0.26242E-02   -0.30056E-02 14380   0.489E-01    0.293E-01
DAV:   9    -0.697457514428E+03    0.27751E-02   -0.13094E-02 13884   0.299E-01    0.177E-01
DAV:  10    -0.697455789446E+03    0.17250E-02   -0.26181E-03 17596   0.242E-01    0.642E-02
DAV:  11    -0.697455362406E+03    0.42704E-03   -0.22668E-03 14564   0.155E-01    0.633E-02
DAV:  12    -0.697454916879E+03    0.44553E-03   -0.40215E-04 13916   0.982E-02    0.212E-02
DAV:  13    -0.697454686498E+03    0.23038E-03   -0.20916E-04 10676   0.107E-01    0.225E-02
DAV:  14    -0.697454674997E+03    0.11501E-04   -0.35985E-04 13132   0.644E-02
   1397 T=   248. E= -.70111757E+03 F= -.70573895E+03 E0= -.70573895E+03  EK= 0.46214E+01 SP= 0.00E+00 SK= 0.00E+00
   1398 T=   256. E= -.70113259E+03 F= -.70590509E+03 E0= -.70590509E+03  EK= 0.47725E+01 SP= 0.00E+00 SK= 0.00E+00
   1399 T=   259. E= -.70115024E+03 F= -.70597539E+03 E0= -.70597539E+03  EK= 0.48251E+01 SP= 0.00E+00 SK= 0.00E+00
   1400 T=   255. E= -.70117162E+03 F= -.70592568E+03 E0= -.70592568E+03  EK= 0.47541E+01 SP= 0.00E+00 SK= 0.00E+00
   1401 T=   249. E= -.70114728E+03 F= -.70577369E+03 E0= -.70577369E+03  EK= 0.46264E+01 SP= 0.00E+00 SK= 0.00E+00
   1402 T=   238. E= -.70118251E+03 F= -.70561493E+03 E0= -.70561493E+03  EK= 0.44324E+01 SP= 0.00E+00 SK= 0.00E+00
   1403 T=   232. E= -.70119479E+03 F= -.70551613E+03 E0= -.70551613E+03  EK= 0.43213E+01 SP= 0.00E+00 SK= 0.00E+00
   1404 T=   231. E= -.70116899E+03 F= -.70546685E+03 E0= -.70546685E+03  EK= 0.42979E+01 SP= 0.00E+00 SK= 0.00E+00
   1405 T=   231. E= -.70116006E+03 F= -.70546054E+03 E0= -.70546054E+03  EK= 0.43005E+01 SP= 0.00E+00 SK= 0.00E+00
   1406 T=   230. E= -.70119822E+03 F= -.70548798E+03 E0= -.70548798E+03  EK= 0.42898E+01 SP= 0.00E+00 SK= 0.00E+00
       N       E                     dE             d eps       ncg     rms          rms(c)
DAV:   1    -0.692525452103E+03    0.49292E+01   -0.20499E+03 12190   0.102E+02
DAV:   2    -0.697944051706E+03   -0.54186E+01   -0.54173E+01 14436   0.152E+01
DAV:   3    -0.698000541434E+03   -0.56490E-01   -0.56487E-01 14644   0.159E+00
DAV:   4    -0.698001827765E+03   -0.12863E-02   -0.12863E-02 14412   0.229E-01    0.850E+00
DAV:   5    -0.697288903545E+03    0.71292E+00   -0.12511E+00 15212   0.339E+00    0.470E+00
DAV:   6    -0.697196169770E+03    0.92734E-01   -0.11507E+00 14668   0.282E+00    0.130E+00
DAV:   7    -0.697206308612E+03   -0.10139E-01   -0.23750E-01 14220   0.145E+00    0.548E-01
DAV:   8    -0.697203169295E+03    0.31393E-02   -0.26972E-02 14092   0.458E-01    0.294E-01
DAV:   9    -0.697200742083E+03    0.24272E-02   -0.11758E-02 13948   0.283E-01    0.167E-01
DAV:  10    -0.697199166104E+03    0.15760E-02   -0.23487E-03 17028   0.217E-01    0.573E-02
DAV:  11    -0.697198782736E+03    0.38337E-03   -0.17213E-03 14380   0.130E-01    0.557E-02
DAV:  12    -0.697198432813E+03    0.34992E-03   -0.35619E-04 13244   0.787E-02    0.215E-02
DAV:  13    -0.697198284922E+03    0.14789E-03   -0.19654E-04 10532   0.738E-02    0.287E-02
DAV:  14    -0.697198253601E+03    0.31322E-04   -0.18209E-04 10756   0.520E-02
   1407 T=   230. E= -.70121098E+03 F= -.70549023E+03 E0= -.70549023E+03  EK= 0.42793E+01 SP= 0.00E+00 SK= 0.00E+00
   1408 T=   232. E= -.70124336E+03 F= -.70556015E+03 E0= -.70556015E+03  EK= 0.43168E+01 SP= 0.00E+00 SK= 0.00E+00
   1409 T=   230. E= -.70126394E+03 F= -.70554946E+03 E0= -.70554946E+03  EK= 0.42855E+01 SP= 0.00E+00 SK= 0.00E+00
   1410 T=   226. E= -.70126982E+03 F= -.70548576E+03 E0= -.70548576E+03  EK= 0.42159E+01 SP= 0.00E+00 SK= 0.00E+00
   1411 T=   224. E= -.70122576E+03 F= -.70538983E+03 E0= -.70538983E+03  EK= 0.41641E+01 SP= 0.00E+00 SK= 0.00E+00
   1412 T=   221. E= -.70124070E+03 F= -.70534666E+03 E0= -.70534666E+03  EK= 0.41060E+01 SP= 0.00E+00 SK= 0.00E+00
   1413 T=   217. E= -.70131013E+03 F= -.70534626E+03 E0= -.70534626E+03  EK= 0.40361E+01 SP= 0.00E+00 SK= 0.00E+00
   1414 T=   217. E= -.70135594E+03 F= -.70540083E+03 E0= -.70540083E+03  EK= 0.40449E+01 SP= 0.00E+00 SK= 0.00E+00
   1415 T=   223. E= -.70130037E+03 F= -.70546050E+03 E0= -.70546050E+03  EK= 0.41601E+01 SP= 0.00E+00 SK= 0.00E+00
   1416 T=   230. E= -.70125070E+03 F= -.70552378E+03 E0= -.70552378E+03  EK= 0.42731E+01 SP= 0.00E+00 SK= 0.00E+00
       N       E                     dE             d eps       ncg     rms          rms(c)
DAV:   1    -0.693101629486E+03    0.40967E+01   -0.18688E+03 12190   0.978E+01
DAV:   2    -0.697876061094E+03   -0.47744E+01   -0.47734E+01 14380   0.142E+01
DAV:   3    -0.697925099373E+03   -0.49038E-01   -0.49036E-01 14636   0.148E+00
DAV:   4    -0.697926224761E+03   -0.11254E-02   -0.11254E-02 14396   0.214E-01    0.820E+00
DAV:   5    -0.697266634980E+03    0.65959E+00   -0.12766E+00 15452   0.360E+00    0.446E+00
DAV:   6    -0.697211517195E+03    0.55118E-01   -0.10702E+00 14644   0.272E+00    0.134E+00
DAV:   7    -0.697224895607E+03   -0.13378E-01   -0.20235E-01 14004   0.131E+00    0.493E-01
DAV:   8    -0.697222965890E+03    0.19297E-02   -0.20218E-02 13836   0.441E-01    0.250E-01
DAV:   9    -0.697222080446E+03    0.88544E-03   -0.10891E-02 13756   0.270E-01    0.163E-01
DAV:  10    -0.697221188039E+03    0.89241E-03   -0.25642E-03 17116   0.189E-01    0.391E-02
DAV:  11    -0.697221023766E+03    0.16427E-03   -0.78292E-04 13804   0.801E-02    0.333E-02
DAV:  12    -0.697220870442E+03    0.15332E-03   -0.10335E-04  9724   0.558E-02    0.152E-02
DAV:  13    -0.697220817822E+03    0.52620E-04   -0.16203E-04 10340   0.513E-02
   1417 T=   233. E= -.70118194E+03 F= -.70551773E+03 E0= -.70551773E+03  EK= 0.43358E+01 SP= 0.00E+00 SK= 0.00E+00
   1418 T=   233. E= -.70114022E+03 F= -.70547061E+03 E0= -.70547061E+03  EK= 0.43304E+01 SP= 0.00E+00 SK= 0.00E+00
   1419 T=   230. E= -.70105007E+03 F= -.70533688E+03 E0= -.70533688E+03  EK= 0.42868E+01 SP= 0.00E+00 SK= 0.00E+00
   1420 T=   225. E= -.70101014E+03 F= -.70519955E+03 E0= -.70519955E+03  EK= 0.41894E+01 SP= 0.00E+00 SK= 0.00E+00
   1421 T=   219. E= -.70101635E+03 F= -.70509820E+03 E0= -.70509820E+03  EK= 0.40819E+01 SP= 0.00E+00 SK= 0.00E+00
   1422 T=   221. E= -.70094663E+03 F= -.70505949E+03 E0= -.70505949E+03  EK= 0.41129E+01 SP= 0.00E+00 SK= 0.00E+00
   1423 T=   226. E= -.70086000E+03 F= -.70506040E+03 E0= -.70506040E+03  EK= 0.42004E+01 SP= 0.00E+00 SK= 0.00E+00
   1424 T=   227. E= -.70088280E+03 F= -.70510793E+03 E0= -.70510793E+03  EK= 0.42251E+01 SP= 0.00E+00 SK= 0.00E+00
   1425 T=   226. E= -.70092980E+03 F= -.70513361E+03 E0= -.70513361E+03  EK= 0.42038E+01 SP= 0.00E+00 SK= 0.00E+00
   1426 T=   228. E= -.70090494E+03 F= -.70514417E+03 E0= -.70514417E+03  EK= 0.42392E+01 SP= 0.00E+00 SK= 0.00E+00
       N       E                     dE             d eps       ncg     rms          rms(c)
DAV:   1    -0.693018854898E+03    0.42020E+01   -0.17137E+03 12190   0.936E+01
DAV:   2    -0.697461713915E+03   -0.44429E+01   -0.44419E+01 14428   0.137E+01
DAV:   3    -0.697507113502E+03   -0.45400E-01   -0.45398E-01 14628   0.143E+00
DAV:   4    -0.697508136383E+03   -0.10229E-02   -0.10229E-02 14404   0.206E-01    0.814E+00
DAV:   5    -0.696895636971E+03    0.61250E+00   -0.12130E+00 15420   0.338E+00    0.447E+00
DAV:   6    -0.696840814800E+03    0.54822E-01   -0.10048E+00 14620   0.263E+00    0.129E+00
DAV:   7    -0.696851632450E+03   -0.10818E-01   -0.18851E-01 13964   0.123E+00    0.500E-01
DAV:   8    -0.696848622459E+03    0.30100E-02   -0.18732E-02 14060   0.394E-01    0.247E-01
DAV:   9    -0.696846507561E+03    0.21149E-02   -0.82981E-03 13820   0.261E-01    0.140E-01
DAV:  10    -0.696845299129E+03    0.12084E-02   -0.23353E-03 16020   0.189E-01    0.437E-02
DAV:  11    -0.696844972367E+03    0.32676E-03   -0.87221E-04 14228   0.884E-02    0.409E-02
DAV:  12    -0.696844660356E+03    0.31201E-03   -0.17851E-04 10516   0.738E-02    0.162E-02
DAV:  13    -0.696844581948E+03    0.78408E-04   -0.26245E-04 12124   0.645E-02
   1427 T=   227. E= -.70092648E+03 F= -.70515197E+03 E0= -.70515197E+03  EK= 0.42255E+01 SP= 0.00E+00 SK= 0.00E+00
   1428 T=   224. E= -.70100788E+03 F= -.70518326E+03 E0= -.70518326E+03  EK= 0.41754E+01 SP= 0.00E+00 SK= 0.00E+00
   1429 T=   222. E= -.70105660E+03 F= -.70519448E+03 E0= -.70519448E+03  EK= 0.41379E+01 SP= 0.00E+00 SK= 0.00E+00
   1430 T=   221. E= -.70105930E+03 F= -.70516404E+03 E0= -.70516404E+03  EK= 0.41047E+01 SP= 0.00E+00 SK= 0.00E+00
   1431 T=   222. E= -.70102617E+03 F= -.70516640E+03 E0= -.70516640E+03  EK= 0.41402E+01 SP= 0.00E+00 SK= 0.00E+00
   1432 T=   223. E= -.70104782E+03 F= -.70519405E+03 E0= -.70519405E+03  EK= 0.41462E+01 SP= 0.00E+00 SK= 0.00E+00
   1433 T=   223. E= -.70110809E+03 F= -.70526266E+03 E0= -.70526266E+03  EK= 0.41546E+01 SP= 0.00E+00 SK= 0.00E+00
   1434 T=   224. E= -.70117400E+03 F= -.70533815E+03 E0= -.70533815E+03  EK= 0.41641E+01 SP= 0.00E+00 SK= 0.00E+00
   1435 T=   228. E= -.70118710E+03 F= -.70542353E+03 E0= -.70542353E+03  EK= 0.42364E+01 SP= 0.00E+00 SK= 0.00E+00
   1436 T=   232. E= -.70116178E+03 F= -.70548493E+03 E0= -.70548493E+03  EK= 0.43231E+01 SP= 0.00E+00 SK= 0.00E+00
       N       E                     dE             d eps       ncg     rms          rms(c)
DAV:   1    -0.693215851323E+03    0.36288E+01   -0.17842E+03 12190   0.950E+01
DAV:   2    -0.697925434903E+03   -0.47096E+01   -0.47085E+01 14428   0.140E+01
DAV:   3    -0.697972818476E+03   -0.47384E-01   -0.47381E-01 14628   0.146E+00
DAV:   4    -0.697973872802E+03   -0.10543E-02   -0.10543E-02 14372   0.210E-01    0.816E+00
DAV:   5    -0.697307498645E+03    0.66637E+00   -0.12764E+00 14780   0.347E+00    0.444E+00
DAV:   6    -0.697240074865E+03    0.67424E-01   -0.10952E+00 14652   0.278E+00    0.131E+00
DAV:   7    -0.697248454838E+03   -0.83800E-02   -0.23404E-01 14188   0.150E+00    0.534E-01
DAV:   8    -0.697245506751E+03    0.29481E-02   -0.30385E-02 14068   0.500E-01    0.291E-01
DAV:   9    -0.697242935568E+03    0.25712E-02   -0.12660E-02 13836   0.290E-01    0.173E-01
DAV:  10    -0.697241144658E+03    0.17909E-02   -0.24212E-03 16876   0.227E-01    0.570E-02
DAV:  11    -0.697240674350E+03    0.47031E-03   -0.18368E-03 14300   0.140E-01    0.563E-02
DAV:  12    -0.697240296712E+03    0.37764E-03   -0.40256E-04 13636   0.834E-02    0.226E-02
DAV:  13    -0.697240143294E+03    0.15342E-03   -0.19273E-04 10476   0.761E-02    0.289E-02
DAV:  14    -0.697240111147E+03    0.32147E-04   -0.19492E-04 10828   0.554E-02
   1437 T=   232. E= -.70123291E+03 F= -.70554320E+03 E0= -.70554320E+03  EK= 0.43103E+01 SP= 0.00E+00 SK= 0.00E+00
   1438 T=   227. E= -.70118922E+03 F= -.70542303E+03 E0= -.70542303E+03  EK= 0.42338E+01 SP= 0.00E+00 SK= 0.00E+00
   1439 T=   223. E= -.70121702E+03 F= -.70535864E+03 E0= -.70535864E+03  EK= 0.41416E+01 SP= 0.00E+00 SK= 0.00E+00
   1440 T=   221. E= -.70121347E+03 F= -.70533010E+03 E0= -.70533010E+03  EK= 0.41166E+01 SP= 0.00E+00 SK= 0.00E+00
   1441 T=   218. E= -.70126069E+03 F= -.70531372E+03 E0= -.70531372E+03  EK= 0.40530E+01 SP= 0.00E+00 SK= 0.00E+00
   1442 T=   214. E= -.70129908E+03 F= -.70529030E+03 E0= -.70529030E+03  EK= 0.39912E+01 SP= 0.00E+00 SK= 0.00E+00
   1443 T=   213. E= -.70126215E+03 F= -.70521904E+03 E0= -.70521904E+03  EK= 0.39569E+01 SP= 0.00E+00 SK= 0.00E+00
   1444 T=   210. E= -.70124957E+03 F= -.70515062E+03 E0= -.70515062E+03  EK= 0.39010E+01 SP= 0.00E+00 SK= 0.00E+00
   1445 T=   205. E= -.70128888E+03 F= -.70510067E+03 E0= -.70510067E+03  EK= 0.38118E+01 SP= 0.00E+00 SK= 0.00E+00
   1446 T=   208. E= -.70126662E+03 F= -.70513480E+03 E0= -.70513480E+03  EK= 0.38682E+01 SP= 0.00E+00 SK= 0.00E+00
   1447 T=   211. E= -.70130063E+03 F= -.70523263E+03 E0= -.70523263E+03  EK= 0.39320E+01 SP= 0.00E+00 SK= 0.00E+00
   1448 T=   213. E= -.70141222E+03 F= -.70537765E+03 E0= -.70537765E+03  EK= 0.39654E+01 SP= 0.00E+00 SK= 0.00E+00
   1449 T=   224. E= -.70137314E+03 F= -.70553450E+03 E0= -.70553450E+03  EK= 0.41614E+01 SP= 0.00E+00 SK= 0.00E+00
   1450 T=   229. E= -.70135148E+03 F= -.70562322E+03 E0= -.70562322E+03  EK= 0.42717E+01 SP= 0.00E+00 SK= 0.00E+00
       N       E                     dE             d eps       ncg     rms          rms(c)
DAV:   1    -0.691164023078E+03    0.60761E+01   -0.26025E+03 12190   0.115E+02
DAV:   2    -0.697861634653E+03   -0.66976E+01   -0.66958E+01 14372   0.166E+01
DAV:   3    -0.697932435966E+03   -0.70801E-01   -0.70797E-01 14636   0.179E+00
DAV:   4    -0.697934049906E+03   -0.16139E-02   -0.16139E-02 14420   0.255E-01    0.939E+00
DAV:   5    -0.697340605067E+03    0.59344E+00   -0.10483E+00 15356   0.329E+00    0.537E+00
DAV:   6    -0.697328045865E+03    0.12559E-01   -0.14451E+00 14660   0.323E+00    0.119E+00
DAV:   7    -0.697337461177E+03   -0.94153E-02   -0.25381E-01 13844   0.143E+00    0.507E-01
DAV:   8    -0.697335121413E+03    0.23398E-02   -0.25418E-02 14348   0.387E-01    0.301E-01
DAV:   9    -0.697332589303E+03    0.25321E-02   -0.13277E-02 13932   0.361E-01    0.201E-01
DAV:  10    -0.697330622820E+03    0.19665E-02   -0.35578E-03 15644   0.237E-01    0.739E-02
DAV:  11    -0.697330272448E+03    0.35037E-03   -0.23891E-03 14748   0.141E-01    0.563E-02
DAV:  12    -0.697329900380E+03    0.37207E-03   -0.29957E-04 12236   0.705E-02    0.288E-02
DAV:  13    -0.697329689630E+03    0.21075E-03   -0.30170E-04 12316   0.815E-02    0.235E-02
DAV:  14    -0.697329652020E+03    0.37610E-04   -0.15246E-04 10276   0.544E-02
   1451 T=   230. E= -.70133666E+03 F= -.70561348E+03 E0= -.70561348E+03  EK= 0.42768E+01 SP= 0.00E+00 SK= 0.00E+00
   1452 T=   226. E= -.70130152E+03 F= -.70551391E+03 E0= -.70551391E+03  EK= 0.42124E+01 SP= 0.00E+00 SK= 0.00E+00
   1453 T=   217. E= -.70135161E+03 F= -.70538650E+03 E0= -.70538650E+03  EK= 0.40349E+01 SP= 0.00E+00 SK= 0.00E+00
   1454 T=   213. E= -.70135916E+03 F= -.70532039E+03 E0= -.70532039E+03  EK= 0.39612E+01 SP= 0.00E+00 SK= 0.00E+00
   1455 T=   217. E= -.70133592E+03 F= -.70538064E+03 E0= -.70538064E+03  EK= 0.40447E+01 SP= 0.00E+00 SK= 0.00E+00
   1456 T=   228. E= -.70129284E+03 F= -.70553830E+03 E0= -.70553830E+03  EK= 0.42455E+01 SP= 0.00E+00 SK= 0.00E+00
   1457 T=   236. E= -.70129181E+03 F= -.70569192E+03 E0= -.70569192E+03  EK= 0.44001E+01 SP= 0.00E+00 SK= 0.00E+00
   1458 T=   236. E= -.70134578E+03 F= -.70573990E+03 E0= -.70573990E+03  EK= 0.43941E+01 SP= 0.00E+00 SK= 0.00E+00
   1459 T=   230. E= -.70134171E+03 F= -.70561741E+03 E0= -.70561741E+03  EK= 0.42757E+01 SP= 0.00E+00 SK= 0.00E+00
   1460 T=   220. E= -.70129867E+03 F= -.70538552E+03 E0= -.70538552E+03  EK= 0.40869E+01 SP= 0.00E+00 SK= 0.00E+00
       N       E                     dE             d eps       ncg     rms          rms(c)
DAV:   1    -0.692556839047E+03    0.47729E+01   -0.18227E+03 12190   0.956E+01
DAV:   2    -0.697570174860E+03   -0.50133E+01   -0.50121E+01 14428   0.145E+01
DAV:   3    -0.697622033696E+03   -0.51859E-01   -0.51856E-01 14652   0.152E+00
DAV:   4    -0.697623180811E+03   -0.11471E-02   -0.11471E-02 14420   0.218E-01    0.827E+00
DAV:   5    -0.696945277248E+03    0.67790E+00   -0.13021E+00 15108   0.353E+00    0.449E+00
DAV:   6    -0.696878137191E+03    0.67140E-01   -0.10686E+00 14684   0.281E+00    0.134E+00
DAV:   7    -0.696891603075E+03   -0.13466E-01   -0.23038E-01 14196   0.141E+00    0.547E-01
DAV:   8    -0.696888302492E+03    0.33006E-02   -0.26985E-02 14100   0.478E-01    0.271E-01
DAV:   9    -0.696885767591E+03    0.25349E-02   -0.81311E-03 13740   0.251E-01    0.129E-01
DAV:  10    -0.696884359616E+03    0.14080E-02   -0.15683E-03 15988   0.198E-01    0.511E-02
DAV:  11    -0.696883889716E+03    0.46990E-03   -0.14511E-03 14324   0.140E-01    0.525E-02
DAV:  12    -0.696883544315E+03    0.34540E-03   -0.42308E-04 13292   0.947E-02    0.239E-02
DAV:  13    -0.696883399143E+03    0.14517E-03   -0.14064E-04  9788   0.869E-02    0.302E-02
DAV:  14    -0.696883381303E+03    0.17840E-04   -0.31185E-04 12748   0.590E-02
   1461 T=   206. E= -.70135989E+03 F= -.70518778E+03 E0= -.70518778E+03  EK= 0.38279E+01 SP= 0.00E+00 SK= 0.00E+00
   1462 T=   196. E= -.70139531E+03 F= -.70503695E+03 E0= -.70503695E+03  EK= 0.36416E+01 SP= 0.00E+00 SK= 0.00E+00
   1463 T=   198. E= -.70137139E+03 F= -.70505399E+03 E0= -.70505399E+03  EK= 0.36826E+01 SP= 0.00E+00 SK= 0.00E+00
   1464 T=   209. E= -.70130683E+03 F= -.70518991E+03 E0= -.70518991E+03  EK= 0.38831E+01 SP= 0.00E+00 SK= 0.00E+00
   1465 T=   221. E= -.70125206E+03 F= -.70535966E+03 E0= -.70535966E+03  EK= 0.41076E+01 SP= 0.00E+00 SK= 0.00E+00
   1466 T=   226. E= -.70123851E+03 F= -.70544899E+03 E0= -.70544899E+03  EK= 0.42105E+01 SP= 0.00E+00 SK= 0.00E+00
   1467 T=   229. E= -.70121286E+03 F= -.70548148E+03 E0= -.70548148E+03  EK= 0.42686E+01 SP= 0.00E+00 SK= 0.00E+00
   1468 T=   232. E= -.70116645E+03 F= -.70547858E+03 E0= -.70547858E+03  EK= 0.43121E+01 SP= 0.00E+00 SK= 0.00E+00
   1469 T=   232. E= -.70115817E+03 F= -.70547082E+03 E0= -.70547082E+03  EK= 0.43127E+01 SP= 0.00E+00 SK= 0.00E+00
   1470 T=   229. E= -.70117821E+03 F= -.70544794E+03 E0= -.70544794E+03  EK= 0.42697E+01 SP= 0.00E+00 SK= 0.00E+00
       N       E                     dE             d eps       ncg     rms          rms(c)
DAV:   1    -0.693504695511E+03    0.33787E+01   -0.16826E+03 12190   0.928E+01
DAV:   2    -0.697828106277E+03   -0.43234E+01   -0.43224E+01 14412   0.135E+01
DAV:   3    -0.697871993074E+03   -0.43887E-01   -0.43884E-01 14628   0.140E+00
DAV:   4    -0.697873001168E+03   -0.10081E-02   -0.10081E-02 14476   0.203E-01    0.834E+00
DAV:   5    -0.697225767939E+03    0.64723E+00   -0.13523E+00 15284   0.358E+00    0.451E+00
DAV:   6    -0.697174242960E+03    0.51525E-01   -0.94880E-01 14652   0.261E+00    0.140E+00
DAV:   7    -0.697186170266E+03   -0.11927E-01   -0.19084E-01 14316   0.125E+00    0.509E-01
DAV:   8    -0.697182768317E+03    0.34019E-02   -0.19972E-02 14452   0.428E-01    0.235E-01
DAV:   9    -0.697180568209E+03    0.22001E-02   -0.68682E-03 14108   0.240E-01    0.121E-01
DAV:  10    -0.697179350329E+03    0.12179E-02   -0.19256E-03 16172   0.190E-01    0.420E-02
DAV:  11    -0.697178998736E+03    0.35159E-03   -0.89859E-04 14412   0.101E-01    0.442E-02
DAV:  12    -0.697178676649E+03    0.32209E-03   -0.21914E-04 10980   0.799E-02    0.178E-02
DAV:  13    -0.697178581442E+03    0.95207E-04   -0.21007E-04 10628   0.768E-02
   1471 T=   229. E= -.70121944E+03 F= -.70548387E+03 E0= -.70548387E+03  EK= 0.42644E+01 SP= 0.00E+00 SK= 0.00E+00
   1472 T=   234. E= -.70117355E+03 F= -.70552072E+03 E0= -.70552072E+03  EK= 0.43472E+01 SP= 0.00E+00 SK= 0.00E+00
   1473 T=   239. E= -.70116730E+03 F= -.70561347E+03 E0= -.70561347E+03  EK= 0.44462E+01 SP= 0.00E+00 SK= 0.00E+00
   1474 T=   240. E= -.70119899E+03 F= -.70566135E+03 E0= -.70566135E+03  EK= 0.44624E+01 SP= 0.00E+00 SK= 0.00E+00
   1475 T=   238. E= -.70119551E+03 F= -.70562842E+03 E0= -.70562842E+03  EK= 0.44329E+01 SP= 0.00E+00 SK= 0.00E+00
   1476 T=   237. E= -.70112610E+03 F= -.70552893E+03 E0= -.70552893E+03  EK= 0.44028E+01 SP= 0.00E+00 SK= 0.00E+00
   1477 T=   233. E= -.70110690E+03 F= -.70544127E+03 E0= -.70544127E+03  EK= 0.43344E+01 SP= 0.00E+00 SK= 0.00E+00
   1478 T=   230. E= -.70112694E+03 F= -.70540077E+03 E0= -.70540077E+03  EK= 0.42738E+01 SP= 0.00E+00 SK= 0.00E+00
   1479 T=   235. E= -.70108754E+03 F= -.70545355E+03 E0= -.70545355E+03  EK= 0.43660E+01 SP= 0.00E+00 SK= 0.00E+00
   1480 T=   241. E= -.70107516E+03 F= -.70556462E+03 E0= -.70556462E+03  EK= 0.44895E+01 SP= 0.00E+00 SK= 0.00E+00
       N       E                     dE             d eps       ncg     rms          rms(c)
DAV:   1    -0.693357535719E+03    0.38211E+01   -0.18730E+03 12190   0.979E+01
DAV:   2    -0.698072830702E+03   -0.47153E+01   -0.47141E+01 14404   0.141E+01
DAV:   3    -0.698121891944E+03   -0.49061E-01   -0.49059E-01 14716   0.147E+00
DAV:   4    -0.698122967945E+03   -0.10760E-02   -0.10760E-02 14452   0.208E-01    0.870E+00
DAV:   5    -0.697397310417E+03    0.72566E+00   -0.15337E+00 14820   0.375E+00    0.468E+00
DAV:   6    -0.697332041228E+03    0.65269E-01   -0.98860E-01 14604   0.257E+00    0.151E+00
DAV:   7    -0.697342657482E+03   -0.10616E-01   -0.20513E-01 14452   0.138E+00    0.529E-01
DAV:   8    -0.697339764549E+03    0.28929E-02   -0.26810E-02 14356   0.473E-01    0.278E-01
DAV:   9    -0.697337295555E+03    0.24690E-02   -0.11128E-02 13852   0.271E-01    0.152E-01
DAV:  10    -0.697335987801E+03    0.13078E-02   -0.21179E-03 16980   0.196E-01    0.557E-02
DAV:  11    -0.697335547722E+03    0.44008E-03   -0.14070E-03 14044   0.122E-01    0.534E-02
DAV:  12    -0.697335234977E+03    0.31274E-03   -0.23137E-04 11372   0.741E-02    0.236E-02
DAV:  13    -0.697335044799E+03    0.19018E-03   -0.26147E-04 11172   0.868E-02    0.239E-02
DAV:  14    -0.697335023827E+03    0.20973E-04   -0.20783E-04 11076   0.503E-02
   1481 T=   242. E= -.70115969E+03 F= -.70565793E+03 E0= -.70565793E+03  EK= 0.44982E+01 SP= 0.00E+00 SK= 0.00E+00
   1482 T=   244. E= -.70114933E+03 F= -.70568394E+03 E0= -.70568394E+03  EK= 0.45346E+01 SP= 0.00E+00 SK= 0.00E+00
   1483 T=   245. E= -.70109847E+03 F= -.70566752E+03 E0= -.70566752E+03  EK= 0.45691E+01 SP= 0.00E+00 SK= 0.00E+00
   1484 T=   249. E= -.70101183E+03 F= -.70565491E+03 E0= -.70565491E+03  EK= 0.46431E+01 SP= 0.00E+00 SK= 0.00E+00
   1485 T=   252. E= -.70096836E+03 F= -.70566650E+03 E0= -.70566650E+03  EK= 0.46981E+01 SP= 0.00E+00 SK= 0.00E+00
   1486 T=   251. E= -.70099675E+03 F= -.70567626E+03 E0= -.70567626E+03  EK= 0.46795E+01 SP= 0.00E+00 SK= 0.00E+00
   1487 T=   250. E= -.70099220E+03 F= -.70564154E+03 E0= -.70564154E+03  EK= 0.46493E+01 SP= 0.00E+00 SK= 0.00E+00
   1488 T=   244. E= -.70097830E+03 F= -.70551937E+03 E0= -.70551937E+03  EK= 0.45411E+01 SP= 0.00E+00 SK= 0.00E+00
   1489 T=   231. E= -.70107135E+03 F= -.70537734E+03 E0= -.70537734E+03  EK= 0.43060E+01 SP= 0.00E+00 SK= 0.00E+00
   1490 T=   222. E= -.70115827E+03 F= -.70528937E+03 E0= -.70528937E+03  EK= 0.41311E+01 SP= 0.00E+00 SK= 0.00E+00
       N       E                     dE             d eps       ncg     rms          rms(c)
DAV:   1    -0.692598476557E+03    0.47366E+01   -0.19388E+03 12190   0.994E+01
DAV:   2    -0.697575250326E+03   -0.49768E+01   -0.49754E+01 14404   0.145E+01
DAV:   3    -0.697628409606E+03   -0.53159E-01   -0.53156E-01 14628   0.152E+00
DAV:   4    -0.697629666272E+03   -0.12567E-02   -0.12566E-02 14444   0.220E-01    0.851E+00
DAV:   5    -0.696934036144E+03    0.69563E+00   -0.14460E+00 15380   0.389E+00    0.461E+00
DAV:   6    -0.696887761141E+03    0.46275E-01   -0.10978E+00 14612   0.281E+00    0.147E+00
DAV:   7    -0.696897803622E+03   -0.10042E-01   -0.21477E-01 14196   0.139E+00    0.506E-01
DAV:   8    -0.696894969491E+03    0.28341E-02   -0.23726E-02 14396   0.460E-01    0.274E-01
DAV:   9    -0.696892209437E+03    0.27601E-02   -0.12798E-02 13972   0.345E-01    0.175E-01
DAV:  10    -0.696890664557E+03    0.15449E-02   -0.32222E-03 16740   0.232E-01    0.616E-02
DAV:  11    -0.696890153021E+03    0.51154E-03   -0.16553E-03 14148   0.141E-01    0.515E-02
DAV:  12    -0.696889739931E+03    0.41309E-03   -0.27328E-04 11580   0.115E-01    0.246E-02
DAV:  13    -0.696889554434E+03    0.18550E-03   -0.31390E-04 12404   0.108E-01    0.217E-02
DAV:  14    -0.696889551054E+03    0.33799E-05   -0.33030E-04 12796   0.552E-02
   1491 T=   216. E= -.70118854E+03 F= -.70520433E+03 E0= -.70520433E+03  EK= 0.40158E+01 SP= 0.00E+00 SK= 0.00E+00
   1492 T=   213. E= -.70119370E+03 F= -.70515494E+03 E0= -.70515494E+03  EK= 0.39612E+01 SP= 0.00E+00 SK= 0.00E+00
   1493 T=   215. E= -.70119202E+03 F= -.70518886E+03 E0= -.70518886E+03  EK= 0.39968E+01 SP= 0.00E+00 SK= 0.00E+00
   1494 T=   218. E= -.70117775E+03 F= -.70524131E+03 E0= -.70524131E+03  EK= 0.40636E+01 SP= 0.00E+00 SK= 0.00E+00
   1495 T=   221. E= -.70116126E+03 F= -.70527997E+03 E0= -.70527997E+03  EK= 0.41187E+01 SP= 0.00E+00 SK= 0.00E+00
   1496 T=   224. E= -.70112716E+03 F= -.70529576E+03 E0= -.70529576E+03  EK= 0.41686E+01 SP= 0.00E+00 SK= 0.00E+00
   1497 T=   224. E= -.70106905E+03 F= -.70524487E+03 E0= -.70524487E+03  EK= 0.41758E+01 SP= 0.00E+00 SK= 0.00E+00
   1498 T=   223. E= -.70101242E+03 F= -.70516596E+03 E0= -.70516596E+03  EK= 0.41535E+01 SP= 0.00E+00 SK= 0.00E+00
   1499 T=   224. E= -.70096292E+03 F= -.70513341E+03 E0= -.70513341E+03  EK= 0.41705E+01 SP= 0.00E+00 SK= 0.00E+00
   1500 T=   226. E= -.70100743E+03 F= -.70520898E+03 E0= -.70520898E+03  EK= 0.42016E+01 SP= 0.00E+00 SK= 0.00E+00
   1501 T=   230. E= -.70106795E+03 F= -.70535801E+03 E0= -.70535801E+03  EK= 0.42901E+01 SP= 0.00E+00 SK= 0.00E+00
   1502 T=   237. E= -.70108470E+03 F= -.70548836E+03 E0= -.70548836E+03  EK= 0.44037E+01 SP= 0.00E+00 SK= 0.00E+00
   1503 T=   239. E= -.70106515E+03 F= -.70551332E+03 E0= -.70551332E+03  EK= 0.44482E+01 SP= 0.00E+00 SK= 0.00E+00
   1504 T=   236. E= -.70104318E+03 F= -.70542673E+03 E0= -.70542673E+03  EK= 0.43835E+01 SP= 0.00E+00 SK= 0.00E+00
   1505 T=   231. E= -.70098707E+03 F= -.70528737E+03 E0= -.70528737E+03  EK= 0.43003E+01 SP= 0.00E+00 SK= 0.00E+00
   1506 T=   229. E= -.70095281E+03 F= -.70520992E+03 E0= -.70520992E+03  EK= 0.42571E+01 SP= 0.00E+00 SK= 0.00E+00
   1507 T=   227. E= -.70098166E+03 F= -.70520943E+03 E0= -.70520943E+03  EK= 0.42278E+01 SP= 0.00E+00 SK= 0.00E+00
   1508 T=   230. E= -.70099934E+03 F= -.70528003E+03 E0= -.70528003E+03  EK= 0.42807E+01 SP= 0.00E+00 SK= 0.00E+00
   1509 T=   234. E= -.70098667E+03 F= -.70534226E+03 E0= -.70534226E+03  EK= 0.43556E+01 SP= 0.00E+00 SK= 0.00E+00
   1510 T=   232. E= -.70103186E+03 F= -.70535790E+03 E0= -.70535790E+03  EK= 0.43260E+01 SP= 0.00E+00 SK= 0.00E+00
   1511 T=   224. E= -.70112544E+03 F= -.70528836E+03 E0= -.70528836E+03  EK= 0.41629E+01 SP= 0.00E+00 SK= 0.00E+00
   1512 T=   218. E= -.70115651E+03 F= -.70521265E+03 E0= -.70521265E+03  EK= 0.40561E+01 SP= 0.00E+00 SK= 0.00E+00
   1513 T=   212. E= -.70120313E+03 F= -.70514219E+03 E0= -.70514219E+03  EK= 0.39391E+01 SP= 0.00E+00 SK= 0.00E+00
       N       E                     dE             d eps       ncg     rms          rms(c)
DAV:   1    -0.674342272242E+03    0.22547E+02   -0.62334E+03 12190   0.176E+02
DAV:   2    -0.698407500059E+03   -0.24065E+02   -0.24052E+02 14348   0.305E+01
DAV:   3    -0.698670733607E+03   -0.26323E+00   -0.26320E+00 14636   0.343E+00
DAV:   4    -0.698676213073E+03   -0.54795E-02   -0.54791E-02 14412   0.468E-01    0.140E+01
DAV:   5    -0.696946679704E+03    0.17295E+01   -0.30049E+00 14924   0.530E+00    0.788E+00
DAV:   6    -0.696764986844E+03    0.18169E+00   -0.30608E+00 14588   0.460E+00    0.202E+00
DAV:   7    -0.696805668395E+03   -0.40682E-01   -0.52231E-01 13876   0.194E+00    0.844E-01
DAV:   8    -0.696800333229E+03    0.53352E-02   -0.56402E-02 14156   0.565E-01    0.443E-01
DAV:   9    -0.696795030544E+03    0.53027E-02   -0.16533E-02 13740   0.421E-01    0.212E-01
DAV:  10    -0.696792267662E+03    0.27629E-02   -0.41227E-03 14324   0.254E-01    0.843E-02
DAV:  11    -0.696791658881E+03    0.60878E-03   -0.29824E-03 14692   0.165E-01    0.669E-02
DAV:  12    -0.696791196961E+03    0.46192E-03   -0.56516E-04 13372   0.928E-02    0.272E-02
DAV:  13    -0.696790899881E+03    0.29708E-03   -0.20672E-04 10548   0.101E-01    0.242E-02
DAV:  14    -0.696790870927E+03    0.28955E-04   -0.31809E-04 12660   0.618E-02
   1514 T=   211. E= -.70120341E+03 F= -.70513171E+03 E0= -.70513171E+03  EK= 0.39283E+01 SP= 0.00E+00 SK= 0.00E+00
   1515 T=   215. E= -.70124281E+03 F= -.70524424E+03 E0= -.70524424E+03  EK= 0.40014E+01 SP= 0.00E+00 SK= 0.00E+00
   1516 T=   219. E= -.70130739E+03 F= -.70539129E+03 E0= -.70539129E+03  EK= 0.40839E+01 SP= 0.00E+00 SK= 0.00E+00
   1517 T=   224. E= -.70137577E+03 F= -.70553792E+03 E0= -.70553792E+03  EK= 0.41622E+01 SP= 0.00E+00 SK= 0.00E+00
   1518 T=   224. E= -.70144585E+03 F= -.70561858E+03 E0= -.70561858E+03  EK= 0.41727E+01 SP= 0.00E+00 SK= 0.00E+00
   1519 T=   222. E= -.70150681E+03 F= -.70563633E+03 E0= -.70563633E+03  EK= 0.41295E+01 SP= 0.00E+00 SK= 0.00E+00
   1520 T=   215. E= -.70158072E+03 F= -.70557811E+03 E0= -.70557811E+03  EK= 0.39974E+01 SP= 0.00E+00 SK= 0.00E+00
   1521 T=   208. E= -.70165561E+03 F= -.70552451E+03 E0= -.70552451E+03  EK= 0.38689E+01 SP= 0.00E+00 SK= 0.00E+00
   1522 T=   204. E= -.70173172E+03 F= -.70552932E+03 E0= -.70552932E+03  EK= 0.37976E+01 SP= 0.00E+00 SK= 0.00E+00
   1523 T=   204. E= -.70178492E+03 F= -.70558159E+03 E0= -.70558159E+03  EK= 0.37967E+01 SP= 0.00E+00 SK= 0.00E+00
       N       E                     dE             d eps       ncg     rms          rms(c)
DAV:   1    -0.693551639417E+03    0.32393E+01   -0.17587E+03 12190   0.949E+01
DAV:   2    -0.698043512389E+03   -0.44919E+01   -0.44908E+01 14524   0.138E+01
DAV:   3    -0.698090333565E+03   -0.46821E-01   -0.46819E-01 14644   0.145E+00
DAV:   4    -0.698091414180E+03   -0.10806E-02   -0.10806E-02 14436   0.209E-01    0.814E+00
DAV:   5    -0.697423255497E+03    0.66816E+00   -0.12663E+00 15220   0.348E+00    0.441E+00
DAV:   6    -0.697358763961E+03    0.64492E-01   -0.10148E+00 14596   0.259E+00    0.135E+00
DAV:   7    -0.697366708974E+03   -0.79450E-02   -0.19017E-01 14044   0.130E+00    0.490E-01
DAV:   8    -0.697364252697E+03    0.24563E-02   -0.22150E-02 13860   0.412E-01    0.263E-01
DAV:   9    -0.697361789306E+03    0.24634E-02   -0.10130E-02 13716   0.275E-01    0.155E-01
DAV:  10    -0.697360441364E+03    0.13479E-02   -0.22538E-03 17124   0.196E-01    0.493E-02
DAV:  11    -0.697360083545E+03    0.35782E-03   -0.11434E-03 13996   0.102E-01    0.411E-02
DAV:  12    -0.697359761234E+03    0.32231E-03   -0.14049E-04  9884   0.744E-02    0.167E-02
DAV:  13    -0.697359664497E+03    0.96737E-04   -0.27682E-04 11540   0.692E-02
   1524 T=   208. E= -.70181712E+03 F= -.70568954E+03 E0= -.70568954E+03  EK= 0.38724E+01 SP= 0.00E+00 SK= 0.00E+00
   1525 T=   208. E= -.70189837E+03 F= -.70577379E+03 E0= -.70577379E+03  EK= 0.38754E+01 SP= 0.00E+00 SK= 0.00E+00
   1526 T=   208. E= -.70196103E+03 F= -.70582872E+03 E0= -.70582872E+03  EK= 0.38677E+01 SP= 0.00E+00 SK= 0.00E+00
   1527 T=   211. E= -.70192750E+03 F= -.70586372E+03 E0= -.70586372E+03  EK= 0.39362E+01 SP= 0.00E+00 SK= 0.00E+00
   1528 T=   213. E= -.70188928E+03 F= -.70586204E+03 E0= -.70586204E+03  EK= 0.39728E+01 SP= 0.00E+00 SK= 0.00E+00
   1529 T=   215. E= -.70182717E+03 F= -.70582068E+03 E0= -.70582068E+03  EK= 0.39935E+01 SP= 0.00E+00 SK= 0.00E+00
   1530 T=   213. E= -.70180506E+03 F= -.70577191E+03 E0= -.70577191E+03  EK= 0.39669E+01 SP= 0.00E+00 SK= 0.00E+00
   1531 T=   210. E= -.70184562E+03 F= -.70575062E+03 E0= -.70575062E+03  EK= 0.39050E+01 SP= 0.00E+00 SK= 0.00E+00
   1532 T=   213. E= -.70180295E+03 F= -.70576312E+03 E0= -.70576312E+03  EK= 0.39602E+01 SP= 0.00E+00 SK= 0.00E+00
   1533 T=   218. E= -.70175291E+03 F= -.70580313E+03 E0= -.70580313E+03  EK= 0.40502E+01 SP= 0.00E+00 SK= 0.00E+00
       N       E                     dE             d eps       ncg     rms          rms(c)
DAV:   1    -0.693587784507E+03    0.37720E+01   -0.18333E+03 12190   0.962E+01
DAV:   2    -0.698325648196E+03   -0.47379E+01   -0.47367E+01 14468   0.141E+01
DAV:   3    -0.698371938930E+03   -0.46291E-01   -0.46288E-01 14620   0.144E+00
DAV:   4    -0.698372955018E+03   -0.10161E-02   -0.10161E-02 14444   0.205E-01    0.804E+00
DAV:   5    -0.697655706142E+03    0.71725E+00   -0.13226E+00 15516   0.357E+00    0.436E+00
DAV:   6    -0.697576015512E+03    0.79691E-01   -0.11373E+00 14652   0.275E+00    0.131E+00
DAV:   7    -0.697582884660E+03   -0.68691E-02   -0.19807E-01 13748   0.128E+00    0.467E-01
DAV:   8    -0.697579829682E+03    0.30550E-02   -0.18850E-02 14196   0.405E-01    0.247E-01
DAV:   9    -0.697577487629E+03    0.23421E-02   -0.10410E-02 13340   0.279E-01    0.158E-01
DAV:  10    -0.697576258804E+03    0.12288E-02   -0.21228E-03 16020   0.176E-01    0.487E-02
DAV:  11    -0.697575954601E+03    0.30420E-03   -0.91815E-04 13828   0.864E-02    0.314E-02
DAV:  12    -0.697575733558E+03    0.22104E-03   -0.95307E-05  9564   0.604E-02    0.152E-02
DAV:  13    -0.697575660133E+03    0.73424E-04   -0.18507E-04 10580   0.608E-02
   1534 T=   223. E= -.70175489E+03 F= -.70589743E+03 E0= -.70589743E+03  EK= 0.41425E+01 SP= 0.00E+00 SK= 0.00E+00
   1535 T=   225. E= -.70171990E+03 F= -.70590182E+03 E0= -.70590182E+03  EK= 0.41819E+01 SP= 0.00E+00 SK= 0.00E+00
   1536 T=   222. E= -.70172929E+03 F= -.70586563E+03 E0= -.70586563E+03  EK= 0.41363E+01 SP= 0.00E+00 SK= 0.00E+00
   1537 T=   220. E= -.70168562E+03 F= -.70578583E+03 E0= -.70578583E+03  EK= 0.41002E+01 SP= 0.00E+00 SK= 0.00E+00
   1538 T=   215. E= -.70167780E+03 F= -.70568841E+03 E0= -.70568841E+03  EK= 0.40106E+01 SP= 0.00E+00 SK= 0.00E+00
   1539 T=   213. E= -.70164946E+03 F= -.70561392E+03 E0= -.70561392E+03  EK= 0.39645E+01 SP= 0.00E+00 SK= 0.00E+00
   1540 T=   214. E= -.70161121E+03 F= -.70559469E+03 E0= -.70559469E+03  EK= 0.39835E+01 SP= 0.00E+00 SK= 0.00E+00
   1541 T=   215. E= -.70161727E+03 F= -.70561338E+03 E0= -.70561338E+03  EK= 0.39961E+01 SP= 0.00E+00 SK= 0.00E+00
   1542 T=   223. E= -.70152602E+03 F= -.70566763E+03 E0= -.70566763E+03  EK= 0.41416E+01 SP= 0.00E+00 SK= 0.00E+00
   1543 T=   228. E= -.70148047E+03 F= -.70572305E+03 E0= -.70572305E+03  EK= 0.42426E+01 SP= 0.00E+00 SK= 0.00E+00
   1544 T=   224. E= -.70155993E+03 F= -.70573446E+03 E0= -.70573446E+03  EK= 0.41745E+01 SP= 0.00E+00 SK= 0.00E+00
   1545 T=   221. E= -.70157888E+03 F= -.70568971E+03 E0= -.70568971E+03  EK= 0.41108E+01 SP= 0.00E+00 SK= 0.00E+00
   1546 T=   218. E= -.70154058E+03 F= -.70560528E+03 E0= -.70560528E+03  EK= 0.40647E+01 SP= 0.00E+00 SK= 0.00E+00
   1547 T=   222. E= -.70143881E+03 F= -.70557154E+03 E0= -.70557154E+03  EK= 0.41327E+01 SP= 0.00E+00 SK= 0.00E+00
   1548 T=   226. E= -.70141327E+03 F= -.70561088E+03 E0= -.70561088E+03  EK= 0.41976E+01 SP= 0.00E+00 SK= 0.00E+00
   1549 T=   230. E= -.70140079E+03 F= -.70568231E+03 E0= -.70568231E+03  EK= 0.42815E+01 SP= 0.00E+00 SK= 0.00E+00
   1550 T=   234. E= -.70139563E+03 F= -.70575040E+03 E0= -.70575040E+03  EK= 0.43548E+01 SP= 0.00E+00 SK= 0.00E+00
   1551 T=   227. E= -.70152531E+03 F= -.70575824E+03 E0= -.70575824E+03  EK= 0.42329E+01 SP= 0.00E+00 SK= 0.00E+00
   1552 T=   225. E= -.70152563E+03 F= -.70570514E+03 E0= -.70570514E+03  EK= 0.41795E+01 SP= 0.00E+00 SK= 0.00E+00
   1553 T=   226. E= -.70138846E+03 F= -.70558850E+03 E0= -.70558850E+03  EK= 0.42000E+01 SP= 0.00E+00 SK= 0.00E+00
   1554 T=   224. E= -.70132792E+03 F= -.70549006E+03 E0= -.70549006E+03  EK= 0.41621E+01 SP= 0.00E+00 SK= 0.00E+00
   1555 T=   224. E= -.70127796E+03 F= -.70544554E+03 E0= -.70544554E+03  EK= 0.41676E+01 SP= 0.00E+00 SK= 0.00E+00
   1556 T=   228. E= -.70121003E+03 F= -.70545126E+03 E0= -.70545126E+03  EK= 0.42412E+01 SP= 0.00E+00 SK= 0.00E+00
   1557 T=   228. E= -.70121817E+03 F= -.70546371E+03 E0= -.70546371E+03  EK= 0.42455E+01 SP= 0.00E+00 SK= 0.00E+00
   1558 T=   226. E= -.70123809E+03 F= -.70543605E+03 E0= -.70543605E+03  EK= 0.41980E+01 SP= 0.00E+00 SK= 0.00E+00
   1559 T=   224. E= -.70121363E+03 F= -.70537468E+03 E0= -.70537468E+03  EK= 0.41610E+01 SP= 0.00E+00 SK= 0.00E+00
   1560 T=   223. E= -.70116604E+03 F= -.70531581E+03 E0= -.70531581E+03  EK= 0.41498E+01 SP= 0.00E+00 SK= 0.00E+00
   1561 T=   222. E= -.70117584E+03 F= -.70529994E+03 E0= -.70529994E+03  EK= 0.41241E+01 SP= 0.00E+00 SK= 0.00E+00
   1562 T=   220. E= -.70123324E+03 F= -.70532213E+03 E0= -.70532213E+03  EK= 0.40889E+01 SP= 0.00E+00 SK= 0.00E+00
   1563 T=   219. E= -.70129041E+03 F= -.70537328E+03 E0= -.70537328E+03  EK= 0.40829E+01 SP= 0.00E+00 SK= 0.00E+00
   1564 T=   222. E= -.70129415E+03 F= -.70541855E+03 E0= -.70541855E+03  EK= 0.41244E+01 SP= 0.00E+00 SK= 0.00E+00
   1565 T=   224. E= -.70126243E+03 F= -.70543151E+03 E0= -.70543151E+03  EK= 0.41691E+01 SP= 0.00E+00 SK= 0.00E+00
   1566 T=   226. E= -.70122949E+03 F= -.70543476E+03 E0= -.70543476E+03  EK= 0.42053E+01 SP= 0.00E+00 SK= 0.00E+00
   1567 T=   229. E= -.70121790E+03 F= -.70548465E+03 E0= -.70548465E+03  EK= 0.42668E+01 SP= 0.00E+00 SK= 0.00E+00
   1568 T=   231. E= -.70122140E+03 F= -.70552759E+03 E0= -.70552759E+03  EK= 0.43062E+01 SP= 0.00E+00 SK= 0.00E+00
   1569 T=   232. E= -.70121673E+03 F= -.70554079E+03 E0= -.70554079E+03  EK= 0.43241E+01 SP= 0.00E+00 SK= 0.00E+00
   1570 T=   232. E= -.70126166E+03 F= -.70557453E+03 E0= -.70557453E+03  EK= 0.43129E+01 SP= 0.00E+00 SK= 0.00E+00
   1571 T=   237. E= -.70126112E+03 F= -.70567465E+03 E0= -.70567465E+03  EK= 0.44135E+01 SP= 0.00E+00 SK= 0.00E+00
   1572 T=   243. E= -.70127879E+03 F= -.70581009E+03 E0= -.70581009E+03  EK= 0.45313E+01 SP= 0.00E+00 SK= 0.00E+00
   1573 T=   244. E= -.70138293E+03 F= -.70593392E+03 E0= -.70593392E+03  EK= 0.45510E+01 SP= 0.00E+00 SK= 0.00E+00
   1574 T=   238. E= -.70152653E+03 F= -.70596368E+03 E0= -.70596368E+03  EK= 0.44372E+01 SP= 0.00E+00 SK= 0.00E+00
   1575 T=   230. E= -.70163887E+03 F= -.70591549E+03 E0= -.70591549E+03  EK= 0.42766E+01 SP= 0.00E+00 SK= 0.00E+00
   1576 T=   225. E= -.70165220E+03 F= -.70584325E+03 E0= -.70584325E+03  EK= 0.41911E+01 SP= 0.00E+00 SK= 0.00E+00
   1577 T=   228. E= -.70160678E+03 F= -.70585032E+03 E0= -.70585032E+03  EK= 0.42435E+01 SP= 0.00E+00 SK= 0.00E+00
   1578 T=   235. E= -.70157187E+03 F= -.70593791E+03 E0= -.70593791E+03  EK= 0.43660E+01 SP= 0.00E+00 SK= 0.00E+00
   1579 T=   239. E= -.70155609E+03 F= -.70600922E+03 E0= -.70600922E+03  EK= 0.44531E+01 SP= 0.00E+00 SK= 0.00E+00
   1580 T=   243. E= -.70150002E+03 F= -.70601743E+03 E0= -.70601743E+03  EK= 0.45174E+01 SP= 0.00E+00 SK= 0.00E+00
   1581 T=   241. E= -.70149598E+03 F= -.70597612E+03 E0= -.70597612E+03  EK= 0.44801E+01 SP= 0.00E+00 SK= 0.00E+00
   1582 T=   237. E= -.70153382E+03 F= -.70594309E+03 E0= -.70594309E+03  EK= 0.44093E+01 SP= 0.00E+00 SK= 0.00E+00
   1583 T=   237. E= -.70154132E+03 F= -.70594683E+03 E0= -.70594683E+03  EK= 0.44055E+01 SP= 0.00E+00 SK= 0.00E+00
   1584 T=   234. E= -.70156538E+03 F= -.70592613E+03 E0= -.70592613E+03  EK= 0.43608E+01 SP= 0.00E+00 SK= 0.00E+00
   1585 T=   235. E= -.70153676E+03 F= -.70591891E+03 E0= -.70591891E+03  EK= 0.43822E+01 SP= 0.00E+00 SK= 0.00E+00
   1586 T=   238. E= -.70147977E+03 F= -.70591025E+03 E0= -.70591025E+03  EK= 0.44305E+01 SP= 0.00E+00 SK= 0.00E+00
   1587 T=   239. E= -.70145500E+03 F= -.70589501E+03 E0= -.70589501E+03  EK= 0.44400E+01 SP= 0.00E+00 SK= 0.00E+00
   1588 T=   235. E= -.70149044E+03 F= -.70586659E+03 E0= -.70586659E+03  EK= 0.43761E+01 SP= 0.00E+00 SK= 0.00E+00
   1589 T=   229. E= -.70154396E+03 F= -.70581354E+03 E0= -.70581354E+03  EK= 0.42696E+01 SP= 0.00E+00 SK= 0.00E+00
   1590 T=   225. E= -.70152343E+03 F= -.70572025E+03 E0= -.70572025E+03  EK= 0.41968E+01 SP= 0.00E+00 SK= 0.00E+00
   1591 T=   222. E= -.70149548E+03 F= -.70562190E+03 E0= -.70562190E+03  EK= 0.41264E+01 SP= 0.00E+00 SK= 0.00E+00
   1592 T=   216. E= -.70153192E+03 F= -.70556013E+03 E0= -.70556013E+03  EK= 0.40282E+01 SP= 0.00E+00 SK= 0.00E+00
   1593 T=   214. E= -.70155563E+03 F= -.70553806E+03 E0= -.70553806E+03  EK= 0.39824E+01 SP= 0.00E+00 SK= 0.00E+00
   1594 T=   212. E= -.70157715E+03 F= -.70553235E+03 E0= -.70553235E+03  EK= 0.39552E+01 SP= 0.00E+00 SK= 0.00E+00
   1595 T=   210. E= -.70157461E+03 F= -.70548808E+03 E0= -.70548808E+03  EK= 0.39135E+01 SP= 0.00E+00 SK= 0.00E+00
   1596 T=   209. E= -.70153864E+03 F= -.70543502E+03 E0= -.70543502E+03  EK= 0.38964E+01 SP= 0.00E+00 SK= 0.00E+00
   1597 T=   208. E= -.70151831E+03 F= -.70538903E+03 E0= -.70538903E+03  EK= 0.38707E+01 SP= 0.00E+00 SK= 0.00E+00
   1598 T=   207. E= -.70151670E+03 F= -.70537529E+03 E0= -.70537529E+03  EK= 0.38586E+01 SP= 0.00E+00 SK= 0.00E+00
   1599 T=   208. E= -.70152554E+03 F= -.70539176E+03 E0= -.70539176E+03  EK= 0.38662E+01 SP= 0.00E+00 SK= 0.00E+00
   1600 T=   208. E= -.70154810E+03 F= -.70542610E+03 E0= -.70542610E+03  EK= 0.38780E+01 SP= 0.00E+00 SK= 0.00E+00
   1601 T=   207. E= -.70159703E+03 F= -.70544639E+03 E0= -.70544639E+03  EK= 0.38494E+01 SP= 0.00E+00 SK= 0.00E+00
   1602 T=   207. E= -.70159664E+03 F= -.70544915E+03 E0= -.70544915E+03  EK= 0.38525E+01 SP= 0.00E+00 SK= 0.00E+00
   1603 T=   205. E= -.70162922E+03 F= -.70543867E+03 E0= -.70543867E+03  EK= 0.38094E+01 SP= 0.00E+00 SK= 0.00E+00
   1604 T=   199. E= -.70167806E+03 F= -.70539137E+03 E0= -.70539137E+03  EK= 0.37133E+01 SP= 0.00E+00 SK= 0.00E+00
   1605 T=   195. E= -.70167459E+03 F= -.70531300E+03 E0= -.70531300E+03  EK= 0.36384E+01 SP= 0.00E+00 SK= 0.00E+00
   1606 T=   192. E= -.70168247E+03 F= -.70526471E+03 E0= -.70526471E+03  EK= 0.35822E+01 SP= 0.00E+00 SK= 0.00E+00
   1607 T=   193. E= -.70168616E+03 F= -.70526967E+03 E0= -.70526967E+03  EK= 0.35835E+01 SP= 0.00E+00 SK= 0.00E+00
   1608 T=   196. E= -.70169067E+03 F= -.70534719E+03 E0= -.70534719E+03  EK= 0.36565E+01 SP= 0.00E+00 SK= 0.00E+00
   1609 T=   197. E= -.70177687E+03 F= -.70544704E+03 E0= -.70544704E+03  EK= 0.36702E+01 SP= 0.00E+00 SK= 0.00E+00
   1610 T=   198. E= -.70184367E+03 F= -.70552257E+03 E0= -.70552257E+03  EK= 0.36789E+01 SP= 0.00E+00 SK= 0.00E+00
   1611 T=   197. E= -.70188703E+03 F= -.70556171E+03 E0= -.70556171E+03  EK= 0.36747E+01 SP= 0.00E+00 SK= 0.00E+00
   1612 T=   196. E= -.70191853E+03 F= -.70556727E+03 E0= -.70556727E+03  EK= 0.36487E+01 SP= 0.00E+00 SK= 0.00E+00
   1613 T=   195. E= -.70194385E+03 F= -.70558101E+03 E0= -.70558101E+03  EK= 0.36372E+01 SP= 0.00E+00 SK= 0.00E+00
   1614 T=   196. E= -.70198469E+03 F= -.70563263E+03 E0= -.70563263E+03  EK= 0.36479E+01 SP= 0.00E+00 SK= 0.00E+00
   1615 T=   202. E= -.70200389E+03 F= -.70575886E+03 E0= -.70575886E+03  EK= 0.37550E+01 SP= 0.00E+00 SK= 0.00E+00
   1616 T=   207. E= -.70205931E+03 F= -.70592135E+03 E0= -.70592135E+03  EK= 0.38620E+01 SP= 0.00E+00 SK= 0.00E+00
   1617 T=   213. E= -.70207308E+03 F= -.70604391E+03 E0= -.70604391E+03  EK= 0.39708E+01 SP= 0.00E+00 SK= 0.00E+00
   1618 T=   222. E= -.70199903E+03 F= -.70613956E+03 E0= -.70613956E+03  EK= 0.41405E+01 SP= 0.00E+00 SK= 0.00E+00
   1619 T=   226. E= -.70197257E+03 F= -.70618578E+03 E0= -.70618578E+03  EK= 0.42132E+01 SP= 0.00E+00 SK= 0.00E+00
   1620 T=   229. E= -.70192564E+03 F= -.70619203E+03 E0= -.70619203E+03  EK= 0.42664E+01 SP= 0.00E+00 SK= 0.00E+00
   1621 T=   231. E= -.70186118E+03 F= -.70615649E+03 E0= -.70615649E+03  EK= 0.42953E+01 SP= 0.00E+00 SK= 0.00E+00
   1622 T=   229. E= -.70183240E+03 F= -.70609431E+03 E0= -.70609431E+03  EK= 0.42619E+01 SP= 0.00E+00 SK= 0.00E+00
   1623 T=   226. E= -.70181290E+03 F= -.70602511E+03 E0= -.70602511E+03  EK= 0.42122E+01 SP= 0.00E+00 SK= 0.00E+00
   1624 T=   227. E= -.70179722E+03 F= -.70601919E+03 E0= -.70601919E+03  EK= 0.42220E+01 SP= 0.00E+00 SK= 0.00E+00
   1625 T=   230. E= -.70182567E+03 F= -.70609843E+03 E0= -.70609843E+03  EK= 0.42728E+01 SP= 0.00E+00 SK= 0.00E+00
   1626 T=   235. E= -.70185865E+03 F= -.70622540E+03 E0= -.70622540E+03  EK= 0.43668E+01 SP= 0.00E+00 SK= 0.00E+00
   1627 T=   242. E= -.70181393E+03 F= -.70631227E+03 E0= -.70631227E+03  EK= 0.44983E+01 SP= 0.00E+00 SK= 0.00E+00
   1628 T=   242. E= -.70178108E+03 F= -.70628694E+03 E0= -.70628694E+03  EK= 0.45059E+01 SP= 0.00E+00 SK= 0.00E+00
   1629 T=   235. E= -.70179319E+03 F= -.70617259E+03 E0= -.70617259E+03  EK= 0.43794E+01 SP= 0.00E+00 SK= 0.00E+00
   1630 T=   227. E= -.70183181E+03 F= -.70605765E+03 E0= -.70605765E+03  EK= 0.42258E+01 SP= 0.00E+00 SK= 0.00E+00
   1631 T=   223. E= -.70185150E+03 F= -.70600991E+03 E0= -.70600991E+03  EK= 0.41584E+01 SP= 0.00E+00 SK= 0.00E+00
   1632 T=   224. E= -.70183699E+03 F= -.70600405E+03 E0= -.70600405E+03  EK= 0.41671E+01 SP= 0.00E+00 SK= 0.00E+00
   1633 T=   226. E= -.70180675E+03 F= -.70601937E+03 E0= -.70601937E+03  EK= 0.42126E+01 SP= 0.00E+00 SK= 0.00E+00
   1634 T=   230. E= -.70174715E+03 F= -.70603534E+03 E0= -.70603534E+03  EK= 0.42882E+01 SP= 0.00E+00 SK= 0.00E+00
   1635 T=   235. E= -.70167964E+03 F= -.70605843E+03 E0= -.70605843E+03  EK= 0.43788E+01 SP= 0.00E+00 SK= 0.00E+00
   1636 T=   243. E= -.70153852E+03 F= -.70607025E+03 E0= -.70607025E+03  EK= 0.45317E+01 SP= 0.00E+00 SK= 0.00E+00
   1637 T=   249. E= -.70140072E+03 F= -.70603761E+03 E0= -.70603761E+03  EK= 0.46369E+01 SP= 0.00E+00 SK= 0.00E+00
   1638 T=   242. E= -.70140237E+03 F= -.70591055E+03 E0= -.70591055E+03  EK= 0.45082E+01 SP= 0.00E+00 SK= 0.00E+00
   1639 T=   228. E= -.70144867E+03 F= -.70569252E+03 E0= -.70569252E+03  EK= 0.42439E+01 SP= 0.00E+00 SK= 0.00E+00
   1640 T=   216. E= -.70141836E+03 F= -.70544345E+03 E0= -.70544345E+03  EK= 0.40251E+01 SP= 0.00E+00 SK= 0.00E+00
   1641 T=   210. E= -.70135941E+03 F= -.70527127E+03 E0= -.70527127E+03  EK= 0.39119E+01 SP= 0.00E+00 SK= 0.00E+00
   1642 T=   212. E= -.70132394E+03 F= -.70526145E+03 E0= -.70526145E+03  EK= 0.39375E+01 SP= 0.00E+00 SK= 0.00E+00
   1643 T=   215. E= -.70132865E+03 F= -.70533462E+03 E0= -.70533462E+03  EK= 0.40060E+01 SP= 0.00E+00 SK= 0.00E+00
   1644 T=   216. E= -.70137601E+03 F= -.70539725E+03 E0= -.70539725E+03  EK= 0.40212E+01 SP= 0.00E+00 SK= 0.00E+00
   1645 T=   216. E= -.70135976E+03 F= -.70537129E+03 E0= -.70537129E+03  EK= 0.40115E+01 SP= 0.00E+00 SK= 0.00E+00
   1646 T=   213. E= -.70131649E+03 F= -.70527335E+03 E0= -.70527335E+03  EK= 0.39569E+01 SP= 0.00E+00 SK= 0.00E+00
   1647 T=   205. E= -.70132495E+03 F= -.70513612E+03 E0= -.70513612E+03  EK= 0.38112E+01 SP= 0.00E+00 SK= 0.00E+00
   1648 T=   204. E= -.70124887E+03 F= -.70503999E+03 E0= -.70503999E+03  EK= 0.37911E+01 SP= 0.00E+00 SK= 0.00E+00
   1649 T=   209. E= -.70113461E+03 F= -.70503317E+03 E0= -.70503317E+03  EK= 0.38986E+01 SP= 0.00E+00 SK= 0.00E+00
   1650 T=   216. E= -.70112571E+03 F= -.70514079E+03 E0= -.70514079E+03  EK= 0.40151E+01 SP= 0.00E+00 SK= 0.00E+00
   1651 T=   222. E= -.70119790E+03 F= -.70532547E+03 E0= -.70532547E+03  EK= 0.41276E+01 SP= 0.00E+00 SK= 0.00E+00
   1652 T=   230. E= -.70124857E+03 F= -.70553494E+03 E0= -.70553494E+03  EK= 0.42864E+01 SP= 0.00E+00 SK= 0.00E+00
   1653 T=   239. E= -.70122538E+03 F= -.70567467E+03 E0= -.70567467E+03  EK= 0.44493E+01 SP= 0.00E+00 SK= 0.00E+00
   1654 T=   244. E= -.70113906E+03 F= -.70568979E+03 E0= -.70568979E+03  EK= 0.45507E+01 SP= 0.00E+00 SK= 0.00E+00
   1655 T=   241. E= -.70108485E+03 F= -.70556300E+03 E0= -.70556300E+03  EK= 0.44781E+01 SP= 0.00E+00 SK= 0.00E+00
   1656 T=   228. E= -.70114762E+03 F= -.70539087E+03 E0= -.70539087E+03  EK= 0.42433E+01 SP= 0.00E+00 SK= 0.00E+00
   1657 T=   221. E= -.70114828E+03 F= -.70526388E+03 E0= -.70526388E+03  EK= 0.41156E+01 SP= 0.00E+00 SK= 0.00E+00
   1658 T=   223. E= -.70108519E+03 F= -.70523319E+03 E0= -.70523319E+03  EK= 0.41480E+01 SP= 0.00E+00 SK= 0.00E+00
   1659 T=   223. E= -.70110132E+03 F= -.70525602E+03 E0= -.70525602E+03  EK= 0.41547E+01 SP= 0.00E+00 SK= 0.00E+00
       N       E                     dE             d eps       ncg     rms          rms(c)
DAV:   1    -0.470475628979E+03    0.22710E+03   -0.24821E+04 12190   0.339E+02
DAV:   2    -0.697623198750E+03   -0.22715E+03   -0.22455E+03 14222   0.892E+01
DAV:   3    -0.702403190371E+03   -0.47800E+01   -0.47775E+01 14212   0.145E+01
DAV:   4    -0.702480951042E+03   -0.77761E-01   -0.77753E-01 14444   0.177E+00    0.250E+01
DAV:   5    -0.696953752254E+03    0.55272E+01   -0.11023E+01 13892   0.863E+00    0.141E+01
DAV:   6    -0.696740764469E+03    0.21299E+00   -0.91138E+00 14604   0.735E+00    0.397E+00
DAV:   7    -0.696992504704E+03   -0.25174E+00   -0.15417E+00 13828   0.323E+00    0.159E+00
DAV:   8    -0.696999699280E+03   -0.71946E-02   -0.14290E-01 13700   0.100E+00    0.694E-01
DAV:   9    -0.696997913326E+03    0.17860E-02   -0.39387E-02 13804   0.517E-01    0.262E-01
DAV:  10    -0.696996606762E+03    0.13066E-02   -0.59132E-03 15924   0.254E-01    0.955E-02
DAV:  11    -0.696996237778E+03    0.36898E-03   -0.25510E-03 14012   0.130E-01    0.689E-02
DAV:  12    -0.696995819441E+03    0.41834E-03   -0.55057E-04 13028   0.851E-02    0.294E-02
DAV:  13    -0.696995637117E+03    0.18232E-03   -0.25440E-04 10820   0.648E-02    0.286E-02
DAV:  14    -0.696995597965E+03    0.39151E-04   -0.15295E-04 10476   0.409E-02
   1660 T=   224. E= -.70113200E+03 F= -.70529226E+03 E0= -.70529226E+03  EK= 0.41603E+01 SP= 0.00E+00 SK= 0.00E+00
   1661 T=   222. E= -.70119440E+03 F= -.70532676E+03 E0= -.70532676E+03  EK= 0.41324E+01 SP= 0.00E+00 SK= 0.00E+00
   1662 T=   220. E= -.70122568E+03 F= -.70532948E+03 E0= -.70532948E+03  EK= 0.41038E+01 SP= 0.00E+00 SK= 0.00E+00
   1663 T=   219. E= -.70121815E+03 F= -.70530192E+03 E0= -.70530192E+03  EK= 0.40838E+01 SP= 0.00E+00 SK= 0.00E+00
   1664 T=   217. E= -.70119450E+03 F= -.70522913E+03 E0= -.70522913E+03  EK= 0.40346E+01 SP= 0.00E+00 SK= 0.00E+00
   1665 T=   210. E= -.70121550E+03 F= -.70513251E+03 E0= -.70513251E+03  EK= 0.39170E+01 SP= 0.00E+00 SK= 0.00E+00
   1666 T=   207. E= -.70122382E+03 F= -.70507394E+03 E0= -.70507394E+03  EK= 0.38501E+01 SP= 0.00E+00 SK= 0.00E+00
   1667 T=   211. E= -.70118062E+03 F= -.70510049E+03 E0= -.70510049E+03  EK= 0.39199E+01 SP= 0.00E+00 SK= 0.00E+00
   1668 T=   215. E= -.70118370E+03 F= -.70519258E+03 E0= -.70519258E+03  EK= 0.40089E+01 SP= 0.00E+00 SK= 0.00E+00
   1669 T=   222. E= -.70118307E+03 F= -.70531638E+03 E0= -.70531638E+03  EK= 0.41333E+01 SP= 0.00E+00 SK= 0.00E+00
   1670 T=   230. E= -.70115119E+03 F= -.70544087E+03 E0= -.70544087E+03  EK= 0.42897E+01 SP= 0.00E+00 SK= 0.00E+00
   1671 T=   233. E= -.70120026E+03 F= -.70553945E+03 E0= -.70553945E+03  EK= 0.43392E+01 SP= 0.00E+00 SK= 0.00E+00
   1672 T=   230. E= -.70127711E+03 F= -.70556095E+03 E0= -.70556095E+03  EK= 0.42838E+01 SP= 0.00E+00 SK= 0.00E+00
   1673 T=   227. E= -.70127480E+03 F= -.70550937E+03 E0= -.70550937E+03  EK= 0.42346E+01 SP= 0.00E+00 SK= 0.00E+00
   1674 T=   224. E= -.70126610E+03 F= -.70544104E+03 E0= -.70544104E+03  EK= 0.41749E+01 SP= 0.00E+00 SK= 0.00E+00
   1675 T=   223. E= -.70127003E+03 F= -.70541297E+03 E0= -.70541297E+03  EK= 0.41429E+01 SP= 0.00E+00 SK= 0.00E+00
   1676 T=   226. E= -.70127133E+03 F= -.70547230E+03 E0= -.70547230E+03  EK= 0.42010E+01 SP= 0.00E+00 SK= 0.00E+00
   1677 T=   229. E= -.70128851E+03 F= -.70555957E+03 E0= -.70555957E+03  EK= 0.42711E+01 SP= 0.00E+00 SK= 0.00E+00
   1678 T=   236. E= -.70126422E+03 F= -.70564803E+03 E0= -.70564803E+03  EK= 0.43838E+01 SP= 0.00E+00 SK= 0.00E+00
   1679 T=   242. E= -.70120816E+03 F= -.70572015E+03 E0= -.70572015E+03  EK= 0.45120E+01 SP= 0.00E+00 SK= 0.00E+00
   1680 T=   242. E= -.70119031E+03 F= -.70570391E+03 E0= -.70570391E+03  EK= 0.45136E+01 SP= 0.00E+00 SK= 0.00E+00
   1681 T=   234. E= -.70125533E+03 F= -.70560347E+03 E0= -.70560347E+03  EK= 0.43481E+01 SP= 0.00E+00 SK= 0.00E+00
   1682 T=   226. E= -.70127580E+03 F= -.70548289E+03 E0= -.70548289E+03  EK= 0.42071E+01 SP= 0.00E+00 SK= 0.00E+00
   1683 T=   224. E= -.70124381E+03 F= -.70541633E+03 E0= -.70541633E+03  EK= 0.41725E+01 SP= 0.00E+00 SK= 0.00E+00
   1684 T=   225. E= -.70126105E+03 F= -.70544726E+03 E0= -.70544726E+03  EK= 0.41862E+01 SP= 0.00E+00 SK= 0.00E+00
   1685 T=   234. E= -.70118521E+03 F= -.70553255E+03 E0= -.70553255E+03  EK= 0.43473E+01 SP= 0.00E+00 SK= 0.00E+00
   1686 T=   243. E= -.70110085E+03 F= -.70561472E+03 E0= -.70561472E+03  EK= 0.45139E+01 SP= 0.00E+00 SK= 0.00E+00
   1687 T=   245. E= -.70110703E+03 F= -.70566660E+03 E0= -.70566660E+03  EK= 0.45596E+01 SP= 0.00E+00 SK= 0.00E+00
   1688 T=   243. E= -.70113751E+03 F= -.70566391E+03 E0= -.70566391E+03  EK= 0.45264E+01 SP= 0.00E+00 SK= 0.00E+00
   1689 T=   237. E= -.70117554E+03 F= -.70559546E+03 E0= -.70559546E+03  EK= 0.44199E+01 SP= 0.00E+00 SK= 0.00E+00
   1690 T=   231. E= -.70121740E+03 F= -.70551628E+03 E0= -.70551628E+03  EK= 0.42989E+01 SP= 0.00E+00 SK= 0.00E+00
   1691 T=   224. E= -.70126321E+03 F= -.70542746E+03 E0= -.70542746E+03  EK= 0.41642E+01 SP= 0.00E+00 SK= 0.00E+00
   1692 T=   222. E= -.70128681E+03 F= -.70541330E+03 E0= -.70541330E+03  EK= 0.41265E+01 SP= 0.00E+00 SK= 0.00E+00
   1693 T=   225. E= -.70127535E+03 F= -.70546454E+03 E0= -.70546454E+03  EK= 0.41892E+01 SP= 0.00E+00 SK= 0.00E+00
   1694 T=   231. E= -.70127819E+03 F= -.70557854E+03 E0= -.70557854E+03  EK= 0.43004E+01 SP= 0.00E+00 SK= 0.00E+00
   1695 T=   236. E= -.70124269E+03 F= -.70563718E+03 E0= -.70563718E+03  EK= 0.43945E+01 SP= 0.00E+00 SK= 0.00E+00
   1696 T=   235. E= -.70122574E+03 F= -.70560160E+03 E0= -.70560160E+03  EK= 0.43759E+01 SP= 0.00E+00 SK= 0.00E+00
   1697 T=   231. E= -.70119348E+03 F= -.70548428E+03 E0= -.70548428E+03  EK= 0.42908E+01 SP= 0.00E+00 SK= 0.00E+00
   1698 T=   230. E= -.70113696E+03 F= -.70542002E+03 E0= -.70542002E+03  EK= 0.42831E+01 SP= 0.00E+00 SK= 0.00E+00
   1699 T=   235. E= -.70110193E+03 F= -.70546766E+03 E0= -.70546766E+03  EK= 0.43657E+01 SP= 0.00E+00 SK= 0.00E+00
   1700 T=   240. E= -.70109701E+03 F= -.70556961E+03 E0= -.70556961E+03  EK= 0.44726E+01 SP= 0.00E+00 SK= 0.00E+00
   1701 T=   248. E= -.70107286E+03 F= -.70569565E+03 E0= -.70569565E+03  EK= 0.46228E+01 SP= 0.00E+00 SK= 0.00E+00
   1702 T=   253. E= -.70105368E+03 F= -.70577082E+03 E0= -.70577082E+03  EK= 0.47171E+01 SP= 0.00E+00 SK= 0.00E+00
   1703 T=   254. E= -.70103685E+03 F= -.70577376E+03 E0= -.70577376E+03  EK= 0.47369E+01 SP= 0.00E+00 SK= 0.00E+00
   1704 T=   256. E= -.70099809E+03 F= -.70575469E+03 E0= -.70575469E+03  EK= 0.47566E+01 SP= 0.00E+00 SK= 0.00E+00
   1705 T=   249. E= -.70104321E+03 F= -.70568630E+03 E0= -.70568630E+03  EK= 0.46431E+01 SP= 0.00E+00 SK= 0.00E+00
   1706 T=   241. E= -.70111885E+03 F= -.70561225E+03 E0= -.70561225E+03  EK= 0.44934E+01 SP= 0.00E+00 SK= 0.00E+00
   1707 T=   235. E= -.70116879E+03 F= -.70554952E+03 E0= -.70554952E+03  EK= 0.43807E+01 SP= 0.00E+00 SK= 0.00E+00
   1708 T=   236. E= -.70116468E+03 F= -.70556460E+03 E0= -.70556460E+03  EK= 0.43999E+01 SP= 0.00E+00 SK= 0.00E+00
   1709 T=   238. E= -.70119628E+03 F= -.70562497E+03 E0= -.70562497E+03  EK= 0.44287E+01 SP= 0.00E+00 SK= 0.00E+00
   1710 T=   242. E= -.70121176E+03 F= -.70571759E+03 E0= -.70571759E+03  EK= 0.45058E+01 SP= 0.00E+00 SK= 0.00E+00
   1711 T=   249. E= -.70113887E+03 F= -.70576596E+03 E0= -.70576596E+03  EK= 0.46271E+01 SP= 0.00E+00 SK= 0.00E+00
   1712 T=   245. E= -.70117496E+03 F= -.70574227E+03 E0= -.70574227E+03  EK= 0.45673E+01 SP= 0.00E+00 SK= 0.00E+00
   1713 T=   241. E= -.70118140E+03 F= -.70567081E+03 E0= -.70567081E+03  EK= 0.44894E+01 SP= 0.00E+00 SK= 0.00E+00
   1714 T=   242. E= -.70109137E+03 F= -.70560114E+03 E0= -.70560114E+03  EK= 0.45098E+01 SP= 0.00E+00 SK= 0.00E+00
   1715 T=   243. E= -.70105534E+03 F= -.70557201E+03 E0= -.70557201E+03  EK= 0.45167E+01 SP= 0.00E+00 SK= 0.00E+00
   1716 T=   245. E= -.70102552E+03 F= -.70558485E+03 E0= -.70558485E+03  EK= 0.45593E+01 SP= 0.00E+00 SK= 0.00E+00
   1717 T=   249. E= -.70095184E+03 F= -.70558254E+03 E0= -.70558254E+03  EK= 0.46307E+01 SP= 0.00E+00 SK= 0.00E+00
   1718 T=   248. E= -.70095426E+03 F= -.70557791E+03 E0= -.70557791E+03  EK= 0.46237E+01 SP= 0.00E+00 SK= 0.00E+00
   1719 T=   243. E= -.70100086E+03 F= -.70553176E+03 E0= -.70553176E+03  EK= 0.45309E+01 SP= 0.00E+00 SK= 0.00E+00
   1720 T=   239. E= -.70098972E+03 F= -.70543012E+03 E0= -.70543012E+03  EK= 0.44404E+01 SP= 0.00E+00 SK= 0.00E+00
   1721 T=   231. E= -.70101732E+03 F= -.70532268E+03 E0= -.70532268E+03  EK= 0.43054E+01 SP= 0.00E+00 SK= 0.00E+00
   1722 T=   230. E= -.70094654E+03 F= -.70522372E+03 E0= -.70522372E+03  EK= 0.42772E+01 SP= 0.00E+00 SK= 0.00E+00
   1723 T=   231. E= -.70087164E+03 F= -.70517047E+03 E0= -.70517047E+03  EK= 0.42988E+01 SP= 0.00E+00 SK= 0.00E+00
   1724 T=   228. E= -.70092730E+03 F= -.70517014E+03 E0= -.70517014E+03  EK= 0.42428E+01 SP= 0.00E+00 SK= 0.00E+00
   1725 T=   227. E= -.70096319E+03 F= -.70519655E+03 E0= -.70519655E+03  EK= 0.42334E+01 SP= 0.00E+00 SK= 0.00E+00
   1726 T=   229. E= -.70098033E+03 F= -.70524524E+03 E0= -.70524524E+03  EK= 0.42649E+01 SP= 0.00E+00 SK= 0.00E+00
   1727 T=   227. E= -.70104454E+03 F= -.70526227E+03 E0= -.70526227E+03  EK= 0.42177E+01 SP= 0.00E+00 SK= 0.00E+00
   1728 T=   221. E= -.70110595E+03 F= -.70522496E+03 E0= -.70522496E+03  EK= 0.41190E+01 SP= 0.00E+00 SK= 0.00E+00
   1729 T=   220. E= -.70109123E+03 F= -.70517853E+03 E0= -.70517853E+03  EK= 0.40873E+01 SP= 0.00E+00 SK= 0.00E+00
   1730 T=   221. E= -.70106660E+03 F= -.70517226E+03 E0= -.70517226E+03  EK= 0.41057E+01 SP= 0.00E+00 SK= 0.00E+00
   1731 T=   223. E= -.70105893E+03 F= -.70521593E+03 E0= -.70521593E+03  EK= 0.41570E+01 SP= 0.00E+00 SK= 0.00E+00
       N       E                     dE             d eps       ncg     rms          rms(c)
DAV:   1    -0.524847578350E+03    0.17215E+03   -0.21720E+04 12190   0.316E+02
DAV:   2    -0.699206569689E+03   -0.17436E+03   -0.17372E+03 13811   0.788E+01
DAV:   3    -0.702117226688E+03   -0.29107E+01   -0.29098E+01 14620   0.114E+01
DAV:   4    -0.702170718248E+03   -0.53492E-01   -0.53488E-01 14060   0.150E+00    0.230E+01
DAV:   5    -0.697326455602E+03    0.48443E+01   -0.82837E+00 13668   0.737E+00    0.131E+01
DAV:   6    -0.696854437881E+03    0.47202E+00   -0.86257E+00 14652   0.712E+00    0.322E+00
DAV:   7    -0.697018395604E+03   -0.16396E+00   -0.14112E+00 13916   0.299E+00    0.150E+00
DAV:   8    -0.697019015435E+03   -0.61983E-03   -0.12280E-01 14100   0.892E-01    0.607E-01
DAV:   9    -0.697014879601E+03    0.41358E-02   -0.22152E-02 14116   0.440E-01    0.207E-01
DAV:  10    -0.697013611198E+03    0.12684E-02   -0.52421E-03 14364   0.247E-01    0.916E-02
DAV:  11    -0.697013018851E+03    0.59235E-03   -0.21272E-03 14556   0.144E-01    0.680E-02
DAV:  12    -0.697012285835E+03    0.73302E-03   -0.50078E-04 12932   0.114E-01    0.327E-02
DAV:  13    -0.697011888383E+03    0.39745E-03   -0.38044E-04 12588   0.124E-01    0.344E-02
DAV:  14    -0.697011859533E+03    0.28850E-04   -0.71545E-04 13684   0.878E-02
   1732 T=   229. E= -.70105546E+03 F= -.70531276E+03 E0= -.70531276E+03  EK= 0.42573E+01 SP= 0.00E+00 SK= 0.00E+00
   1733 T=   232. E= -.70101059E+03 F= -.70532824E+03 E0= -.70532824E+03  EK= 0.43176E+01 SP= 0.00E+00 SK= 0.00E+00
   1734 T=   231. E= -.70098560E+03 F= -.70529348E+03 E0= -.70529348E+03  EK= 0.43079E+01 SP= 0.00E+00 SK= 0.00E+00
   1735 T=   229. E= -.70095259E+03 F= -.70521839E+03 E0= -.70521839E+03  EK= 0.42658E+01 SP= 0.00E+00 SK= 0.00E+00
   1736 T=   228. E= -.70093730E+03 F= -.70518918E+03 E0= -.70518918E+03  EK= 0.42519E+01 SP= 0.00E+00 SK= 0.00E+00
   1737 T=   231. E= -.70093373E+03 F= -.70524114E+03 E0= -.70524114E+03  EK= 0.43074E+01 SP= 0.00E+00 SK= 0.00E+00
   1738 T=   236. E= -.70097011E+03 F= -.70537134E+03 E0= -.70537134E+03  EK= 0.44012E+01 SP= 0.00E+00 SK= 0.00E+00
   1739 T=   241. E= -.70104233E+03 F= -.70553453E+03 E0= -.70553453E+03  EK= 0.44922E+01 SP= 0.00E+00 SK= 0.00E+00
   1740 T=   240. E= -.70113932E+03 F= -.70560660E+03 E0= -.70560660E+03  EK= 0.44673E+01 SP= 0.00E+00 SK= 0.00E+00
   1741 T=   235. E= -.70122996E+03 F= -.70560020E+03 E0= -.70560020E+03  EK= 0.43702E+01 SP= 0.00E+00 SK= 0.00E+00
       N       E                     dE             d eps       ncg     rms          rms(c)
DAV:   1    -0.693065631003E+03    0.39463E+01   -0.18666E+03 12190   0.975E+01
DAV:   2    -0.698051277396E+03   -0.49856E+01   -0.49845E+01 14364   0.144E+01
DAV:   3    -0.698101673277E+03   -0.50396E-01   -0.50393E-01 14628   0.151E+00
DAV:   4    -0.698102813286E+03   -0.11400E-02   -0.11400E-02 14420   0.217E-01    0.835E+00
DAV:   5    -0.697373754082E+03    0.72906E+00   -0.14212E+00 15300   0.363E+00    0.451E+00
DAV:   6    -0.697295154232E+03    0.78600E-01   -0.11170E+00 14660   0.278E+00    0.136E+00
DAV:   7    -0.697306003526E+03   -0.10849E-01   -0.22070E-01 14028   0.138E+00    0.537E-01
DAV:   8    -0.697302491096E+03    0.35124E-02   -0.25564E-02 13956   0.448E-01    0.273E-01
DAV:   9    -0.697299565549E+03    0.29255E-02   -0.85906E-03 13548   0.253E-01    0.137E-01
DAV:  10    -0.697297932737E+03    0.16328E-02   -0.19003E-03 16100   0.202E-01    0.450E-02
DAV:  11    -0.697297560925E+03    0.37181E-03   -0.12654E-03 14540   0.110E-01    0.503E-02
DAV:  12    -0.697297218214E+03    0.34271E-03   -0.36293E-04 12820   0.796E-02    0.239E-02
DAV:  13    -0.697297105576E+03    0.11264E-03   -0.16082E-04  9860   0.732E-02    0.330E-02
DAV:  14    -0.697297077257E+03    0.28318E-04   -0.24768E-04 11748   0.557E-02
   1742 T=   231. E= -.70126199E+03 F= -.70556229E+03 E0= -.70556229E+03  EK= 0.43003E+01 SP= 0.00E+00 SK= 0.00E+00
   1743 T=   229. E= -.70122315E+03 F= -.70548181E+03 E0= -.70548181E+03  EK= 0.42587E+01 SP= 0.00E+00 SK= 0.00E+00
   1744 T=   223. E= -.70126793E+03 F= -.70541063E+03 E0= -.70541063E+03  EK= 0.41427E+01 SP= 0.00E+00 SK= 0.00E+00
   1745 T=   223. E= -.70125408E+03 F= -.70539918E+03 E0= -.70539918E+03  EK= 0.41451E+01 SP= 0.00E+00 SK= 0.00E+00
   1746 T=   234. E= -.70117769E+03 F= -.70553564E+03 E0= -.70553564E+03  EK= 0.43580E+01 SP= 0.00E+00 SK= 0.00E+00
   1747 T=   244. E= -.70119160E+03 F= -.70573085E+03 E0= -.70573085E+03  EK= 0.45392E+01 SP= 0.00E+00 SK= 0.00E+00
   1748 T=   254. E= -.70118317E+03 F= -.70591130E+03 E0= -.70591130E+03  EK= 0.47281E+01 SP= 0.00E+00 SK= 0.00E+00
   1749 T=   257. E= -.70118940E+03 F= -.70596800E+03 E0= -.70596800E+03  EK= 0.47786E+01 SP= 0.00E+00 SK= 0.00E+00
   1750 T=   252. E= -.70119660E+03 F= -.70587850E+03 E0= -.70587850E+03  EK= 0.46819E+01 SP= 0.00E+00 SK= 0.00E+00
   1751 T=   244. E= -.70116485E+03 F= -.70569973E+03 E0= -.70569973E+03  EK= 0.45349E+01 SP= 0.00E+00 SK= 0.00E+00
       N       E                     dE             d eps       ncg     rms          rms(c)
DAV:   1    -0.692617655536E+03    0.46795E+01   -0.19945E+03 12190   0.101E+02
DAV:   2    -0.698077369212E+03   -0.54597E+01   -0.54582E+01 14324   0.151E+01
DAV:   3    -0.698134062503E+03   -0.56693E-01   -0.56690E-01 14620   0.159E+00
DAV:   4    -0.698135333660E+03   -0.12712E-02   -0.12711E-02 14388   0.227E-01    0.857E+00
DAV:   5    -0.697347807601E+03    0.78753E+00   -0.16748E+00 14708   0.382E+00    0.458E+00
DAV:   6    -0.697261561272E+03    0.86246E-01   -0.10479E+00 14628   0.272E+00    0.154E+00
DAV:   7    -0.697269618942E+03   -0.80577E-02   -0.22450E-01 14052   0.133E+00    0.558E-01
DAV:   8    -0.697265106170E+03    0.45128E-02   -0.22541E-02 13812   0.440E-01    0.266E-01
DAV:   9    -0.697262264426E+03    0.28417E-02   -0.85135E-03 13580   0.241E-01    0.124E-01
DAV:  10    -0.697261162075E+03    0.11024E-02   -0.15739E-03 16324   0.155E-01    0.432E-02
DAV:  11    -0.697260863647E+03    0.29843E-03   -0.76888E-04 13820   0.823E-02    0.397E-02
DAV:  12    -0.697260661631E+03    0.20202E-03   -0.14636E-04  9804   0.603E-02    0.144E-02
DAV:  13    -0.697260603716E+03    0.57916E-04   -0.16864E-04 10084   0.530E-02
   1752 T=   230. E= -.70125941E+03 F= -.70554568E+03 E0= -.70554568E+03  EK= 0.42863E+01 SP= 0.00E+00 SK= 0.00E+00
   1753 T=   222. E= -.70137012E+03 F= -.70550660E+03 E0= -.70550660E+03  EK= 0.41365E+01 SP= 0.00E+00 SK= 0.00E+00
   1754 T=   227. E= -.70139195E+03 F= -.70562543E+03 E0= -.70562543E+03  EK= 0.42335E+01 SP= 0.00E+00 SK= 0.00E+00
   1755 T=   236. E= -.70139642E+03 F= -.70578983E+03 E0= -.70578983E+03  EK= 0.43934E+01 SP= 0.00E+00 SK= 0.00E+00
   1756 T=   240. E= -.70139537E+03 F= -.70586949E+03 E0= -.70586949E+03  EK= 0.44741E+01 SP= 0.00E+00 SK= 0.00E+00
   1757 T=   236. E= -.70142976E+03 F= -.70581706E+03 E0= -.70581706E+03  EK= 0.43873E+01 SP= 0.00E+00 SK= 0.00E+00
   1758 T=   226. E= -.70144187E+03 F= -.70564932E+03 E0= -.70564932E+03  EK= 0.42075E+01 SP= 0.00E+00 SK= 0.00E+00
   1759 T=   218. E= -.70140032E+03 F= -.70545504E+03 E0= -.70545504E+03  EK= 0.40547E+01 SP= 0.00E+00 SK= 0.00E+00
   1760 T=   218. E= -.70130138E+03 F= -.70535166E+03 E0= -.70535166E+03  EK= 0.40503E+01 SP= 0.00E+00 SK= 0.00E+00
   1761 T=   222. E= -.70122408E+03 F= -.70535860E+03 E0= -.70535860E+03  EK= 0.41345E+01 SP= 0.00E+00 SK= 0.00E+00
   1762 T=   227. E= -.70124143E+03 F= -.70546267E+03 E0= -.70546267E+03  EK= 0.42212E+01 SP= 0.00E+00 SK= 0.00E+00
   1763 T=   234. E= -.70127633E+03 F= -.70562784E+03 E0= -.70562784E+03  EK= 0.43515E+01 SP= 0.00E+00 SK= 0.00E+00
   1764 T=   239. E= -.70132614E+03 F= -.70577150E+03 E0= -.70577150E+03  EK= 0.44454E+01 SP= 0.00E+00 SK= 0.00E+00
   1765 T=   238. E= -.70137690E+03 F= -.70581213E+03 E0= -.70581213E+03  EK= 0.44352E+01 SP= 0.00E+00 SK= 0.00E+00
   1766 T=   235. E= -.70138809E+03 F= -.70575390E+03 E0= -.70575390E+03  EK= 0.43658E+01 SP= 0.00E+00 SK= 0.00E+00
   1767 T=   233. E= -.70134582E+03 F= -.70567768E+03 E0= -.70567768E+03  EK= 0.43319E+01 SP= 0.00E+00 SK= 0.00E+00
   1768 T=   231. E= -.70130284E+03 F= -.70560052E+03 E0= -.70560052E+03  EK= 0.42977E+01 SP= 0.00E+00 SK= 0.00E+00
   1769 T=   234. E= -.70126308E+03 F= -.70562382E+03 E0= -.70562382E+03  EK= 0.43607E+01 SP= 0.00E+00 SK= 0.00E+00
   1770 T=   241. E= -.70122891E+03 F= -.70571652E+03 E0= -.70571652E+03  EK= 0.44876E+01 SP= 0.00E+00 SK= 0.00E+00
   1771 T=   249. E= -.70117402E+03 F= -.70581395E+03 E0= -.70581395E+03  EK= 0.46399E+01 SP= 0.00E+00 SK= 0.00E+00
   1772 T=   254. E= -.70116178E+03 F= -.70589820E+03 E0= -.70589820E+03  EK= 0.47364E+01 SP= 0.00E+00 SK= 0.00E+00
   1773 T=   255. E= -.70122374E+03 F= -.70596775E+03 E0= -.70596775E+03  EK= 0.47440E+01 SP= 0.00E+00 SK= 0.00E+00
   1774 T=   255. E= -.70124362E+03 F= -.70599183E+03 E0= -.70599183E+03  EK= 0.47482E+01 SP= 0.00E+00 SK= 0.00E+00
   1775 T=   255. E= -.70118152E+03 F= -.70593402E+03 E0= -.70593402E+03  EK= 0.47525E+01 SP= 0.00E+00 SK= 0.00E+00
   1776 T=   248. E= -.70117190E+03 F= -.70579559E+03 E0= -.70579559E+03  EK= 0.46237E+01 SP= 0.00E+00 SK= 0.00E+00
   1777 T=   238. E= -.70123332E+03 F= -.70566049E+03 E0= -.70566049E+03  EK= 0.44272E+01 SP= 0.00E+00 SK= 0.00E+00
   1778 T=   236. E= -.70121041E+03 F= -.70560337E+03 E0= -.70560337E+03  EK= 0.43930E+01 SP= 0.00E+00 SK= 0.00E+00
   1779 T=   240. E= -.70115210E+03 F= -.70562151E+03 E0= -.70562151E+03  EK= 0.44694E+01 SP= 0.00E+00 SK= 0.00E+00
   1780 T=   240. E= -.70116592E+03 F= -.70563878E+03 E0= -.70563878E+03  EK= 0.44729E+01 SP= 0.00E+00 SK= 0.00E+00
   1781 T=   236. E= -.70121860E+03 F= -.70560886E+03 E0= -.70560886E+03  EK= 0.43903E+01 SP= 0.00E+00 SK= 0.00E+00
   1782 T=   231. E= -.70121558E+03 F= -.70552420E+03 E0= -.70552420E+03  EK= 0.43086E+01 SP= 0.00E+00 SK= 0.00E+00
   1783 T=   232. E= -.70110783E+03 F= -.70542909E+03 E0= -.70542909E+03  EK= 0.43213E+01 SP= 0.00E+00 SK= 0.00E+00
   1784 T=   234. E= -.70100782E+03 F= -.70536410E+03 E0= -.70536410E+03  EK= 0.43563E+01 SP= 0.00E+00 SK= 0.00E+00
   1785 T=   234. E= -.70101718E+03 F= -.70536440E+03 E0= -.70536440E+03  EK= 0.43472E+01 SP= 0.00E+00 SK= 0.00E+00
   1786 T=   235. E= -.70103292E+03 F= -.70541014E+03 E0= -.70541014E+03  EK= 0.43772E+01 SP= 0.00E+00 SK= 0.00E+00
   1787 T=   234. E= -.70106726E+03 F= -.70543030E+03 E0= -.70543030E+03  EK= 0.43630E+01 SP= 0.00E+00 SK= 0.00E+00
   1788 T=   230. E= -.70105266E+03 F= -.70534201E+03 E0= -.70534201E+03  EK= 0.42893E+01 SP= 0.00E+00 SK= 0.00E+00
   1789 T=   228. E= -.70095226E+03 F= -.70520328E+03 E0= -.70520328E+03  EK= 0.42510E+01 SP= 0.00E+00 SK= 0.00E+00
   1790 T=   224. E= -.70091890E+03 F= -.70509700E+03 E0= -.70509700E+03  EK= 0.41781E+01 SP= 0.00E+00 SK= 0.00E+00
   1791 T=   227. E= -.70092974E+03 F= -.70515659E+03 E0= -.70515659E+03  EK= 0.42268E+01 SP= 0.00E+00 SK= 0.00E+00
   1792 T=   235. E= -.70094228E+03 F= -.70531541E+03 E0= -.70531541E+03  EK= 0.43731E+01 SP= 0.00E+00 SK= 0.00E+00
   1793 T=   244. E= -.70093433E+03 F= -.70548164E+03 E0= -.70548164E+03  EK= 0.45473E+01 SP= 0.00E+00 SK= 0.00E+00
   1794 T=   251. E= -.70090312E+03 F= -.70558017E+03 E0= -.70558017E+03  EK= 0.46771E+01 SP= 0.00E+00 SK= 0.00E+00
   1795 T=   253. E= -.70089883E+03 F= -.70561452E+03 E0= -.70561452E+03  EK= 0.47157E+01 SP= 0.00E+00 SK= 0.00E+00
   1796 T=   253. E= -.70087479E+03 F= -.70558418E+03 E0= -.70558418E+03  EK= 0.47094E+01 SP= 0.00E+00 SK= 0.00E+00
   1797 T=   253. E= -.70084241E+03 F= -.70555207E+03 E0= -.70555207E+03  EK= 0.47097E+01 SP= 0.00E+00 SK= 0.00E+00
   1798 T=   251. E= -.70085764E+03 F= -.70553803E+03 E0= -.70553803E+03  EK= 0.46804E+01 SP= 0.00E+00 SK= 0.00E+00
   1799 T=   250. E= -.70091190E+03 F= -.70556714E+03 E0= -.70556714E+03  EK= 0.46552E+01 SP= 0.00E+00 SK= 0.00E+00
   1800 T=   251. E= -.70096505E+03 F= -.70563234E+03 E0= -.70563234E+03  EK= 0.46673E+01 SP= 0.00E+00 SK= 0.00E+00
   1801 T=   256. E= -.70096980E+03 F= -.70574111E+03 E0= -.70574111E+03  EK= 0.47713E+01 SP= 0.00E+00 SK= 0.00E+00
   1802 T=   260. E= -.70099134E+03 F= -.70583738E+03 E0= -.70583738E+03  EK= 0.48460E+01 SP= 0.00E+00 SK= 0.00E+00
   1803 T=   258. E= -.70110145E+03 F= -.70589483E+03 E0= -.70589483E+03  EK= 0.47934E+01 SP= 0.00E+00 SK= 0.00E+00
   1804 T=   260. E= -.70107481E+03 F= -.70591546E+03 E0= -.70591546E+03  EK= 0.48406E+01 SP= 0.00E+00 SK= 0.00E+00
   1805 T=   266. E= -.70093305E+03 F= -.70587564E+03 E0= -.70587564E+03  EK= 0.49426E+01 SP= 0.00E+00 SK= 0.00E+00
   1806 T=   264. E= -.70082890E+03 F= -.70574197E+03 E0= -.70574197E+03  EK= 0.49131E+01 SP= 0.00E+00 SK= 0.00E+00
   1807 T=   252. E= -.70081658E+03 F= -.70550945E+03 E0= -.70550945E+03  EK= 0.46929E+01 SP= 0.00E+00 SK= 0.00E+00
   1808 T=   237. E= -.70085986E+03 F= -.70527941E+03 E0= -.70527941E+03  EK= 0.44196E+01 SP= 0.00E+00 SK= 0.00E+00
   1809 T=   230. E= -.70089211E+03 F= -.70517092E+03 E0= -.70517092E+03  EK= 0.42788E+01 SP= 0.00E+00 SK= 0.00E+00
   1810 T=   233. E= -.70089732E+03 F= -.70523380E+03 E0= -.70523380E+03  EK= 0.43365E+01 SP= 0.00E+00 SK= 0.00E+00
   1811 T=   243. E= -.70090064E+03 F= -.70541514E+03 E0= -.70541514E+03  EK= 0.45145E+01 SP= 0.00E+00 SK= 0.00E+00
   1812 T=   244. E= -.70099532E+03 F= -.70554436E+03 E0= -.70554436E+03  EK= 0.45490E+01 SP= 0.00E+00 SK= 0.00E+00
   1813 T=   240. E= -.70108686E+03 F= -.70555316E+03 E0= -.70555316E+03  EK= 0.44663E+01 SP= 0.00E+00 SK= 0.00E+00
   1814 T=   231. E= -.70114847E+03 F= -.70545289E+03 E0= -.70545289E+03  EK= 0.43044E+01 SP= 0.00E+00 SK= 0.00E+00
   1815 T=   222. E= -.70116232E+03 F= -.70529613E+03 E0= -.70529613E+03  EK= 0.41338E+01 SP= 0.00E+00 SK= 0.00E+00
   1816 T=   215. E= -.70117259E+03 F= -.70516737E+03 E0= -.70516737E+03  EK= 0.39948E+01 SP= 0.00E+00 SK= 0.00E+00
   1817 T=   210. E= -.70122283E+03 F= -.70512626E+03 E0= -.70512626E+03  EK= 0.39034E+01 SP= 0.00E+00 SK= 0.00E+00
   1818 T=   213. E= -.70120536E+03 F= -.70517497E+03 E0= -.70517497E+03  EK= 0.39696E+01 SP= 0.00E+00 SK= 0.00E+00
   1819 T=   224. E= -.70111890E+03 F= -.70529524E+03 E0= -.70529524E+03  EK= 0.41763E+01 SP= 0.00E+00 SK= 0.00E+00
   1820 T=   231. E= -.70109888E+03 F= -.70539519E+03 E0= -.70539519E+03  EK= 0.42963E+01 SP= 0.00E+00 SK= 0.00E+00
   1821 T=   233. E= -.70110518E+03 F= -.70544136E+03 E0= -.70544136E+03  EK= 0.43362E+01 SP= 0.00E+00 SK= 0.00E+00
   1822 T=   234. E= -.70109179E+03 F= -.70544626E+03 E0= -.70544626E+03  EK= 0.43545E+01 SP= 0.00E+00 SK= 0.00E+00
   1823 T=   230. E= -.70113827E+03 F= -.70541615E+03 E0= -.70541615E+03  EK= 0.42779E+01 SP= 0.00E+00 SK= 0.00E+00
   1824 T=   222. E= -.70123398E+03 F= -.70537090E+03 E0= -.70537090E+03  EK= 0.41369E+01 SP= 0.00E+00 SK= 0.00E+00
   1825 T=   220. E= -.70128403E+03 F= -.70538735E+03 E0= -.70538735E+03  EK= 0.41033E+01 SP= 0.00E+00 SK= 0.00E+00
   1826 T=   227. E= -.70124536E+03 F= -.70547507E+03 E0= -.70547507E+03  EK= 0.42297E+01 SP= 0.00E+00 SK= 0.00E+00
   1827 T=   242. E= -.70113472E+03 F= -.70563999E+03 E0= -.70563999E+03  EK= 0.45053E+01 SP= 0.00E+00 SK= 0.00E+00
   1828 T=   257. E= -.70102519E+03 F= -.70580096E+03 E0= -.70580096E+03  EK= 0.47758E+01 SP= 0.00E+00 SK= 0.00E+00
   1829 T=   263. E= -.70094641E+03 F= -.70584949E+03 E0= -.70584949E+03  EK= 0.49031E+01 SP= 0.00E+00 SK= 0.00E+00
   1830 T=   261. E= -.70090565E+03 F= -.70577304E+03 E0= -.70577304E+03  EK= 0.48674E+01 SP= 0.00E+00 SK= 0.00E+00
   1831 T=   256. E= -.70092532E+03 F= -.70568417E+03 E0= -.70568417E+03  EK= 0.47588E+01 SP= 0.00E+00 SK= 0.00E+00
   1832 T=   252. E= -.70094811E+03 F= -.70563316E+03 E0= -.70563316E+03  EK= 0.46851E+01 SP= 0.00E+00 SK= 0.00E+00
   1833 T=   253. E= -.70093686E+03 F= -.70563796E+03 E0= -.70563796E+03  EK= 0.47011E+01 SP= 0.00E+00 SK= 0.00E+00
   1834 T=   258. E= -.70086449E+03 F= -.70566926E+03 E0= -.70566926E+03  EK= 0.48048E+01 SP= 0.00E+00 SK= 0.00E+00
   1835 T=   260. E= -.70082050E+03 F= -.70566749E+03 E0= -.70566749E+03  EK= 0.48470E+01 SP= 0.00E+00 SK= 0.00E+00
   1836 T=   257. E= -.70082928E+03 F= -.70561788E+03 E0= -.70561788E+03  EK= 0.47886E+01 SP= 0.00E+00 SK= 0.00E+00
   1837 T=   254. E= -.70082173E+03 F= -.70554744E+03 E0= -.70554744E+03  EK= 0.47257E+01 SP= 0.00E+00 SK= 0.00E+00
   1838 T=   248. E= -.70083485E+03 F= -.70544433E+03 E0= -.70544433E+03  EK= 0.46095E+01 SP= 0.00E+00 SK= 0.00E+00
   1839 T=   241. E= -.70084497E+03 F= -.70532247E+03 E0= -.70532247E+03  EK= 0.44775E+01 SP= 0.00E+00 SK= 0.00E+00
   1840 T=   234. E= -.70085370E+03 F= -.70521133E+03 E0= -.70521133E+03  EK= 0.43576E+01 SP= 0.00E+00 SK= 0.00E+00
   1841 T=   227. E= -.70092529E+03 F= -.70515505E+03 E0= -.70515505E+03  EK= 0.42298E+01 SP= 0.00E+00 SK= 0.00E+00
   1842 T=   226. E= -.70096738E+03 F= -.70516967E+03 E0= -.70516967E+03  EK= 0.42023E+01 SP= 0.00E+00 SK= 0.00E+00
   1843 T=   228. E= -.70101189E+03 F= -.70525659E+03 E0= -.70525659E+03  EK= 0.42447E+01 SP= 0.00E+00 SK= 0.00E+00
   1844 T=   227. E= -.70113524E+03 F= -.70535859E+03 E0= -.70535859E+03  EK= 0.42234E+01 SP= 0.00E+00 SK= 0.00E+00
   1845 T=   230. E= -.70115925E+03 F= -.70544426E+03 E0= -.70544426E+03  EK= 0.42850E+01 SP= 0.00E+00 SK= 0.00E+00
   1846 T=   236. E= -.70107221E+03 F= -.70547418E+03 E0= -.70547418E+03  EK= 0.44020E+01 SP= 0.00E+00 SK= 0.00E+00
   1847 T=   235. E= -.70111700E+03 F= -.70549197E+03 E0= -.70549197E+03  EK= 0.43750E+01 SP= 0.00E+00 SK= 0.00E+00
   1848 T=   233. E= -.70115527E+03 F= -.70549663E+03 E0= -.70549663E+03  EK= 0.43414E+01 SP= 0.00E+00 SK= 0.00E+00
   1849 T=   238. E= -.70111791E+03 F= -.70555690E+03 E0= -.70555690E+03  EK= 0.44390E+01 SP= 0.00E+00 SK= 0.00E+00
   1850 T=   241. E= -.70114170E+03 F= -.70562776E+03 E0= -.70562776E+03  EK= 0.44861E+01 SP= 0.00E+00 SK= 0.00E+00
   1851 T=   250. E= -.70105388E+03 F= -.70569980E+03 E0= -.70569980E+03  EK= 0.46459E+01 SP= 0.00E+00 SK= 0.00E+00
   1852 T=   253. E= -.70098498E+03 F= -.70568795E+03 E0= -.70568795E+03  EK= 0.47030E+01 SP= 0.00E+00 SK= 0.00E+00
   1853 T=   247. E= -.70098255E+03 F= -.70557955E+03 E0= -.70557955E+03  EK= 0.45970E+01 SP= 0.00E+00 SK= 0.00E+00
   1854 T=   236. E= -.70103408E+03 F= -.70542021E+03 E0= -.70542021E+03  EK= 0.43861E+01 SP= 0.00E+00 SK= 0.00E+00
   1855 T=   224. E= -.70110453E+03 F= -.70526940E+03 E0= -.70526940E+03  EK= 0.41649E+01 SP= 0.00E+00 SK= 0.00E+00
   1856 T=   219. E= -.70108987E+03 F= -.70516899E+03 E0= -.70516899E+03  EK= 0.40791E+01 SP= 0.00E+00 SK= 0.00E+00
   1857 T=   219. E= -.70110362E+03 F= -.70518328E+03 E0= -.70518328E+03  EK= 0.40797E+01 SP= 0.00E+00 SK= 0.00E+00
       N       E                     dE             d eps       ncg     rms          rms(c)
DAV:   1    -0.449290351561E+03    0.24797E+03   -0.26548E+04 12190   0.347E+02
DAV:   2    -0.697918611667E+03   -0.24863E+03   -0.24678E+03 13814   0.938E+01
DAV:   3    -0.702908162730E+03   -0.49896E+01   -0.49868E+01 14468   0.151E+01
DAV:   4    -0.702993926762E+03   -0.85764E-01   -0.85755E-01 14252   0.188E+00    0.266E+01
DAV:   5    -0.696788747132E+03    0.62052E+01   -0.13016E+01 13612   0.905E+00    0.151E+01
DAV:   6    -0.696598757617E+03    0.18999E+00   -0.10446E+01 14156   0.777E+00    0.427E+00
DAV:   7    -0.696874855527E+03   -0.27610E+00   -0.18189E+00 14276   0.361E+00    0.172E+00
DAV:   8    -0.696879318299E+03   -0.44628E-02   -0.17240E-01 13860   0.111E+00    0.754E-01
DAV:   9    -0.696874689088E+03    0.46292E-02   -0.47565E-02 14084   0.643E-01    0.285E-01
DAV:  10    -0.696872374853E+03    0.23142E-02   -0.98460E-03 15588   0.355E-01    0.126E-01
DAV:  11    -0.696871538195E+03    0.83666E-03   -0.47122E-03 14252   0.191E-01    0.953E-02
DAV:  12    -0.696870205550E+03    0.13326E-02   -0.86138E-04 14204   0.190E-01    0.387E-02
DAV:  13    -0.696869713064E+03    0.49249E-03   -0.97362E-04 13796   0.154E-01    0.571E-02
DAV:  14    -0.696869581714E+03    0.13135E-03   -0.80659E-04 13708   0.101E-01    0.237E-02
DAV:  15    -0.696869575292E+03    0.64215E-05   -0.19563E-04 11052   0.410E-02
   1858 T=   218. E= -.70111513E+03 F= -.70517529E+03 E0= -.70517529E+03  EK= 0.40602E+01 SP= 0.00E+00 SK= 0.00E+00
   1859 T=   219. E= -.70123835E+03 F= -.70531849E+03 E0= -.70531849E+03  EK= 0.40801E+01 SP= 0.00E+00 SK= 0.00E+00
   1860 T=   222. E= -.70125681E+03 F= -.70539339E+03 E0= -.70539339E+03  EK= 0.41366E+01 SP= 0.00E+00 SK= 0.00E+00
   1861 T=   221. E= -.70132100E+03 F= -.70543716E+03 E0= -.70543716E+03  EK= 0.41162E+01 SP= 0.00E+00 SK= 0.00E+00
   1862 T=   219. E= -.70134307E+03 F= -.70542561E+03 E0= -.70542561E+03  EK= 0.40825E+01 SP= 0.00E+00 SK= 0.00E+00
   1863 T=   219. E= -.70127452E+03 F= -.70535659E+03 E0= -.70535659E+03  EK= 0.40821E+01 SP= 0.00E+00 SK= 0.00E+00
   1864 T=   222. E= -.70117615E+03 F= -.70530943E+03 E0= -.70530943E+03  EK= 0.41333E+01 SP= 0.00E+00 SK= 0.00E+00
   1865 T=   226. E= -.70113349E+03 F= -.70533511E+03 E0= -.70533511E+03  EK= 0.42016E+01 SP= 0.00E+00 SK= 0.00E+00
   1866 T=   231. E= -.70113550E+03 F= -.70543293E+03 E0= -.70543293E+03  EK= 0.42974E+01 SP= 0.00E+00 SK= 0.00E+00
   1867 T=   237. E= -.70113188E+03 F= -.70554222E+03 E0= -.70554222E+03  EK= 0.44103E+01 SP= 0.00E+00 SK= 0.00E+00
       N       E                     dE             d eps       ncg     rms          rms(c)
DAV:   1    -0.692911299444E+03    0.39583E+01   -0.19301E+03 12190   0.990E+01
DAV:   2    -0.697967093520E+03   -0.50558E+01   -0.50546E+01 14348   0.146E+01
DAV:   3    -0.698019014394E+03   -0.51921E-01   -0.51918E-01 14652   0.152E+00
DAV:   4    -0.698020189211E+03   -0.11748E-02   -0.11748E-02 14348   0.219E-01    0.829E+00
DAV:   5    -0.697343623164E+03    0.67657E+00   -0.12545E+00 14884   0.346E+00    0.452E+00
DAV:   6    -0.697260947622E+03    0.82676E-01   -0.10556E+00 14676   0.269E+00    0.131E+00
DAV:   7    -0.697269242246E+03   -0.82946E-02   -0.20630E-01 13916   0.131E+00    0.506E-01
DAV:   8    -0.697265537245E+03    0.37050E-02   -0.21062E-02 14364   0.456E-01    0.235E-01
DAV:   9    -0.697263234859E+03    0.23024E-02   -0.78447E-03 13796   0.245E-01    0.131E-01
DAV:  10    -0.697262072493E+03    0.11624E-02   -0.21866E-03 16852   0.188E-01    0.452E-02
DAV:  11    -0.697261698439E+03    0.37405E-03   -0.83071E-04 14084   0.958E-02    0.434E-02
DAV:  12    -0.697261342276E+03    0.35616E-03   -0.17867E-04 10436   0.859E-02    0.168E-02
DAV:  13    -0.697261226838E+03    0.11544E-03   -0.30237E-04 11876   0.858E-02    0.271E-02
DAV:  14    -0.697261218972E+03    0.78662E-05   -0.24361E-04 11460   0.463E-02
   1868 T=   243. E= -.70105742E+03 F= -.70558092E+03 E0= -.70558092E+03  EK= 0.45235E+01 SP= 0.00E+00 SK= 0.00E+00
   1869 T=   248. E= -.70107591E+03 F= -.70568312E+03 E0= -.70568312E+03  EK= 0.46072E+01 SP= 0.00E+00 SK= 0.00E+00
   1870 T=   246. E= -.70102931E+03 F= -.70561545E+03 E0= -.70561545E+03  EK= 0.45861E+01 SP= 0.00E+00 SK= 0.00E+00
   1871 T=   244. E= -.70092526E+03 F= -.70546771E+03 E0= -.70546771E+03  EK= 0.45424E+01 SP= 0.00E+00 SK= 0.00E+00
   1872 T=   239. E= -.70087373E+03 F= -.70532277E+03 E0= -.70532277E+03  EK= 0.44490E+01 SP= 0.00E+00 SK= 0.00E+00
   1873 T=   233. E= -.70090073E+03 F= -.70524250E+03 E0= -.70524250E+03  EK= 0.43418E+01 SP= 0.00E+00 SK= 0.00E+00
   1874 T=   231. E= -.70091762E+03 F= -.70522091E+03 E0= -.70522091E+03  EK= 0.43033E+01 SP= 0.00E+00 SK= 0.00E+00
   1875 T=   229. E= -.70095101E+03 F= -.70521961E+03 E0= -.70521961E+03  EK= 0.42686E+01 SP= 0.00E+00 SK= 0.00E+00
   1876 T=   230. E= -.70093933E+03 F= -.70521771E+03 E0= -.70521771E+03  EK= 0.42784E+01 SP= 0.00E+00 SK= 0.00E+00
   1877 T=   231. E= -.70092606E+03 F= -.70521714E+03 E0= -.70521714E+03  EK= 0.42911E+01 SP= 0.00E+00 SK= 0.00E+00
       N       E                     dE             d eps       ncg     rms          rms(c)
DAV:   1    -0.692644572670E+03    0.46167E+01   -0.18412E+03 12190   0.967E+01
DAV:   2    -0.697453726102E+03   -0.48092E+01   -0.48078E+01 14388   0.141E+01
DAV:   3    -0.697505247614E+03   -0.51522E-01   -0.51518E-01 14644   0.149E+00
DAV:   4    -0.697506444434E+03   -0.11968E-02   -0.11968E-02 14428   0.216E-01    0.823E+00
DAV:   5    -0.696887945362E+03    0.61850E+00   -0.13052E+00 15388   0.358E+00    0.448E+00
DAV:   6    -0.696836223108E+03    0.51722E-01   -0.95101E-01 14540   0.265E+00    0.141E+00
DAV:   7    -0.696845246906E+03   -0.90238E-02   -0.21305E-01 14404   0.136E+00    0.533E-01
DAV:   8    -0.696840490020E+03    0.47569E-02   -0.24812E-02 14436   0.467E-01    0.261E-01
DAV:   9    -0.696836764574E+03    0.37254E-02   -0.86534E-03 13748   0.273E-01    0.133E-01
DAV:  10    -0.696834960692E+03    0.18039E-02   -0.22940E-03 16108   0.218E-01    0.532E-02
DAV:  11    -0.696834309728E+03    0.65096E-03   -0.15055E-03 14164   0.142E-01    0.568E-02
DAV:  12    -0.696833872679E+03    0.43705E-03   -0.43059E-04 13516   0.973E-02    0.228E-02
DAV:  13    -0.696833710950E+03    0.16173E-03   -0.21498E-04 10732   0.889E-02    0.295E-02
DAV:  14    -0.696833705989E+03    0.49606E-05   -0.31571E-04 13612   0.499E-02
   1878 T=   228. E= -.70091834E+03 F= -.70516158E+03 E0= -.70516158E+03  EK= 0.42432E+01 SP= 0.00E+00 SK= 0.00E+00
   1879 T=   228. E= -.70101006E+03 F= -.70524581E+03 E0= -.70524581E+03  EK= 0.42357E+01 SP= 0.00E+00 SK= 0.00E+00
   1880 T=   237. E= -.70096661E+03 F= -.70538198E+03 E0= -.70538198E+03  EK= 0.44154E+01 SP= 0.00E+00 SK= 0.00E+00
   1881 T=   250. E= -.70090093E+03 F= -.70555634E+03 E0= -.70555634E+03  EK= 0.46554E+01 SP= 0.00E+00 SK= 0.00E+00
   1882 T=   255. E= -.70096700E+03 F= -.70572146E+03 E0= -.70572146E+03  EK= 0.47545E+01 SP= 0.00E+00 SK= 0.00E+00
   1883 T=   258. E= -.70100480E+03 F= -.70580863E+03 E0= -.70580863E+03  EK= 0.48038E+01 SP= 0.00E+00 SK= 0.00E+00
   1884 T=   263. E= -.70090977E+03 F= -.70581308E+03 E0= -.70581308E+03  EK= 0.49033E+01 SP= 0.00E+00 SK= 0.00E+00
   1885 T=   262. E= -.70087265E+03 F= -.70575270E+03 E0= -.70575270E+03  EK= 0.48801E+01 SP= 0.00E+00 SK= 0.00E+00
   1886 T=   257. E= -.70087765E+03 F= -.70566290E+03 E0= -.70566290E+03  EK= 0.47852E+01 SP= 0.00E+00 SK= 0.00E+00
   1887 T=   259. E= -.70080389E+03 F= -.70562663E+03 E0= -.70562663E+03  EK= 0.48227E+01 SP= 0.00E+00 SK= 0.00E+00
       N       E                     dE             d eps       ncg     rms          rms(c)
DAV:   1    -0.691985632588E+03    0.48481E+01   -0.21702E+03 12190   0.105E+02
DAV:   2    -0.698093751190E+03   -0.61081E+01   -0.61062E+01 14476   0.158E+01
DAV:   3    -0.698156336190E+03   -0.62585E-01   -0.62580E-01 14668   0.169E+00
DAV:   4    -0.698157751882E+03   -0.14157E-02   -0.14156E-02 14460   0.239E-01    0.882E+00
DAV:   5    -0.697407530337E+03    0.75022E+00   -0.13854E+00 15188   0.364E+00    0.483E+00
DAV:   6    -0.697317535873E+03    0.89994E-01   -0.11886E+00 14724   0.299E+00    0.140E+00
DAV:   7    -0.697328298685E+03   -0.10763E-01   -0.26211E-01 14276   0.150E+00    0.575E-01
DAV:   8    -0.697323429167E+03    0.48695E-02   -0.29758E-02 14356   0.508E-01    0.300E-01
DAV:   9    -0.697319528781E+03    0.39004E-02   -0.10715E-02 13972   0.306E-01    0.147E-01
DAV:  10    -0.697317682800E+03    0.18460E-02   -0.22719E-03 16388   0.231E-01    0.664E-02
DAV:  11    -0.697317033839E+03    0.64896E-03   -0.21720E-03 14220   0.170E-01    0.677E-02
DAV:  12    -0.697316606958E+03    0.42688E-03   -0.68688E-04 14572   0.111E-01    0.293E-02
DAV:  13    -0.697316396213E+03    0.21075E-03   -0.18996E-04 10372   0.914E-02    0.316E-02
DAV:  14    -0.697316361620E+03    0.34593E-04   -0.29011E-04 12916   0.637E-02
   1888 T=   265. E= -.70072012E+03 F= -.70565560E+03 E0= -.70565560E+03  EK= 0.49355E+01 SP= 0.00E+00 SK= 0.00E+00
   1889 T=   266. E= -.70066934E+03 F= -.70562412E+03 E0= -.70562412E+03  EK= 0.49548E+01 SP= 0.00E+00 SK= 0.00E+00
   1890 T=   262. E= -.70068776E+03 F= -.70556128E+03 E0= -.70556128E+03  EK= 0.48735E+01 SP= 0.00E+00 SK= 0.00E+00
   1891 T=   255. E= -.70070632E+03 F= -.70545261E+03 E0= -.70545261E+03  EK= 0.47463E+01 SP= 0.00E+00 SK= 0.00E+00
   1892 T=   248. E= -.70068414E+03 F= -.70530469E+03 E0= -.70530469E+03  EK= 0.46206E+01 SP= 0.00E+00 SK= 0.00E+00
   1893 T=   240. E= -.70070042E+03 F= -.70515848E+03 E0= -.70515848E+03  EK= 0.44581E+01 SP= 0.00E+00 SK= 0.00E+00
   1894 T=   231. E= -.70078276E+03 F= -.70509108E+03 E0= -.70509108E+03  EK= 0.43083E+01 SP= 0.00E+00 SK= 0.00E+00
   1895 T=   230. E= -.70083794E+03 F= -.70512693E+03 E0= -.70512693E+03  EK= 0.42890E+01 SP= 0.00E+00 SK= 0.00E+00
   1896 T=   233. E= -.70090498E+03 F= -.70524229E+03 E0= -.70524229E+03  EK= 0.43373E+01 SP= 0.00E+00 SK= 0.00E+00
   1897 T=   239. E= -.70088147E+03 F= -.70532258E+03 E0= -.70532258E+03  EK= 0.44411E+01 SP= 0.00E+00 SK= 0.00E+00
   1898 T=   236. E= -.70089549E+03 F= -.70529287E+03 E0= -.70529287E+03  EK= 0.43974E+01 SP= 0.00E+00 SK= 0.00E+00
   1899 T=   226. E= -.70096585E+03 F= -.70517485E+03 E0= -.70517485E+03  EK= 0.42090E+01 SP= 0.00E+00 SK= 0.00E+00
   1900 T=   219. E= -.70095900E+03 F= -.70502838E+03 E0= -.70502838E+03  EK= 0.40694E+01 SP= 0.00E+00 SK= 0.00E+00
   1901 T=   216. E= -.70096003E+03 F= -.70498203E+03 E0= -.70498203E+03  EK= 0.40220E+01 SP= 0.00E+00 SK= 0.00E+00
   1902 T=   219. E= -.70097028E+03 F= -.70505223E+03 E0= -.70505223E+03  EK= 0.40819E+01 SP= 0.00E+00 SK= 0.00E+00
   1903 T=   227. E= -.70100043E+03 F= -.70521866E+03 E0= -.70521866E+03  EK= 0.42182E+01 SP= 0.00E+00 SK= 0.00E+00
   1904 T=   229. E= -.70106342E+03 F= -.70532633E+03 E0= -.70532633E+03  EK= 0.42629E+01 SP= 0.00E+00 SK= 0.00E+00
   1905 T=   226. E= -.70112392E+03 F= -.70532209E+03 E0= -.70532209E+03  EK= 0.41982E+01 SP= 0.00E+00 SK= 0.00E+00
   1906 T=   216. E= -.70118214E+03 F= -.70520676E+03 E0= -.70520676E+03  EK= 0.40246E+01 SP= 0.00E+00 SK= 0.00E+00
   1907 T=   206. E= -.70117228E+03 F= -.70500436E+03 E0= -.70500436E+03  EK= 0.38321E+01 SP= 0.00E+00 SK= 0.00E+00
       N       E                     dE             d eps       ncg     rms          rms(c)
DAV:   1    -0.681448084460E+03    0.15868E+02   -0.47594E+03 12190   0.154E+02
DAV:   2    -0.697323901157E+03   -0.15876E+02   -0.15870E+02 14268   0.250E+01
DAV:   3    -0.697485387918E+03   -0.16149E+00   -0.16147E+00 14620   0.274E+00
DAV:   4    -0.697488728110E+03   -0.33402E-02   -0.33400E-02 14388   0.378E-01    0.126E+01
DAV:   5    -0.696488854822E+03    0.99987E+00   -0.17927E+00 14356   0.405E+00    0.726E+00
DAV:   6    -0.696482426094E+03    0.64287E-02   -0.26441E+00 14660   0.438E+00    0.148E+00
DAV:   7    -0.696505360560E+03   -0.22934E-01   -0.46286E-01 13964   0.181E+00    0.696E-01
DAV:   8    -0.696502434142E+03    0.29264E-02   -0.43983E-02 14316   0.494E-01    0.374E-01
DAV:   9    -0.696499133555E+03    0.33006E-02   -0.12268E-02 14492   0.379E-01    0.198E-01
DAV:  10    -0.696496768342E+03    0.23652E-02   -0.35910E-03 14204   0.252E-01    0.745E-02
DAV:  11    -0.696496178097E+03    0.59025E-03   -0.26809E-03 14764   0.167E-01    0.619E-02
DAV:  12    -0.696495716942E+03    0.46115E-03   -0.43940E-04 13588   0.836E-02    0.323E-02
DAV:  13    -0.696495313141E+03    0.40380E-03   -0.36605E-04 12548   0.128E-01    0.323E-02
DAV:  14    -0.696495288710E+03    0.24431E-04   -0.42302E-04 13332   0.652E-02
   1908 T=   196. E= -.70119998E+03 F= -.70485195E+03 E0= -.70485195E+03  EK= 0.36520E+01 SP= 0.00E+00 SK= 0.00E+00
   1909 T=   198. E= -.70122229E+03 F= -.70490035E+03 E0= -.70490035E+03  EK= 0.36781E+01 SP= 0.00E+00 SK= 0.00E+00
   1910 T=   213. E= -.70110512E+03 F= -.70506816E+03 E0= -.70506816E+03  EK= 0.39630E+01 SP= 0.00E+00 SK= 0.00E+00
   1911 T=   232. E= -.70094825E+03 F= -.70527160E+03 E0= -.70527160E+03  EK= 0.43234E+01 SP= 0.00E+00 SK= 0.00E+00
   1912 T=   245. E= -.70085619E+03 F= -.70541514E+03 E0= -.70541514E+03  EK= 0.45589E+01 SP= 0.00E+00 SK= 0.00E+00
   1913 T=   242. E= -.70092576E+03 F= -.70543810E+03 E0= -.70543810E+03  EK= 0.45123E+01 SP= 0.00E+00 SK= 0.00E+00
   1914 T=   232. E= -.70100144E+03 F= -.70531805E+03 E0= -.70531805E+03  EK= 0.43166E+01 SP= 0.00E+00 SK= 0.00E+00
   1915 T=   224. E= -.70101338E+03 F= -.70518813E+03 E0= -.70518813E+03  EK= 0.41747E+01 SP= 0.00E+00 SK= 0.00E+00
   1916 T=   220. E= -.70103449E+03 F= -.70513302E+03 E0= -.70513302E+03  EK= 0.40985E+01 SP= 0.00E+00 SK= 0.00E+00
   1917 T=   225. E= -.70101549E+03 F= -.70520934E+03 E0= -.70520934E+03  EK= 0.41938E+01 SP= 0.00E+00 SK= 0.00E+00
       N       E                     dE             d eps       ncg     rms          rms(c)
DAV:   1    -0.693578791768E+03    0.29165E+01   -0.16517E+03 12190   0.921E+01
DAV:   2    -0.697795866768E+03   -0.42171E+01   -0.42161E+01 14468   0.134E+01
DAV:   3    -0.697839727324E+03   -0.43861E-01   -0.43858E-01 14636   0.140E+00
DAV:   4    -0.697840739760E+03   -0.10124E-02   -0.10124E-02 14412   0.203E-01    0.837E+00
DAV:   5    -0.697144366612E+03    0.69637E+00   -0.14255E+00 15444   0.377E+00    0.453E+00
DAV:   6    -0.697070156623E+03    0.74210E-01   -0.10464E+00 14700   0.291E+00    0.143E+00
DAV:   7    -0.697077995765E+03   -0.78391E-02   -0.23571E-01 14116   0.139E+00    0.555E-01
DAV:   8    -0.697072258332E+03    0.57374E-02   -0.24178E-02 14276   0.460E-01    0.271E-01
DAV:   9    -0.697068117039E+03    0.41413E-02   -0.86505E-03 13916   0.297E-01    0.132E-01
DAV:  10    -0.697066062214E+03    0.20548E-02   -0.22467E-03 16164   0.229E-01    0.576E-02
DAV:  11    -0.697065277297E+03    0.78492E-03   -0.17407E-03 14260   0.165E-01    0.617E-02
DAV:  12    -0.697064818429E+03    0.45887E-03   -0.77439E-04 14404   0.128E-01    0.340E-02
DAV:  13    -0.697064660576E+03    0.15785E-03   -0.25429E-04 11532   0.881E-02    0.335E-02
DAV:  14    -0.697064644542E+03    0.16034E-04   -0.35142E-04 13900   0.549E-02
   1918 T=   236. E= -.70102859E+03 F= -.70542560E+03 E0= -.70542560E+03  EK= 0.43970E+01 SP= 0.00E+00 SK= 0.00E+00
   1919 T=   247. E= -.70099407E+03 F= -.70560063E+03 E0= -.70560063E+03  EK= 0.46066E+01 SP= 0.00E+00 SK= 0.00E+00
   1920 T=   257. E= -.70091865E+03 F= -.70569360E+03 E0= -.70569360E+03  EK= 0.47749E+01 SP= 0.00E+00 SK= 0.00E+00
   1921 T=   258. E= -.70082849E+03 F= -.70562162E+03 E0= -.70562162E+03  EK= 0.47931E+01 SP= 0.00E+00 SK= 0.00E+00
   1922 T=   252. E= -.70073740E+03 F= -.70543452E+03 E0= -.70543452E+03  EK= 0.46971E+01 SP= 0.00E+00 SK= 0.00E+00
   1923 T=   244. E= -.70065681E+03 F= -.70520349E+03 E0= -.70520349E+03  EK= 0.45467E+01 SP= 0.00E+00 SK= 0.00E+00
   1924 T=   238. E= -.70060612E+03 F= -.70503026E+03 E0= -.70503026E+03  EK= 0.44241E+01 SP= 0.00E+00 SK= 0.00E+00
   1925 T=   239. E= -.70053233E+03 F= -.70498490E+03 E0= -.70498490E+03  EK= 0.44526E+01 SP= 0.00E+00 SK= 0.00E+00
   1926 T=   241. E= -.70054662E+03 F= -.70502710E+03 E0= -.70502710E+03  EK= 0.44805E+01 SP= 0.00E+00 SK= 0.00E+00
   1927 T=   241. E= -.70061510E+03 F= -.70509492E+03 E0= -.70509492E+03  EK= 0.44798E+01 SP= 0.00E+00 SK= 0.00E+00
       N       E                     dE             d eps       ncg     rms          rms(c)
DAV:   1    -0.692783906688E+03    0.42808E+01   -0.18308E+03 12190   0.968E+01
DAV:   2    -0.697449857423E+03   -0.46660E+01   -0.46649E+01 14404   0.140E+01
DAV:   3    -0.697499026069E+03   -0.49169E-01   -0.49166E-01 14652   0.149E+00
DAV:   4    -0.697500140112E+03   -0.11140E-02   -0.11140E-02 14500   0.215E-01    0.861E+00
DAV:   5    -0.696834214593E+03    0.66593E+00   -0.13948E+00 15076   0.370E+00    0.469E+00
DAV:   6    -0.696791106665E+03    0.43108E-01   -0.11028E+00 14492   0.270E+00    0.144E+00
DAV:   7    -0.696800694993E+03   -0.95883E-02   -0.21028E-01 14268   0.141E+00    0.508E-01
DAV:   8    -0.696797248591E+03    0.34464E-02   -0.27509E-02 14460   0.515E-01    0.238E-01
DAV:   9    -0.696794819608E+03    0.24290E-02   -0.97460E-03 13636   0.259E-01    0.152E-01
DAV:  10    -0.696793400674E+03    0.14189E-02   -0.28492E-03 16484   0.215E-01    0.449E-02
DAV:  11    -0.696793027551E+03    0.37312E-03   -0.10359E-03 14108   0.101E-01    0.449E-02
DAV:  12    -0.696792638798E+03    0.38875E-03   -0.20136E-04 10772   0.871E-02    0.173E-02
DAV:  13    -0.696792533876E+03    0.10492E-03   -0.33725E-04 13108   0.814E-02    0.279E-02
DAV:  14    -0.696792524013E+03    0.98623E-05   -0.21147E-04 11052   0.436E-02
   1928 T=   243. E= -.70062617E+03 F= -.70514608E+03 E0= -.70514608E+03  EK= 0.45199E+01 SP= 0.00E+00 SK= 0.00E+00
   1929 T=   247. E= -.70058533E+03 F= -.70519031E+03 E0= -.70519031E+03  EK= 0.46050E+01 SP= 0.00E+00 SK= 0.00E+00
   1930 T=   251. E= -.70049929E+03 F= -.70517488E+03 E0= -.70517488E+03  EK= 0.46756E+01 SP= 0.00E+00 SK= 0.00E+00
   1931 T=   249. E= -.70043042E+03 F= -.70505999E+03 E0= -.70505999E+03  EK= 0.46296E+01 SP= 0.00E+00 SK= 0.00E+00
   1932 T=   242. E= -.70040236E+03 F= -.70490545E+03 E0= -.70490545E+03  EK= 0.45031E+01 SP= 0.00E+00 SK= 0.00E+00
   1933 T=   237. E= -.70038986E+03 F= -.70480472E+03 E0= -.70480472E+03  EK= 0.44149E+01 SP= 0.00E+00 SK= 0.00E+00
   1934 T=   234. E= -.70045655E+03 F= -.70480929E+03 E0= -.70480929E+03  EK= 0.43527E+01 SP= 0.00E+00 SK= 0.00E+00
   1935 T=   232. E= -.70059461E+03 F= -.70491388E+03 E0= -.70491388E+03  EK= 0.43193E+01 SP= 0.00E+00 SK= 0.00E+00
   1936 T=   237. E= -.70065174E+03 F= -.70506836E+03 E0= -.70506836E+03  EK= 0.44166E+01 SP= 0.00E+00 SK= 0.00E+00
   1937 T=   240. E= -.70068150E+03 F= -.70514542E+03 E0= -.70514542E+03  EK= 0.44639E+01 SP= 0.00E+00 SK= 0.00E+00
       N       E                     dE             d eps       ncg     rms          rms(c)
DAV:   1    -0.692417943739E+03    0.43746E+01   -0.19314E+03 12190   0.992E+01
DAV:   2    -0.697390980578E+03   -0.49730E+01   -0.49718E+01 14460   0.145E+01
DAV:   3    -0.697441153863E+03   -0.50173E-01   -0.50171E-01 14668   0.151E+00
DAV:   4    -0.697442272442E+03   -0.11186E-02   -0.11186E-02 14476   0.216E-01    0.851E+00
DAV:   5    -0.696818126467E+03    0.62415E+00   -0.12775E+00 15100   0.340E+00    0.466E+00
DAV:   6    -0.696779737992E+03    0.38388E-01   -0.10375E+00 14492   0.257E+00    0.134E+00
DAV:   7    -0.696795983742E+03   -0.16246E-01   -0.17867E-01 14292   0.120E+00    0.506E-01
DAV:   8    -0.696794681610E+03    0.13021E-02   -0.18871E-02 14252   0.387E-01    0.246E-01
DAV:   9    -0.696793394203E+03    0.12874E-02   -0.65948E-03 13820   0.221E-01    0.117E-01
DAV:  10    -0.696792652613E+03    0.74159E-03   -0.14071E-03 16572   0.154E-01    0.379E-02
DAV:  11    -0.696792466983E+03    0.18563E-03   -0.64758E-04 14236   0.751E-02    0.343E-02
DAV:  12    -0.696792259527E+03    0.20746E-03   -0.96995E-05  9508   0.564E-02    0.125E-02
DAV:  13    -0.696792190922E+03    0.68605E-04   -0.16449E-04 10612   0.573E-02
   1938 T=   237. E= -.70071863E+03 F= -.70512534E+03 E0= -.70512534E+03  EK= 0.44067E+01 SP= 0.00E+00 SK= 0.00E+00
   1939 T=   232. E= -.70073829E+03 F= -.70506144E+03 E0= -.70506144E+03  EK= 0.43231E+01 SP= 0.00E+00 SK= 0.00E+00
   1940 T=   226. E= -.70074000E+03 F= -.70495197E+03 E0= -.70495197E+03  EK= 0.42120E+01 SP= 0.00E+00 SK= 0.00E+00
   1941 T=   227. E= -.70069122E+03 F= -.70490972E+03 E0= -.70490972E+03  EK= 0.42185E+01 SP= 0.00E+00 SK= 0.00E+00
   1942 T=   233. E= -.70060748E+03 F= -.70494637E+03 E0= -.70494637E+03  EK= 0.43389E+01 SP= 0.00E+00 SK= 0.00E+00
   1943 T=   240. E= -.70056033E+03 F= -.70502942E+03 E0= -.70502942E+03  EK= 0.44691E+01 SP= 0.00E+00 SK= 0.00E+00
   1944 T=   244. E= -.70052208E+03 F= -.70506936E+03 E0= -.70506936E+03  EK= 0.45473E+01 SP= 0.00E+00 SK= 0.00E+00
   1945 T=   247. E= -.70048002E+03 F= -.70507574E+03 E0= -.70507574E+03  EK= 0.45957E+01 SP= 0.00E+00 SK= 0.00E+00
   1946 T=   246. E= -.70048994E+03 F= -.70507177E+03 E0= -.70507177E+03  EK= 0.45818E+01 SP= 0.00E+00 SK= 0.00E+00
   1947 T=   245. E= -.70051038E+03 F= -.70506751E+03 E0= -.70506751E+03  EK= 0.45571E+01 SP= 0.00E+00 SK= 0.00E+00
       N       E                     dE             d eps       ncg     rms          rms(c)
DAV:   1    -0.692623170342E+03    0.41691E+01   -0.18610E+03 12190   0.973E+01
DAV:   2    -0.697611008593E+03   -0.49878E+01   -0.49866E+01 14468   0.144E+01
DAV:   3    -0.697661935963E+03   -0.50927E-01   -0.50925E-01 14644   0.151E+00
DAV:   4    -0.697663098115E+03   -0.11622E-02   -0.11621E-02 14500   0.217E-01    0.848E+00
DAV:   5    -0.696877691779E+03    0.78541E+00   -0.15680E+00 15564   0.392E+00    0.455E+00
DAV:   6    -0.696775726085E+03    0.10197E+00   -0.10358E+00 14692   0.283E+00    0.151E+00
DAV:   7    -0.696779364060E+03   -0.36380E-02   -0.22787E-01 14316   0.141E+00    0.545E-01
DAV:   8    -0.696772275559E+03    0.70885E-02   -0.25312E-02 14244   0.473E-01    0.258E-01
DAV:   9    -0.696766611410E+03    0.56641E-02   -0.75517E-03 13980   0.322E-01    0.119E-01
DAV:  10    -0.696764194744E+03    0.24167E-02   -0.31435E-03 16076   0.265E-01    0.583E-02
DAV:  11    -0.696763290583E+03    0.90416E-03   -0.18144E-03 14364   0.172E-01    0.610E-02
DAV:  12    -0.696762664176E+03    0.62641E-03   -0.54446E-04 13500   0.146E-01    0.248E-02
DAV:  13    -0.696762578842E+03    0.85333E-04   -0.57119E-04 14596   0.954E-02
   1948 T=   246. E= -.70050747E+03 F= -.70507737E+03 E0= -.70507737E+03  EK= 0.45699E+01 SP= 0.00E+00 SK= 0.00E+00
   1949 T=   249. E= -.70057334E+03 F= -.70520299E+03 E0= -.70520299E+03  EK= 0.46297E+01 SP= 0.00E+00 SK= 0.00E+00
   1950 T=   256. E= -.70054643E+03 F= -.70530452E+03 E0= -.70530452E+03  EK= 0.47581E+01 SP= 0.00E+00 SK= 0.00E+00
   1951 T=   257. E= -.70058443E+03 F= -.70537496E+03 E0= -.70537496E+03  EK= 0.47905E+01 SP= 0.00E+00 SK= 0.00E+00
   1952 T=   255. E= -.70067226E+03 F= -.70541252E+03 E0= -.70541252E+03  EK= 0.47403E+01 SP= 0.00E+00 SK= 0.00E+00
   1953 T=   254. E= -.70067760E+03 F= -.70539834E+03 E0= -.70539834E+03  EK= 0.47207E+01 SP= 0.00E+00 SK= 0.00E+00
   1954 T=   251. E= -.70068495E+03 F= -.70534779E+03 E0= -.70534779E+03  EK= 0.46628E+01 SP= 0.00E+00 SK= 0.00E+00
   1955 T=   247. E= -.70070473E+03 F= -.70531110E+03 E0= -.70531110E+03  EK= 0.46064E+01 SP= 0.00E+00 SK= 0.00E+00
   1956 T=   241. E= -.70074475E+03 F= -.70523588E+03 E0= -.70523588E+03  EK= 0.44911E+01 SP= 0.00E+00 SK= 0.00E+00
   1957 T=   234. E= -.70079499E+03 F= -.70515494E+03 E0= -.70515494E+03  EK= 0.43599E+01 SP= 0.00E+00 SK= 0.00E+00
       N       E                     dE             d eps       ncg     rms          rms(c)
DAV:   1    -0.691899830581E+03    0.48628E+01   -0.20386E+03 12190   0.102E+02
DAV:   2    -0.697458422322E+03   -0.55586E+01   -0.55572E+01 14348   0.152E+01
DAV:   3    -0.697514969390E+03   -0.56547E-01   -0.56544E-01 14644   0.158E+00
DAV:   4    -0.697516239036E+03   -0.12696E-02   -0.12696E-02 14460   0.227E-01    0.885E+00
DAV:   5    -0.696793456359E+03    0.72278E+00   -0.15245E+00 15172   0.381E+00    0.479E+00
DAV:   6    -0.696747051355E+03    0.46405E-01   -0.11217E+00 14580   0.273E+00    0.151E+00
DAV:   7    -0.696763972782E+03   -0.16921E-01   -0.22197E-01 14396   0.141E+00    0.555E-01
DAV:   8    -0.696762078892E+03    0.18939E-02   -0.26724E-02 14172   0.504E-01    0.259E-01
DAV:   9    -0.696761147102E+03    0.93179E-03   -0.10447E-02 13740   0.247E-01    0.149E-01
DAV:  10    -0.696760334127E+03    0.81298E-03   -0.20251E-03 16940   0.179E-01    0.414E-02
DAV:  11    -0.696760191160E+03    0.14297E-03   -0.87131E-04 14092   0.851E-02    0.398E-02
DAV:  12    -0.696760039766E+03    0.15139E-03   -0.10983E-04  9804   0.539E-02    0.154E-02
DAV:  13    -0.696759978841E+03    0.60924E-04   -0.17221E-04 10268   0.577E-02
   1958 T=   235. E= -.70072118E+03 F= -.70508889E+03 E0= -.70508889E+03  EK= 0.43677E+01 SP= 0.00E+00 SK= 0.00E+00
   1959 T=   234. E= -.70079754E+03 F= -.70515596E+03 E0= -.70515596E+03  EK= 0.43584E+01 SP= 0.00E+00 SK= 0.00E+00
   1960 T=   230. E= -.70091327E+03 F= -.70518738E+03 E0= -.70518738E+03  EK= 0.42741E+01 SP= 0.00E+00 SK= 0.00E+00
   1961 T=   229. E= -.70094700E+03 F= -.70520743E+03 E0= -.70520743E+03  EK= 0.42604E+01 SP= 0.00E+00 SK= 0.00E+00
   1962 T=   234. E= -.70085846E+03 F= -.70521330E+03 E0= -.70521330E+03  EK= 0.43548E+01 SP= 0.00E+00 SK= 0.00E+00
   1963 T=   235. E= -.70080961E+03 F= -.70518296E+03 E0= -.70518296E+03  EK= 0.43733E+01 SP= 0.00E+00 SK= 0.00E+00
   1964 T=   229. E= -.70089202E+03 F= -.70514718E+03 E0= -.70514718E+03  EK= 0.42552E+01 SP= 0.00E+00 SK= 0.00E+00
   1965 T=   224. E= -.70093950E+03 F= -.70511587E+03 E0= -.70511587E+03  EK= 0.41764E+01 SP= 0.00E+00 SK= 0.00E+00
   1966 T=   227. E= -.70092703E+03 F= -.70514740E+03 E0= -.70514740E+03  EK= 0.42204E+01 SP= 0.00E+00 SK= 0.00E+00
   1967 T=   234. E= -.70091418E+03 F= -.70526886E+03 E0= -.70526886E+03  EK= 0.43547E+01 SP= 0.00E+00 SK= 0.00E+00
   1968 T=   236. E= -.70099178E+03 F= -.70539030E+03 E0= -.70539030E+03  EK= 0.43985E+01 SP= 0.00E+00 SK= 0.00E+00
   1969 T=   239. E= -.70103813E+03 F= -.70547775E+03 E0= -.70547775E+03  EK= 0.44396E+01 SP= 0.00E+00 SK= 0.00E+00
   1970 T=   236. E= -.70107306E+03 F= -.70547062E+03 E0= -.70547062E+03  EK= 0.43976E+01 SP= 0.00E+00 SK= 0.00E+00
       N       E                     dE             d eps       ncg     rms          rms(c)
DAV:   1    -0.689401692326E+03    0.73583E+01   -0.29595E+03 12190   0.121E+02
DAV:   2    -0.697908245530E+03   -0.85066E+01   -0.85038E+01 14300   0.185E+01
DAV:   3    -0.697999788533E+03   -0.91543E-01   -0.91537E-01 14628   0.200E+00
DAV:   4    -0.698001837023E+03   -0.20485E-02   -0.20484E-02 14452   0.284E-01    0.978E+00
DAV:   5    -0.697107646506E+03    0.89419E+00   -0.15368E+00 15668   0.403E+00    0.546E+00
DAV:   6    -0.697017964793E+03    0.89682E-01   -0.15546E+00 14692   0.331E+00    0.148E+00
DAV:   7    -0.697031610600E+03   -0.13646E-01   -0.28206E-01 14076   0.156E+00    0.556E-01
DAV:   8    -0.697028348902E+03    0.32617E-02   -0.30336E-02 14356   0.479E-01    0.308E-01
DAV:   9    -0.697025530488E+03    0.28184E-02   -0.15088E-02 13988   0.359E-01    0.201E-01
DAV:  10    -0.697023603686E+03    0.19268E-02   -0.41923E-03 16852   0.271E-01    0.621E-02
DAV:  11    -0.697023166724E+03    0.43696E-03   -0.20207E-03 14436   0.141E-01    0.541E-02
DAV:  12    -0.697022698001E+03    0.46872E-03   -0.21310E-04 10780   0.956E-02    0.266E-02
DAV:  13    -0.697022436653E+03    0.26135E-03   -0.42528E-04 12996   0.122E-01    0.283E-02
DAV:  14    -0.697022422403E+03    0.14250E-04   -0.41402E-04 13724   0.684E-02
   1971 T=   227. E= -.70111870E+03 F= -.70534783E+03 E0= -.70534783E+03  EK= 0.42291E+01 SP= 0.00E+00 SK= 0.00E+00
   1972 T=   215. E= -.70122559E+03 F= -.70522334E+03 E0= -.70522334E+03  EK= 0.39978E+01 SP= 0.00E+00 SK= 0.00E+00
   1973 T=   208. E= -.70123622E+03 F= -.70510098E+03 E0= -.70510098E+03  EK= 0.38648E+01 SP= 0.00E+00 SK= 0.00E+00
   1974 T=   211. E= -.70114802E+03 F= -.70507465E+03 E0= -.70507465E+03  EK= 0.39266E+01 SP= 0.00E+00 SK= 0.00E+00
   1975 T=   217. E= -.70108222E+03 F= -.70512273E+03 E0= -.70512273E+03  EK= 0.40405E+01 SP= 0.00E+00 SK= 0.00E+00
   1976 T=   224. E= -.70100773E+03 F= -.70517153E+03 E0= -.70517153E+03  EK= 0.41638E+01 SP= 0.00E+00 SK= 0.00E+00
   1977 T=   227. E= -.70097167E+03 F= -.70519722E+03 E0= -.70519722E+03  EK= 0.42256E+01 SP= 0.00E+00 SK= 0.00E+00
   1978 T=   225. E= -.70098058E+03 F= -.70516404E+03 E0= -.70516404E+03  EK= 0.41835E+01 SP= 0.00E+00 SK= 0.00E+00
   1979 T=   222. E= -.70096274E+03 F= -.70509045E+03 E0= -.70509045E+03  EK= 0.41277E+01 SP= 0.00E+00 SK= 0.00E+00
   1980 T=   220. E= -.70096022E+03 F= -.70504958E+03 E0= -.70504958E+03  EK= 0.40894E+01 SP= 0.00E+00 SK= 0.00E+00
       N       E                     dE             d eps       ncg     rms          rms(c)
DAV:   1    -0.692569078338E+03    0.44534E+01   -0.17971E+03 12190   0.953E+01
DAV:   2    -0.697386531910E+03   -0.48175E+01   -0.48162E+01 14412   0.142E+01
DAV:   3    -0.697437644944E+03   -0.51113E-01   -0.51110E-01 14644   0.152E+00
DAV:   4    -0.697438813183E+03   -0.11682E-02   -0.11682E-02 14476   0.219E-01    0.828E+00
DAV:   5    -0.696748787291E+03    0.69003E+00   -0.12121E+00 15524   0.344E+00    0.455E+00
DAV:   6    -0.696675454850E+03    0.73332E-01   -0.11836E+00 14700   0.289E+00    0.123E+00
DAV:   7    -0.696688782561E+03   -0.13328E-01   -0.21915E-01 13900   0.128E+00    0.516E-01
DAV:   8    -0.696686709147E+03    0.20734E-02   -0.18727E-02 14180   0.377E-01    0.266E-01
DAV:   9    -0.696685083263E+03    0.16259E-02   -0.81083E-03 13932   0.284E-01    0.140E-01
DAV:  10    -0.696684090921E+03    0.99234E-03   -0.19995E-03 16108   0.177E-01    0.471E-02
DAV:  11    -0.696683816408E+03    0.27451E-03   -0.96377E-04 14300   0.101E-01    0.391E-02
DAV:  12    -0.696683589993E+03    0.22642E-03   -0.17854E-04 10356   0.779E-02    0.167E-02
DAV:  13    -0.696683504774E+03    0.85219E-04   -0.20388E-04 10652   0.730E-02
   1981 T=   222. E= -.70089363E+03 F= -.70502560E+03 E0= -.70502560E+03  EK= 0.41320E+01 SP= 0.00E+00 SK= 0.00E+00
   1982 T=   226. E= -.70087626E+03 F= -.70509146E+03 E0= -.70509146E+03  EK= 0.42152E+01 SP= 0.00E+00 SK= 0.00E+00
   1983 T=   231. E= -.70085451E+03 F= -.70515426E+03 E0= -.70515426E+03  EK= 0.42998E+01 SP= 0.00E+00 SK= 0.00E+00
   1984 T=   235. E= -.70084400E+03 F= -.70522279E+03 E0= -.70522279E+03  EK= 0.43788E+01 SP= 0.00E+00 SK= 0.00E+00
   1985 T=   236. E= -.70081595E+03 F= -.70521598E+03 E0= -.70521598E+03  EK= 0.44000E+01 SP= 0.00E+00 SK= 0.00E+00
   1986 T=   231. E= -.70082778E+03 F= -.70513387E+03 E0= -.70513387E+03  EK= 0.43061E+01 SP= 0.00E+00 SK= 0.00E+00
   1987 T=   225. E= -.70080435E+03 F= -.70498812E+03 E0= -.70498812E+03  EK= 0.41838E+01 SP= 0.00E+00 SK= 0.00E+00
   1988 T=   219. E= -.70080733E+03 F= -.70487505E+03 E0= -.70487505E+03  EK= 0.40677E+01 SP= 0.00E+00 SK= 0.00E+00
   1989 T=   219. E= -.70083994E+03 F= -.70491897E+03 E0= -.70491897E+03  EK= 0.40790E+01 SP= 0.00E+00 SK= 0.00E+00
   1990 T=   230. E= -.70083146E+03 F= -.70511861E+03 E0= -.70511861E+03  EK= 0.42871E+01 SP= 0.00E+00 SK= 0.00E+00
   1991 T=   239. E= -.70088716E+03 F= -.70533974E+03 E0= -.70533974E+03  EK= 0.44526E+01 SP= 0.00E+00 SK= 0.00E+00
   1992 T=   245. E= -.70086057E+03 F= -.70542874E+03 E0= -.70542874E+03  EK= 0.45682E+01 SP= 0.00E+00 SK= 0.00E+00
   1993 T=   244. E= -.70080961E+03 F= -.70534878E+03 E0= -.70534878E+03  EK= 0.45392E+01 SP= 0.00E+00 SK= 0.00E+00
   1994 T=   235. E= -.70079054E+03 F= -.70516001E+03 E0= -.70516001E+03  EK= 0.43695E+01 SP= 0.00E+00 SK= 0.00E+00
   1995 T=   229. E= -.70078282E+03 F= -.70504048E+03 E0= -.70504048E+03  EK= 0.42577E+01 SP= 0.00E+00 SK= 0.00E+00
   1996 T=   235. E= -.70073205E+03 F= -.70509844E+03 E0= -.70509844E+03  EK= 0.43664E+01 SP= 0.00E+00 SK= 0.00E+00
   1997 T=   248. E= -.70069785E+03 F= -.70531534E+03 E0= -.70531534E+03  EK= 0.46175E+01 SP= 0.00E+00 SK= 0.00E+00
   1998 T=   262. E= -.70069395E+03 F= -.70557477E+03 E0= -.70557477E+03  EK= 0.48808E+01 SP= 0.00E+00 SK= 0.00E+00
   1999 T=   274. E= -.70067863E+03 F= -.70577083E+03 E0= -.70577083E+03  EK= 0.50922E+01 SP= 0.00E+00 SK= 0.00E+00
   2000 T=   274. E= -.70069628E+03 F= -.70579337E+03 E0= -.70579337E+03  EK= 0.50971E+01 SP= 0.00E+00 SK= 0.00E+00
   2001 T=   265. E= -.70069030E+03 F= -.70562621E+03 E0= -.70562621E+03  EK= 0.49359E+01 SP= 0.00E+00 SK= 0.00E+00
   2002 T=   249. E= -.70070495E+03 F= -.70533398E+03 E0= -.70533398E+03  EK= 0.46290E+01 SP= 0.00E+00 SK= 0.00E+00
       N       E                     dE             d eps       ncg     rms          rms(c)
DAV:   1    -0.673072488106E+03    0.23611E+02   -0.64699E+03 12190   0.178E+02
DAV:   2    -0.698172963078E+03   -0.25100E+02   -0.25088E+02 14380   0.312E+01
DAV:   3    -0.698438337442E+03   -0.26537E+00   -0.26535E+00 14628   0.350E+00
DAV:   4    -0.698443595598E+03   -0.52582E-02   -0.52579E-02 14412   0.478E-01    0.144E+01
DAV:   5    -0.696838604604E+03    0.16050E+01   -0.26435E+00 14588   0.487E+00    0.825E+00
DAV:   6    -0.696688564502E+03    0.15004E+00   -0.34338E+00 14644   0.492E+00    0.177E+00
DAV:   7    -0.696723537762E+03   -0.34973E-01   -0.58430E-01 13956   0.201E+00    0.840E-01
DAV:   8    -0.696718908412E+03    0.46293E-02   -0.61786E-02 14060   0.590E-01    0.447E-01
DAV:   9    -0.696714488310E+03    0.44201E-02   -0.18250E-02 14244   0.455E-01    0.228E-01
DAV:  10    -0.696711776870E+03    0.27114E-02   -0.52220E-03 14172   0.273E-01    0.757E-02
DAV:  11    -0.696711282091E+03    0.49478E-03   -0.27422E-03 14756   0.150E-01    0.625E-02
DAV:  12    -0.696710875838E+03    0.40625E-03   -0.40535E-04 13204   0.777E-02    0.296E-02
DAV:  13    -0.696710544784E+03    0.33105E-03   -0.29668E-04 11932   0.109E-01    0.304E-02
DAV:  14    -0.696710510576E+03    0.34208E-04   -0.32456E-04 13148   0.600E-02
   2003 T=   233. E= -.70074068E+03 F= -.70507113E+03 E0= -.70507113E+03  EK= 0.43304E+01 SP= 0.00E+00 SK= 0.00E+00
   2004 T=   230. E= -.70069852E+03 F= -.70497702E+03 E0= -.70497702E+03  EK= 0.42785E+01 SP= 0.00E+00 SK= 0.00E+00
   2005 T=   244. E= -.70056908E+03 F= -.70511661E+03 E0= -.70511661E+03  EK= 0.45475E+01 SP= 0.00E+00 SK= 0.00E+00
   2006 T=   254. E= -.70059805E+03 F= -.70533384E+03 E0= -.70533384E+03  EK= 0.47358E+01 SP= 0.00E+00 SK= 0.00E+00
   2007 T=   257. E= -.70066774E+03 F= -.70545101E+03 E0= -.70545101E+03  EK= 0.47833E+01 SP= 0.00E+00 SK= 0.00E+00
   2008 T=   255. E= -.70064721E+03 F= -.70538905E+03 E0= -.70538905E+03  EK= 0.47418E+01 SP= 0.00E+00 SK= 0.00E+00
   2009 T=   241. E= -.70068520E+03 F= -.70516714E+03 E0= -.70516714E+03  EK= 0.44819E+01 SP= 0.00E+00 SK= 0.00E+00
   2010 T=   223. E= -.70075868E+03 F= -.70490044E+03 E0= -.70490044E+03  EK= 0.41418E+01 SP= 0.00E+00 SK= 0.00E+00
   2011 T=   214. E= -.70080201E+03 F= -.70477716E+03 E0= -.70477716E+03  EK= 0.39751E+01 SP= 0.00E+00 SK= 0.00E+00
   2012 T=   216. E= -.70085115E+03 F= -.70486613E+03 E0= -.70486613E+03  EK= 0.40150E+01 SP= 0.00E+00 SK= 0.00E+00
       N       E                     dE             d eps       ncg     rms          rms(c)
DAV:   1    -0.692026207120E+03    0.46843E+01   -0.19495E+03 12190   0.991E+01
DAV:   2    -0.697465192688E+03   -0.54390E+01   -0.54375E+01 14508   0.151E+01
DAV:   3    -0.697519936624E+03   -0.54744E-01   -0.54741E-01 14644   0.158E+00
DAV:   4    -0.697521116813E+03   -0.11802E-02   -0.11802E-02 14492   0.225E-01    0.885E+00
DAV:   5    -0.696786023122E+03    0.73509E+00   -0.13720E+00 15084   0.358E+00    0.485E+00
DAV:   6    -0.696728968595E+03    0.57055E-01   -0.12627E+00 14692   0.285E+00    0.135E+00
DAV:   7    -0.696742841129E+03   -0.13873E-01   -0.22346E-01 14196   0.144E+00    0.508E-01
DAV:   8    -0.696742072779E+03    0.76835E-03   -0.26850E-02 13988   0.472E-01    0.251E-01
DAV:   9    -0.696741346809E+03    0.72597E-03   -0.94222E-03 13932   0.243E-01    0.160E-01
DAV:  10    -0.696740428151E+03    0.91866E-03   -0.24842E-03 16844   0.205E-01    0.392E-02
DAV:  11    -0.696740308836E+03    0.11932E-03   -0.93781E-04 14324   0.838E-02    0.368E-02
DAV:  12    -0.696740161445E+03    0.14739E-03   -0.96356E-05  9644   0.447E-02    0.171E-02
DAV:  13    -0.696740080429E+03    0.81016E-04   -0.14152E-04 10132   0.579E-02
   2013 T=   225. E= -.70091253E+03 F= -.70510018E+03 E0= -.70510018E+03  EK= 0.41877E+01 SP= 0.00E+00 SK= 0.00E+00
   2014 T=   237. E= -.70085303E+03 F= -.70526578E+03 E0= -.70526578E+03  EK= 0.44128E+01 SP= 0.00E+00 SK= 0.00E+00
   2015 T=   240. E= -.70081137E+03 F= -.70527696E+03 E0= -.70527696E+03  EK= 0.44656E+01 SP= 0.00E+00 SK= 0.00E+00
   2016 T=   228. E= -.70086504E+03 F= -.70510231E+03 E0= -.70510231E+03  EK= 0.42373E+01 SP= 0.00E+00 SK= 0.00E+00
   2017 T=   221. E= -.70076296E+03 F= -.70487695E+03 E0= -.70487695E+03  EK= 0.41140E+01 SP= 0.00E+00 SK= 0.00E+00
   2018 T=   220. E= -.70061079E+03 F= -.70471252E+03 E0= -.70471252E+03  EK= 0.41017E+01 SP= 0.00E+00 SK= 0.00E+00
   2019 T=   222. E= -.70054031E+03 F= -.70468170E+03 E0= -.70468170E+03  EK= 0.41414E+01 SP= 0.00E+00 SK= 0.00E+00
   2020 T=   232. E= -.70044092E+03 F= -.70476231E+03 E0= -.70476231E+03  EK= 0.43214E+01 SP= 0.00E+00 SK= 0.00E+00
   2021 T=   239. E= -.70042278E+03 F= -.70487092E+03 E0= -.70487092E+03  EK= 0.44481E+01 SP= 0.00E+00 SK= 0.00E+00
   2022 T=   242. E= -.70043158E+03 F= -.70493533E+03 E0= -.70493533E+03  EK= 0.45037E+01 SP= 0.00E+00 SK= 0.00E+00
       N       E                     dE             d eps       ncg     rms          rms(c)
DAV:   1    -0.692540353222E+03    0.41998E+01   -0.18329E+03 12190   0.966E+01
DAV:   2    -0.697214413622E+03   -0.46741E+01   -0.46730E+01 14404   0.141E+01
DAV:   3    -0.697262996084E+03   -0.48582E-01   -0.48580E-01 14636   0.147E+00
DAV:   4    -0.697264103178E+03   -0.11071E-02   -0.11071E-02 14500   0.214E-01    0.835E+00
DAV:   5    -0.696614948374E+03    0.64915E+00   -0.13171E+00 15420   0.366E+00    0.453E+00
DAV:   6    -0.696571743577E+03    0.43205E-01   -0.10412E+00 14684   0.273E+00    0.138E+00
DAV:   7    -0.696583236825E+03   -0.11493E-01   -0.20037E-01 14252   0.131E+00    0.476E-01
DAV:   8    -0.696580693933E+03    0.25429E-02   -0.19138E-02 14436   0.427E-01    0.247E-01
DAV:   9    -0.696578843139E+03    0.18508E-02   -0.10779E-02 13860   0.300E-01    0.159E-01
DAV:  10    -0.696577804088E+03    0.10391E-02   -0.25111E-03 16444   0.189E-01    0.549E-02
DAV:  11    -0.696577464518E+03    0.33957E-03   -0.11069E-03 13964   0.103E-01    0.420E-02
DAV:  12    -0.696577205482E+03    0.25904E-03   -0.17767E-04 10476   0.839E-02    0.211E-02
DAV:  13    -0.696577084017E+03    0.12146E-03   -0.23982E-04 11252   0.804E-02    0.173E-02
DAV:  14    -0.696577077681E+03    0.63367E-05   -0.15813E-04 10620   0.377E-02
   2023 T=   244. E= -.70037273E+03 F= -.70491246E+03 E0= -.70491246E+03  EK= 0.45397E+01 SP= 0.00E+00 SK= 0.00E+00
   2024 T=   240. E= -.70036951E+03 F= -.70483563E+03 E0= -.70483563E+03  EK= 0.44661E+01 SP= 0.00E+00 SK= 0.00E+00
   2025 T=   232. E= -.70035799E+03 F= -.70468490E+03 E0= -.70468490E+03  EK= 0.43269E+01 SP= 0.00E+00 SK= 0.00E+00
   2026 T=   227. E= -.70035759E+03 F= -.70458987E+03 E0= -.70458987E+03  EK= 0.42323E+01 SP= 0.00E+00 SK= 0.00E+00
   2027 T=   227. E= -.70037429E+03 F= -.70459358E+03 E0= -.70459358E+03  EK= 0.42193E+01 SP= 0.00E+00 SK= 0.00E+00
   2028 T=   228. E= -.70043041E+03 F= -.70467050E+03 E0= -.70467050E+03  EK= 0.42401E+01 SP= 0.00E+00 SK= 0.00E+00
   2029 T=   231. E= -.70043026E+03 F= -.70473743E+03 E0= -.70473743E+03  EK= 0.43072E+01 SP= 0.00E+00 SK= 0.00E+00
   2030 T=   230. E= -.70045541E+03 F= -.70474319E+03 E0= -.70474319E+03  EK= 0.42878E+01 SP= 0.00E+00 SK= 0.00E+00
   2031 T=   229. E= -.70048250E+03 F= -.70474021E+03 E0= -.70474021E+03  EK= 0.42577E+01 SP= 0.00E+00 SK= 0.00E+00
   2032 T=   232. E= -.70047212E+03 F= -.70478534E+03 E0= -.70478534E+03  EK= 0.43132E+01 SP= 0.00E+00 SK= 0.00E+00
       N       E                     dE             d eps       ncg     rms          rms(c)
DAV:   1    -0.692623622718E+03    0.39535E+01   -0.17290E+03 12190   0.937E+01
DAV:   2    -0.697042970237E+03   -0.44193E+01   -0.44183E+01 14436   0.136E+01
DAV:   3    -0.697088254187E+03   -0.45284E-01   -0.45282E-01 14636   0.142E+00
DAV:   4    -0.697089282041E+03   -0.10279E-02   -0.10278E-02 14428   0.204E-01    0.816E+00
DAV:   5    -0.696541632634E+03    0.54765E+00   -0.11589E+00 15004   0.335E+00    0.450E+00
DAV:   6    -0.696512548409E+03    0.29084E-01   -0.95111E-01 14564   0.260E+00    0.133E+00
DAV:   7    -0.696523501561E+03   -0.10953E-01   -0.18558E-01 14084   0.126E+00    0.486E-01
DAV:   8    -0.696521092961E+03    0.24086E-02   -0.20439E-02 13916   0.424E-01    0.224E-01
DAV:   9    -0.696519621229E+03    0.14717E-02   -0.72318E-03 13940   0.231E-01    0.128E-01
DAV:  10    -0.696518703095E+03    0.91813E-03   -0.18899E-03 16412   0.168E-01    0.397E-02
DAV:  11    -0.696518448647E+03    0.25445E-03   -0.64338E-04 14028   0.793E-02    0.354E-02
DAV:  12    -0.696518240581E+03    0.20807E-03   -0.12459E-04  9740   0.592E-02    0.155E-02
DAV:  13    -0.696518173836E+03    0.66745E-04   -0.19853E-04 10820   0.585E-02
   2033 T=   236. E= -.70047888E+03 F= -.70486471E+03 E0= -.70486471E+03  EK= 0.43858E+01 SP= 0.00E+00 SK= 0.00E+00
   2034 T=   239. E= -.70052119E+03 F= -.70496330E+03 E0= -.70496330E+03  EK= 0.44421E+01 SP= 0.00E+00 SK= 0.00E+00
   2035 T=   242. E= -.70057388E+03 F= -.70507947E+03 E0= -.70507947E+03  EK= 0.45056E+01 SP= 0.00E+00 SK= 0.00E+00
   2036 T=   246. E= -.70059516E+03 F= -.70517075E+03 E0= -.70517075E+03  EK= 0.45756E+01 SP= 0.00E+00 SK= 0.00E+00
   2037 T=   249. E= -.70058960E+03 F= -.70522459E+03 E0= -.70522459E+03  EK= 0.46350E+01 SP= 0.00E+00 SK= 0.00E+00
   2038 T=   252. E= -.70053406E+03 F= -.70521671E+03 E0= -.70521671E+03  EK= 0.46827E+01 SP= 0.00E+00 SK= 0.00E+00
   2039 T=   254. E= -.70046329E+03 F= -.70518641E+03 E0= -.70518641E+03  EK= 0.47231E+01 SP= 0.00E+00 SK= 0.00E+00
   2040 T=   255. E= -.70040655E+03 F= -.70515909E+03 E0= -.70515909E+03  EK= 0.47525E+01 SP= 0.00E+00 SK= 0.00E+00
   2041 T=   257. E= -.70033515E+03 F= -.70512504E+03 E0= -.70512504E+03  EK= 0.47899E+01 SP= 0.00E+00 SK= 0.00E+00
   2042 T=   255. E= -.70038212E+03 F= -.70512013E+03 E0= -.70512013E+03  EK= 0.47380E+01 SP= 0.00E+00 SK= 0.00E+00
   2043 T=   248. E= -.70053803E+03 F= -.70514922E+03 E0= -.70514922E+03  EK= 0.46112E+01 SP= 0.00E+00 SK= 0.00E+00
   2044 T=   248. E= -.70059108E+03 F= -.70521046E+03 E0= -.70521046E+03  EK= 0.46194E+01 SP= 0.00E+00 SK= 0.00E+00
       N       E                     dE             d eps       ncg     rms          rms(c)
DAV:   1    -0.690444889715E+03    0.60734E+01   -0.25850E+03 12190   0.114E+02
DAV:   2    -0.697476545470E+03   -0.70317E+01   -0.70297E+01 14364   0.168E+01
DAV:   3    -0.697550149826E+03   -0.73604E-01   -0.73600E-01 14612   0.180E+00
DAV:   4    -0.697551841598E+03   -0.16918E-02   -0.16917E-02 14452   0.257E-01    0.936E+00
DAV:   5    -0.696921667586E+03    0.63017E+00   -0.11320E+00 14188   0.308E+00    0.532E+00
DAV:   6    -0.696880777372E+03    0.40890E-01   -0.13517E+00 14644   0.295E+00    0.119E+00
DAV:   7    -0.696891803047E+03   -0.11026E-01   -0.24393E-01 14076   0.139E+00    0.533E-01
DAV:   8    -0.696888505163E+03    0.32979E-02   -0.23307E-02 14068   0.403E-01    0.290E-01
DAV:   9    -0.696885945927E+03    0.25592E-02   -0.12155E-02 13836   0.307E-01    0.172E-01
DAV:  10    -0.696884445056E+03    0.15009E-02   -0.28689E-03 17540   0.215E-01    0.600E-02
DAV:  11    -0.696884125120E+03    0.31994E-03   -0.15449E-03 14148   0.114E-01    0.519E-02
DAV:  12    -0.696883774772E+03    0.35035E-03   -0.22980E-04 10716   0.774E-02    0.204E-02
DAV:  13    -0.696883665218E+03    0.10955E-03   -0.30574E-04 12404   0.719E-02    0.266E-02
DAV:  14    -0.696883644634E+03    0.20584E-04   -0.13855E-04 10388   0.398E-02
   2045 T=   253. E= -.70049927E+03 F= -.70520978E+03 E0= -.70520978E+03  EK= 0.47105E+01 SP= 0.00E+00 SK= 0.00E+00
   2046 T=   255. E= -.70050891E+03 F= -.70526119E+03 E0= -.70526119E+03  EK= 0.47523E+01 SP= 0.00E+00 SK= 0.00E+00
   2047 T=   253. E= -.70055257E+03 F= -.70526830E+03 E0= -.70526830E+03  EK= 0.47157E+01 SP= 0.00E+00 SK= 0.00E+00
   2048 T=   252. E= -.70056222E+03 F= -.70525326E+03 E0= -.70525326E+03  EK= 0.46910E+01 SP= 0.00E+00 SK= 0.00E+00
   2049 T=   251. E= -.70056883E+03 F= -.70523278E+03 E0= -.70523278E+03  EK= 0.46639E+01 SP= 0.00E+00 SK= 0.00E+00
   2050 T=   248. E= -.70059610E+03 F= -.70520459E+03 E0= -.70520459E+03  EK= 0.46085E+01 SP= 0.00E+00 SK= 0.00E+00
   2051 T=   248. E= -.70064082E+03 F= -.70525367E+03 E0= -.70525367E+03  EK= 0.46128E+01 SP= 0.00E+00 SK= 0.00E+00
   2052 T=   253. E= -.70069079E+03 F= -.70540318E+03 E0= -.70540318E+03  EK= 0.47124E+01 SP= 0.00E+00 SK= 0.00E+00
   2053 T=   263. E= -.70071033E+03 F= -.70560353E+03 E0= -.70560353E+03  EK= 0.48932E+01 SP= 0.00E+00 SK= 0.00E+00
   2054 T=   271. E= -.70068732E+03 F= -.70572407E+03 E0= -.70572407E+03  EK= 0.50368E+01 SP= 0.00E+00 SK= 0.00E+00
   2055 T=   268. E= -.70067347E+03 F= -.70566798E+03 E0= -.70566798E+03  EK= 0.49945E+01 SP= 0.00E+00 SK= 0.00E+00
   2056 T=   252. E= -.70079043E+03 F= -.70547859E+03 E0= -.70547859E+03  EK= 0.46882E+01 SP= 0.00E+00 SK= 0.00E+00
   2057 T=   232. E= -.70094502E+03 F= -.70526870E+03 E0= -.70526870E+03  EK= 0.43237E+01 SP= 0.00E+00 SK= 0.00E+00
   2058 T=   223. E= -.70100099E+03 F= -.70514405E+03 E0= -.70514405E+03  EK= 0.41431E+01 SP= 0.00E+00 SK= 0.00E+00
   2059 T=   222. E= -.70099148E+03 F= -.70512952E+03 E0= -.70512952E+03  EK= 0.41380E+01 SP= 0.00E+00 SK= 0.00E+00
   2060 T=   221. E= -.70101551E+03 F= -.70513611E+03 E0= -.70513611E+03  EK= 0.41206E+01 SP= 0.00E+00 SK= 0.00E+00
   2061 T=   216. E= -.70109667E+03 F= -.70512133E+03 E0= -.70512133E+03  EK= 0.40247E+01 SP= 0.00E+00 SK= 0.00E+00
   2062 T=   212. E= -.70116392E+03 F= -.70511089E+03 E0= -.70511089E+03  EK= 0.39470E+01 SP= 0.00E+00 SK= 0.00E+00
   2063 T=   215. E= -.70111914E+03 F= -.70511904E+03 E0= -.70511904E+03  EK= 0.39999E+01 SP= 0.00E+00 SK= 0.00E+00
   2064 T=   223. E= -.70100775E+03 F= -.70515859E+03 E0= -.70515859E+03  EK= 0.41508E+01 SP= 0.00E+00 SK= 0.00E+00
   2065 T=   227. E= -.70094433E+03 F= -.70517353E+03 E0= -.70517353E+03  EK= 0.42292E+01 SP= 0.00E+00 SK= 0.00E+00
   2066 T=   230. E= -.70088293E+03 F= -.70516471E+03 E0= -.70516471E+03  EK= 0.42818E+01 SP= 0.00E+00 SK= 0.00E+00
   2067 T=   230. E= -.70086008E+03 F= -.70514274E+03 E0= -.70514274E+03  EK= 0.42827E+01 SP= 0.00E+00 SK= 0.00E+00
   2068 T=   226. E= -.70091151E+03 F= -.70512626E+03 E0= -.70512626E+03  EK= 0.42147E+01 SP= 0.00E+00 SK= 0.00E+00
   2069 T=   226. E= -.70093589E+03 F= -.70514026E+03 E0= -.70514026E+03  EK= 0.42044E+01 SP= 0.00E+00 SK= 0.00E+00
   2070 T=   232. E= -.70088188E+03 F= -.70520127E+03 E0= -.70520127E+03  EK= 0.43194E+01 SP= 0.00E+00 SK= 0.00E+00
   2071 T=   240. E= -.70078271E+03 F= -.70524609E+03 E0= -.70524609E+03  EK= 0.44634E+01 SP= 0.00E+00 SK= 0.00E+00
   2072 T=   242. E= -.70074109E+03 F= -.70523836E+03 E0= -.70523836E+03  EK= 0.44973E+01 SP= 0.00E+00 SK= 0.00E+00
   2073 T=   239. E= -.70075169E+03 F= -.70519415E+03 E0= -.70519415E+03  EK= 0.44425E+01 SP= 0.00E+00 SK= 0.00E+00
   2074 T=   236. E= -.70076121E+03 F= -.70515310E+03 E0= -.70515310E+03  EK= 0.43919E+01 SP= 0.00E+00 SK= 0.00E+00
   2075 T=   234. E= -.70076229E+03 F= -.70512409E+03 E0= -.70512409E+03  EK= 0.43618E+01 SP= 0.00E+00 SK= 0.00E+00
   2076 T=   230. E= -.70078821E+03 F= -.70507672E+03 E0= -.70507672E+03  EK= 0.42885E+01 SP= 0.00E+00 SK= 0.00E+00
   2077 T=   226. E= -.70079273E+03 F= -.70499887E+03 E0= -.70499887E+03  EK= 0.42061E+01 SP= 0.00E+00 SK= 0.00E+00
   2078 T=   223. E= -.70078129E+03 F= -.70492811E+03 E0= -.70492811E+03  EK= 0.41468E+01 SP= 0.00E+00 SK= 0.00E+00
   2079 T=   223. E= -.70075429E+03 F= -.70490091E+03 E0= -.70490091E+03  EK= 0.41466E+01 SP= 0.00E+00 SK= 0.00E+00
   2080 T=   230. E= -.70066707E+03 F= -.70495361E+03 E0= -.70495361E+03  EK= 0.42865E+01 SP= 0.00E+00 SK= 0.00E+00
   2081 T=   234. E= -.70069975E+03 F= -.70504776E+03 E0= -.70504776E+03  EK= 0.43480E+01 SP= 0.00E+00 SK= 0.00E+00
   2082 T=   237. E= -.70075472E+03 F= -.70517244E+03 E0= -.70517244E+03  EK= 0.44177E+01 SP= 0.00E+00 SK= 0.00E+00
   2083 T=   241. E= -.70078562E+03 F= -.70526386E+03 E0= -.70526386E+03  EK= 0.44782E+01 SP= 0.00E+00 SK= 0.00E+00
   2084 T=   242. E= -.70079534E+03 F= -.70530006E+03 E0= -.70530006E+03  EK= 0.45047E+01 SP= 0.00E+00 SK= 0.00E+00
   2085 T=   240. E= -.70077495E+03 F= -.70524265E+03 E0= -.70524265E+03  EK= 0.44677E+01 SP= 0.00E+00 SK= 0.00E+00
   2086 T=   232. E= -.70081535E+03 F= -.70513604E+03 E0= -.70513604E+03  EK= 0.43207E+01 SP= 0.00E+00 SK= 0.00E+00
   2087 T=   227. E= -.70083859E+03 F= -.70505628E+03 E0= -.70505628E+03  EK= 0.42177E+01 SP= 0.00E+00 SK= 0.00E+00
   2088 T=   224. E= -.70085097E+03 F= -.70502458E+03 E0= -.70502458E+03  EK= 0.41736E+01 SP= 0.00E+00 SK= 0.00E+00
   2089 T=   226. E= -.70087782E+03 F= -.70507565E+03 E0= -.70507565E+03  EK= 0.41978E+01 SP= 0.00E+00 SK= 0.00E+00
   2090 T=   227. E= -.70092786E+03 F= -.70515843E+03 E0= -.70515843E+03  EK= 0.42306E+01 SP= 0.00E+00 SK= 0.00E+00
   2091 T=   229. E= -.70094671E+03 F= -.70521165E+03 E0= -.70521165E+03  EK= 0.42649E+01 SP= 0.00E+00 SK= 0.00E+00
   2092 T=   233. E= -.70086586E+03 F= -.70520043E+03 E0= -.70520043E+03  EK= 0.43346E+01 SP= 0.00E+00 SK= 0.00E+00
   2093 T=   232. E= -.70081722E+03 F= -.70514031E+03 E0= -.70514031E+03  EK= 0.43231E+01 SP= 0.00E+00 SK= 0.00E+00
   2094 T=   233. E= -.70074658E+03 F= -.70508032E+03 E0= -.70508032E+03  EK= 0.43337E+01 SP= 0.00E+00 SK= 0.00E+00
   2095 T=   235. E= -.70067636E+03 F= -.70504878E+03 E0= -.70504878E+03  EK= 0.43724E+01 SP= 0.00E+00 SK= 0.00E+00
   2096 T=   239. E= -.70065786E+03 F= -.70510911E+03 E0= -.70510911E+03  EK= 0.44513E+01 SP= 0.00E+00 SK= 0.00E+00
   2097 T=   248. E= -.70063515E+03 F= -.70524687E+03 E0= -.70524687E+03  EK= 0.46117E+01 SP= 0.00E+00 SK= 0.00E+00
   2098 T=   254. E= -.70067717E+03 F= -.70541098E+03 E0= -.70541098E+03  EK= 0.47338E+01 SP= 0.00E+00 SK= 0.00E+00
   2099 T=   257. E= -.70072034E+03 F= -.70549558E+03 E0= -.70549558E+03  EK= 0.47752E+01 SP= 0.00E+00 SK= 0.00E+00
   2100 T=   258. E= -.70070033E+03 F= -.70549524E+03 E0= -.70549524E+03  EK= 0.47949E+01 SP= 0.00E+00 SK= 0.00E+00
   2101 T=   252. E= -.70072242E+03 F= -.70540613E+03 E0= -.70540613E+03  EK= 0.46837E+01 SP= 0.00E+00 SK= 0.00E+00
   2102 T=   243. E= -.70075961E+03 F= -.70528998E+03 E0= -.70528998E+03  EK= 0.45304E+01 SP= 0.00E+00 SK= 0.00E+00
   2103 T=   238. E= -.70076357E+03 F= -.70518703E+03 E0= -.70518703E+03  EK= 0.44235E+01 SP= 0.00E+00 SK= 0.00E+00
   2104 T=   237. E= -.70076458E+03 F= -.70517568E+03 E0= -.70517568E+03  EK= 0.44111E+01 SP= 0.00E+00 SK= 0.00E+00
   2105 T=   239. E= -.70079455E+03 F= -.70523921E+03 E0= -.70523921E+03  EK= 0.44447E+01 SP= 0.00E+00 SK= 0.00E+00
   2106 T=   243. E= -.70082130E+03 F= -.70534641E+03 E0= -.70534641E+03  EK= 0.45251E+01 SP= 0.00E+00 SK= 0.00E+00
   2107 T=   246. E= -.70082906E+03 F= -.70540041E+03 E0= -.70540041E+03  EK= 0.45714E+01 SP= 0.00E+00 SK= 0.00E+00
   2108 T=   241. E= -.70084465E+03 F= -.70532160E+03 E0= -.70532160E+03  EK= 0.44770E+01 SP= 0.00E+00 SK= 0.00E+00
   2109 T=   227. E= -.70091209E+03 F= -.70514499E+03 E0= -.70514499E+03  EK= 0.42329E+01 SP= 0.00E+00 SK= 0.00E+00
   2110 T=   215. E= -.70094902E+03 F= -.70494680E+03 E0= -.70494680E+03  EK= 0.39978E+01 SP= 0.00E+00 SK= 0.00E+00
   2111 T=   211. E= -.70089756E+03 F= -.70483023E+03 E0= -.70483023E+03  EK= 0.39327E+01 SP= 0.00E+00 SK= 0.00E+00
   2112 T=   215. E= -.70083817E+03 F= -.70483593E+03 E0= -.70483593E+03  EK= 0.39978E+01 SP= 0.00E+00 SK= 0.00E+00
   2113 T=   223. E= -.70079647E+03 F= -.70494052E+03 E0= -.70494052E+03  EK= 0.41441E+01 SP= 0.00E+00 SK= 0.00E+00
   2114 T=   228. E= -.70086624E+03 F= -.70511086E+03 E0= -.70511086E+03  EK= 0.42446E+01 SP= 0.00E+00 SK= 0.00E+00
   2115 T=   231. E= -.70099673E+03 F= -.70529346E+03 E0= -.70529346E+03  EK= 0.42967E+01 SP= 0.00E+00 SK= 0.00E+00
   2116 T=   233. E= -.70103944E+03 F= -.70537639E+03 E0= -.70537639E+03  EK= 0.43369E+01 SP= 0.00E+00 SK= 0.00E+00
   2117 T=   234. E= -.70098702E+03 F= -.70535084E+03 E0= -.70535084E+03  EK= 0.43638E+01 SP= 0.00E+00 SK= 0.00E+00
   2118 T=   231. E= -.70093678E+03 F= -.70522774E+03 E0= -.70522774E+03  EK= 0.42910E+01 SP= 0.00E+00 SK= 0.00E+00
   2119 T=   223. E= -.70092144E+03 F= -.70506405E+03 E0= -.70506405E+03  EK= 0.41426E+01 SP= 0.00E+00 SK= 0.00E+00
   2120 T=   219. E= -.70090043E+03 F= -.70497394E+03 E0= -.70497394E+03  EK= 0.40735E+01 SP= 0.00E+00 SK= 0.00E+00
   2121 T=   224. E= -.70086349E+03 F= -.70503888E+03 E0= -.70503888E+03  EK= 0.41754E+01 SP= 0.00E+00 SK= 0.00E+00
   2122 T=   238. E= -.70077326E+03 F= -.70519502E+03 E0= -.70519502E+03  EK= 0.44218E+01 SP= 0.00E+00 SK= 0.00E+00
   2123 T=   245. E= -.70077647E+03 F= -.70534082E+03 E0= -.70534082E+03  EK= 0.45644E+01 SP= 0.00E+00 SK= 0.00E+00
   2124 T=   242. E= -.70087131E+03 F= -.70538474E+03 E0= -.70538474E+03  EK= 0.45134E+01 SP= 0.00E+00 SK= 0.00E+00
   2125 T=   237. E= -.70091297E+03 F= -.70532279E+03 E0= -.70532279E+03  EK= 0.44098E+01 SP= 0.00E+00 SK= 0.00E+00
   2126 T=   230. E= -.70091973E+03 F= -.70520493E+03 E0= -.70520493E+03  EK= 0.42852E+01 SP= 0.00E+00 SK= 0.00E+00
   2127 T=   227. E= -.70090463E+03 F= -.70513918E+03 E0= -.70513918E+03  EK= 0.42346E+01 SP= 0.00E+00 SK= 0.00E+00
   2128 T=   230. E= -.70089739E+03 F= -.70517566E+03 E0= -.70517566E+03  EK= 0.42783E+01 SP= 0.00E+00 SK= 0.00E+00
   2129 T=   237. E= -.70090607E+03 F= -.70532173E+03 E0= -.70532173E+03  EK= 0.44157E+01 SP= 0.00E+00 SK= 0.00E+00
   2130 T=   248. E= -.70086756E+03 F= -.70548142E+03 E0= -.70548142E+03  EK= 0.46139E+01 SP= 0.00E+00 SK= 0.00E+00
   2131 T=   253. E= -.70087633E+03 F= -.70558302E+03 E0= -.70558302E+03  EK= 0.47067E+01 SP= 0.00E+00 SK= 0.00E+00
   2132 T=   248. E= -.70098479E+03 F= -.70559336E+03 E0= -.70559336E+03  EK= 0.46086E+01 SP= 0.00E+00 SK= 0.00E+00
   2133 T=   246. E= -.70099659E+03 F= -.70558200E+03 E0= -.70558200E+03  EK= 0.45854E+01 SP= 0.00E+00 SK= 0.00E+00
   2134 T=   246. E= -.70097204E+03 F= -.70554273E+03 E0= -.70554273E+03  EK= 0.45707E+01 SP= 0.00E+00 SK= 0.00E+00
   2135 T=   243. E= -.70096151E+03 F= -.70548461E+03 E0= -.70548461E+03  EK= 0.45231E+01 SP= 0.00E+00 SK= 0.00E+00
   2136 T=   234. E= -.70101275E+03 F= -.70536468E+03 E0= -.70536468E+03  EK= 0.43519E+01 SP= 0.00E+00 SK= 0.00E+00
   2137 T=   224. E= -.70107756E+03 F= -.70524002E+03 E0= -.70524002E+03  EK= 0.41625E+01 SP= 0.00E+00 SK= 0.00E+00
   2138 T=   220. E= -.70103992E+03 F= -.70513681E+03 E0= -.70513681E+03  EK= 0.40969E+01 SP= 0.00E+00 SK= 0.00E+00
   2139 T=   221. E= -.70101871E+03 F= -.70513824E+03 E0= -.70513824E+03  EK= 0.41195E+01 SP= 0.00E+00 SK= 0.00E+00
   2140 T=   226. E= -.70099679E+03 F= -.70520382E+03 E0= -.70520382E+03  EK= 0.42070E+01 SP= 0.00E+00 SK= 0.00E+00
   2141 T=   231. E= -.70099273E+03 F= -.70529373E+03 E0= -.70529373E+03  EK= 0.43010E+01 SP= 0.00E+00 SK= 0.00E+00
   2142 T=   234. E= -.70102025E+03 F= -.70537981E+03 E0= -.70537981E+03  EK= 0.43596E+01 SP= 0.00E+00 SK= 0.00E+00
   2143 T=   236. E= -.70105022E+03 F= -.70544684E+03 E0= -.70544684E+03  EK= 0.43966E+01 SP= 0.00E+00 SK= 0.00E+00
   2144 T=   236. E= -.70108753E+03 F= -.70548001E+03 E0= -.70548001E+03  EK= 0.43925E+01 SP= 0.00E+00 SK= 0.00E+00
   2145 T=   238. E= -.70104974E+03 F= -.70547932E+03 E0= -.70547932E+03  EK= 0.44296E+01 SP= 0.00E+00 SK= 0.00E+00
   2146 T=   240. E= -.70101293E+03 F= -.70548742E+03 E0= -.70548742E+03  EK= 0.44745E+01 SP= 0.00E+00 SK= 0.00E+00
   2147 T=   241. E= -.70103413E+03 F= -.70552142E+03 E0= -.70552142E+03  EK= 0.44873E+01 SP= 0.00E+00 SK= 0.00E+00
   2148 T=   248. E= -.70103445E+03 F= -.70564891E+03 E0= -.70564891E+03  EK= 0.46145E+01 SP= 0.00E+00 SK= 0.00E+00
   2149 T=   256. E= -.70106134E+03 F= -.70582666E+03 E0= -.70582666E+03  EK= 0.47653E+01 SP= 0.00E+00 SK= 0.00E+00
   2150 T=   264. E= -.70105758E+03 F= -.70597516E+03 E0= -.70597516E+03  EK= 0.49176E+01 SP= 0.00E+00 SK= 0.00E+00
   2151 T=   268. E= -.70100218E+03 F= -.70598246E+03 E0= -.70598246E+03  EK= 0.49803E+01 SP= 0.00E+00 SK= 0.00E+00
   2152 T=   257. E= -.70098850E+03 F= -.70577889E+03 E0= -.70577889E+03  EK= 0.47904E+01 SP= 0.00E+00 SK= 0.00E+00
   2153 T=   238. E= -.70102155E+03 F= -.70545140E+03 E0= -.70545140E+03  EK= 0.44299E+01 SP= 0.00E+00 SK= 0.00E+00
   2154 T=   220. E= -.70106320E+03 F= -.70515204E+03 E0= -.70515204E+03  EK= 0.40888E+01 SP= 0.00E+00 SK= 0.00E+00
   2155 T=   213. E= -.70107416E+03 F= -.70503686E+03 E0= -.70503686E+03  EK= 0.39627E+01 SP= 0.00E+00 SK= 0.00E+00
   2156 T=   221. E= -.70104265E+03 F= -.70516110E+03 E0= -.70516110E+03  EK= 0.41184E+01 SP= 0.00E+00 SK= 0.00E+00
   2157 T=   237. E= -.70101493E+03 F= -.70542363E+03 E0= -.70542363E+03  EK= 0.44087E+01 SP= 0.00E+00 SK= 0.00E+00
   2158 T=   246. E= -.70106909E+03 F= -.70564310E+03 E0= -.70564310E+03  EK= 0.45740E+01 SP= 0.00E+00 SK= 0.00E+00
   2159 T=   243. E= -.70115819E+03 F= -.70568752E+03 E0= -.70568752E+03  EK= 0.45293E+01 SP= 0.00E+00 SK= 0.00E+00
   2160 T=   238. E= -.70112220E+03 F= -.70555005E+03 E0= -.70555005E+03  EK= 0.44279E+01 SP= 0.00E+00 SK= 0.00E+00
   2161 T=   228. E= -.70105309E+03 F= -.70529552E+03 E0= -.70529552E+03  EK= 0.42424E+01 SP= 0.00E+00 SK= 0.00E+00
   2162 T=   220. E= -.70102942E+03 F= -.70512422E+03 E0= -.70512422E+03  EK= 0.40948E+01 SP= 0.00E+00 SK= 0.00E+00
   2163 T=   222. E= -.70103155E+03 F= -.70515752E+03 E0= -.70515752E+03  EK= 0.41260E+01 SP= 0.00E+00 SK= 0.00E+00
   2164 T=   230. E= -.70110618E+03 F= -.70538747E+03 E0= -.70538747E+03  EK= 0.42813E+01 SP= 0.00E+00 SK= 0.00E+00
   2165 T=   241. E= -.70120192E+03 F= -.70567963E+03 E0= -.70567963E+03  EK= 0.44777E+01 SP= 0.00E+00 SK= 0.00E+00
   2166 T=   248. E= -.70123005E+03 F= -.70584922E+03 E0= -.70584922E+03  EK= 0.46192E+01 SP= 0.00E+00 SK= 0.00E+00
   2167 T=   249. E= -.70120984E+03 F= -.70584327E+03 E0= -.70584327E+03  EK= 0.46334E+01 SP= 0.00E+00 SK= 0.00E+00
   2168 T=   236. E= -.70126004E+03 F= -.70565992E+03 E0= -.70565992E+03  EK= 0.43999E+01 SP= 0.00E+00 SK= 0.00E+00
   2169 T=   226. E= -.70121405E+03 F= -.70542207E+03 E0= -.70542207E+03  EK= 0.42080E+01 SP= 0.00E+00 SK= 0.00E+00
   2170 T=   224. E= -.70110502E+03 F= -.70527915E+03 E0= -.70527915E+03  EK= 0.41741E+01 SP= 0.00E+00 SK= 0.00E+00
   2171 T=   225. E= -.70106316E+03 F= -.70524355E+03 E0= -.70524355E+03  EK= 0.41804E+01 SP= 0.00E+00 SK= 0.00E+00
   2172 T=   231. E= -.70103847E+03 F= -.70533968E+03 E0= -.70533968E+03  EK= 0.43012E+01 SP= 0.00E+00 SK= 0.00E+00
   2173 T=   240. E= -.70100977E+03 F= -.70546989E+03 E0= -.70546989E+03  EK= 0.44601E+01 SP= 0.00E+00 SK= 0.00E+00
   2174 T=   251. E= -.70093366E+03 F= -.70559678E+03 E0= -.70559678E+03  EK= 0.46631E+01 SP= 0.00E+00 SK= 0.00E+00
   2175 T=   257. E= -.70085350E+03 F= -.70564102E+03 E0= -.70564102E+03  EK= 0.47875E+01 SP= 0.00E+00 SK= 0.00E+00
   2176 T=   260. E= -.70079264E+03 F= -.70562490E+03 E0= -.70562490E+03  EK= 0.48323E+01 SP= 0.00E+00 SK= 0.00E+00
   2177 T=   259. E= -.70075339E+03 F= -.70556763E+03 E0= -.70556763E+03  EK= 0.48142E+01 SP= 0.00E+00 SK= 0.00E+00
   2178 T=   260. E= -.70070937E+03 F= -.70554379E+03 E0= -.70554379E+03  EK= 0.48344E+01 SP= 0.00E+00 SK= 0.00E+00
   2179 T=   259. E= -.70073504E+03 F= -.70556314E+03 E0= -.70556314E+03  EK= 0.48281E+01 SP= 0.00E+00 SK= 0.00E+00
   2180 T=   260. E= -.70075710E+03 F= -.70560487E+03 E0= -.70560487E+03  EK= 0.48478E+01 SP= 0.00E+00 SK= 0.00E+00
   2181 T=   265. E= -.70070162E+03 F= -.70563604E+03 E0= -.70563604E+03  EK= 0.49344E+01 SP= 0.00E+00 SK= 0.00E+00
   2182 T=   266. E= -.70067460E+03 F= -.70563390E+03 E0= -.70563390E+03  EK= 0.49593E+01 SP= 0.00E+00 SK= 0.00E+00
   2183 T=   261. E= -.70066336E+03 F= -.70553075E+03 E0= -.70553075E+03  EK= 0.48674E+01 SP= 0.00E+00 SK= 0.00E+00
   2184 T=   250. E= -.70072170E+03 F= -.70537134E+03 E0= -.70537134E+03  EK= 0.46496E+01 SP= 0.00E+00 SK= 0.00E+00
   2185 T=   241. E= -.70074568E+03 F= -.70523200E+03 E0= -.70523200E+03  EK= 0.44863E+01 SP= 0.00E+00 SK= 0.00E+00
   2186 T=   239. E= -.70070839E+03 F= -.70515968E+03 E0= -.70515968E+03  EK= 0.44513E+01 SP= 0.00E+00 SK= 0.00E+00
   2187 T=   237. E= -.70073093E+03 F= -.70513353E+03 E0= -.70513353E+03  EK= 0.44026E+01 SP= 0.00E+00 SK= 0.00E+00
   2188 T=   236. E= -.70078991E+03 F= -.70518427E+03 E0= -.70518427E+03  EK= 0.43944E+01 SP= 0.00E+00 SK= 0.00E+00
   2189 T=   233. E= -.70091228E+03 F= -.70525660E+03 E0= -.70525660E+03  EK= 0.43443E+01 SP= 0.00E+00 SK= 0.00E+00
   2190 T=   231. E= -.70099798E+03 F= -.70529903E+03 E0= -.70529903E+03  EK= 0.43010E+01 SP= 0.00E+00 SK= 0.00E+00
   2191 T=   235. E= -.70095799E+03 F= -.70533312E+03 E0= -.70533312E+03  EK= 0.43751E+01 SP= 0.00E+00 SK= 0.00E+00
   2192 T=   240. E= -.70087715E+03 F= -.70533876E+03 E0= -.70533876E+03  EK= 0.44616E+01 SP= 0.00E+00 SK= 0.00E+00
   2193 T=   241. E= -.70084926E+03 F= -.70533237E+03 E0= -.70533237E+03  EK= 0.44831E+01 SP= 0.00E+00 SK= 0.00E+00
   2194 T=   238. E= -.70091257E+03 F= -.70534398E+03 E0= -.70534398E+03  EK= 0.44314E+01 SP= 0.00E+00 SK= 0.00E+00
   2195 T=   234. E= -.70104165E+03 F= -.70539863E+03 E0= -.70539863E+03  EK= 0.43570E+01 SP= 0.00E+00 SK= 0.00E+00
   2196 T=   236. E= -.70110880E+03 F= -.70551054E+03 E0= -.70551054E+03  EK= 0.44017E+01 SP= 0.00E+00 SK= 0.00E+00
   2197 T=   243. E= -.70111936E+03 F= -.70563540E+03 E0= -.70563540E+03  EK= 0.45160E+01 SP= 0.00E+00 SK= 0.00E+00
   2198 T=   248. E= -.70110203E+03 F= -.70570981E+03 E0= -.70570981E+03  EK= 0.46078E+01 SP= 0.00E+00 SK= 0.00E+00
   2199 T=   249. E= -.70106239E+03 F= -.70570585E+03 E0= -.70570585E+03  EK= 0.46435E+01 SP= 0.00E+00 SK= 0.00E+00
   2200 T=   246. E= -.70104765E+03 F= -.70563136E+03 E0= -.70563136E+03  EK= 0.45837E+01 SP= 0.00E+00 SK= 0.00E+00
   2201 T=   241. E= -.70105338E+03 F= -.70553319E+03 E0= -.70553319E+03  EK= 0.44798E+01 SP= 0.00E+00 SK= 0.00E+00
   2202 T=   233. E= -.70110344E+03 F= -.70544144E+03 E0= -.70544144E+03  EK= 0.43380E+01 SP= 0.00E+00 SK= 0.00E+00
   2203 T=   230. E= -.70114215E+03 F= -.70541819E+03 E0= -.70541819E+03  EK= 0.42760E+01 SP= 0.00E+00 SK= 0.00E+00
   2204 T=   231. E= -.70113572E+03 F= -.70544208E+03 E0= -.70544208E+03  EK= 0.43064E+01 SP= 0.00E+00 SK= 0.00E+00
   2205 T=   235. E= -.70108366E+03 F= -.70545130E+03 E0= -.70545130E+03  EK= 0.43676E+01 SP= 0.00E+00 SK= 0.00E+00
   2206 T=   236. E= -.70102264E+03 F= -.70541630E+03 E0= -.70541630E+03  EK= 0.43937E+01 SP= 0.00E+00 SK= 0.00E+00
   2207 T=   237. E= -.70095131E+03 F= -.70536539E+03 E0= -.70536539E+03  EK= 0.44141E+01 SP= 0.00E+00 SK= 0.00E+00
   2208 T=   241. E= -.70085423E+03 F= -.70533108E+03 E0= -.70533108E+03  EK= 0.44768E+01 SP= 0.00E+00 SK= 0.00E+00
   2209 T=   239. E= -.70088318E+03 F= -.70533435E+03 E0= -.70533435E+03  EK= 0.44512E+01 SP= 0.00E+00 SK= 0.00E+00
   2210 T=   233. E= -.70097293E+03 F= -.70531123E+03 E0= -.70531123E+03  EK= 0.43383E+01 SP= 0.00E+00 SK= 0.00E+00
   2211 T=   231. E= -.70097675E+03 F= -.70527937E+03 E0= -.70527937E+03  EK= 0.43026E+01 SP= 0.00E+00 SK= 0.00E+00
   2212 T=   227. E= -.70098091E+03 F= -.70520049E+03 E0= -.70520049E+03  EK= 0.42196E+01 SP= 0.00E+00 SK= 0.00E+00
   2213 T=   222. E= -.70099672E+03 F= -.70513312E+03 E0= -.70513312E+03  EK= 0.41364E+01 SP= 0.00E+00 SK= 0.00E+00
   2214 T=   217. E= -.70104231E+03 F= -.70508173E+03 E0= -.70508173E+03  EK= 0.40394E+01 SP= 0.00E+00 SK= 0.00E+00
   2215 T=   215. E= -.70106282E+03 F= -.70505709E+03 E0= -.70505709E+03  EK= 0.39943E+01 SP= 0.00E+00 SK= 0.00E+00
   2216 T=   218. E= -.70099878E+03 F= -.70505370E+03 E0= -.70505370E+03  EK= 0.40549E+01 SP= 0.00E+00 SK= 0.00E+00
   2217 T=   216. E= -.70101907E+03 F= -.70504559E+03 E0= -.70504559E+03  EK= 0.40265E+01 SP= 0.00E+00 SK= 0.00E+00
   2218 T=   212. E= -.70105877E+03 F= -.70501295E+03 E0= -.70501295E+03  EK= 0.39542E+01 SP= 0.00E+00 SK= 0.00E+00
   2219 T=   212. E= -.70106219E+03 F= -.70500487E+03 E0= -.70500487E+03  EK= 0.39427E+01 SP= 0.00E+00 SK= 0.00E+00
   2220 T=   213. E= -.70108782E+03 F= -.70505083E+03 E0= -.70505083E+03  EK= 0.39630E+01 SP= 0.00E+00 SK= 0.00E+00
   2221 T=   214. E= -.70111565E+03 F= -.70509442E+03 E0= -.70509442E+03  EK= 0.39788E+01 SP= 0.00E+00 SK= 0.00E+00
   2222 T=   220. E= -.70102597E+03 F= -.70512779E+03 E0= -.70512779E+03  EK= 0.41018E+01 SP= 0.00E+00 SK= 0.00E+00
   2223 T=   226. E= -.70094572E+03 F= -.70515066E+03 E0= -.70515066E+03  EK= 0.42049E+01 SP= 0.00E+00 SK= 0.00E+00
   2224 T=   225. E= -.70095767E+03 F= -.70514689E+03 E0= -.70514689E+03  EK= 0.41892E+01 SP= 0.00E+00 SK= 0.00E+00
   2225 T=   229. E= -.70093551E+03 F= -.70520330E+03 E0= -.70520330E+03  EK= 0.42678E+01 SP= 0.00E+00 SK= 0.00E+00
   2226 T=   240. E= -.70089286E+03 F= -.70535185E+03 E0= -.70535185E+03  EK= 0.44590E+01 SP= 0.00E+00 SK= 0.00E+00
   2227 T=   253. E= -.70086172E+03 F= -.70556980E+03 E0= -.70556980E+03  EK= 0.47081E+01 SP= 0.00E+00 SK= 0.00E+00
   2228 T=   261. E= -.70086600E+03 F= -.70572588E+03 E0= -.70572588E+03  EK= 0.48599E+01 SP= 0.00E+00 SK= 0.00E+00
   2229 T=   265. E= -.70083544E+03 F= -.70576180E+03 E0= -.70576180E+03  EK= 0.49264E+01 SP= 0.00E+00 SK= 0.00E+00
   2230 T=   259. E= -.70086170E+03 F= -.70568824E+03 E0= -.70568824E+03  EK= 0.48265E+01 SP= 0.00E+00 SK= 0.00E+00
   2231 T=   243. E= -.70103164E+03 F= -.70555757E+03 E0= -.70555757E+03  EK= 0.45259E+01 SP= 0.00E+00 SK= 0.00E+00
   2232 T=   234. E= -.70113816E+03 F= -.70549163E+03 E0= -.70549163E+03  EK= 0.43535E+01 SP= 0.00E+00 SK= 0.00E+00
   2233 T=   234. E= -.70114561E+03 F= -.70550181E+03 E0= -.70550181E+03  EK= 0.43562E+01 SP= 0.00E+00 SK= 0.00E+00
   2234 T=   237. E= -.70115236E+03 F= -.70557275E+03 E0= -.70557275E+03  EK= 0.44204E+01 SP= 0.00E+00 SK= 0.00E+00
   2235 T=   240. E= -.70119933E+03 F= -.70566169E+03 E0= -.70566169E+03  EK= 0.44624E+01 SP= 0.00E+00 SK= 0.00E+00
   2236 T=   239. E= -.70124589E+03 F= -.70570234E+03 E0= -.70570234E+03  EK= 0.44565E+01 SP= 0.00E+00 SK= 0.00E+00
   2237 T=   237. E= -.70129384E+03 F= -.70570207E+03 E0= -.70570207E+03  EK= 0.44082E+01 SP= 0.00E+00 SK= 0.00E+00
   2238 T=   231. E= -.70136581E+03 F= -.70566154E+03 E0= -.70566154E+03  EK= 0.42957E+01 SP= 0.00E+00 SK= 0.00E+00
   2239 T=   226. E= -.70140992E+03 F= -.70561736E+03 E0= -.70561736E+03  EK= 0.42074E+01 SP= 0.00E+00 SK= 0.00E+00
   2240 T=   226. E= -.70139464E+03 F= -.70560737E+03 E0= -.70560737E+03  EK= 0.42127E+01 SP= 0.00E+00 SK= 0.00E+00
   2241 T=   228. E= -.70140891E+03 F= -.70564467E+03 E0= -.70564467E+03  EK= 0.42358E+01 SP= 0.00E+00 SK= 0.00E+00
   2242 T=   231. E= -.70140507E+03 F= -.70570174E+03 E0= -.70570174E+03  EK= 0.42967E+01 SP= 0.00E+00 SK= 0.00E+00
   2243 T=   238. E= -.70134132E+03 F= -.70576853E+03 E0= -.70576853E+03  EK= 0.44272E+01 SP= 0.00E+00 SK= 0.00E+00
   2244 T=   241. E= -.70130491E+03 F= -.70578318E+03 E0= -.70578318E+03  EK= 0.44783E+01 SP= 0.00E+00 SK= 0.00E+00
   2245 T=   238. E= -.70132951E+03 F= -.70576066E+03 E0= -.70576066E+03  EK= 0.44312E+01 SP= 0.00E+00 SK= 0.00E+00
   2246 T=   230. E= -.70143080E+03 F= -.70570924E+03 E0= -.70570924E+03  EK= 0.42784E+01 SP= 0.00E+00 SK= 0.00E+00
   2247 T=   223. E= -.70148755E+03 F= -.70564480E+03 E0= -.70564480E+03  EK= 0.41572E+01 SP= 0.00E+00 SK= 0.00E+00
   2248 T=   221. E= -.70147187E+03 F= -.70557952E+03 E0= -.70557952E+03  EK= 0.41077E+01 SP= 0.00E+00 SK= 0.00E+00
   2249 T=   219. E= -.70145064E+03 F= -.70552520E+03 E0= -.70552520E+03  EK= 0.40746E+01 SP= 0.00E+00 SK= 0.00E+00
   2250 T=   217. E= -.70144883E+03 F= -.70548210E+03 E0= -.70548210E+03  EK= 0.40333E+01 SP= 0.00E+00 SK= 0.00E+00
   2251 T=   222. E= -.70136490E+03 F= -.70549610E+03 E0= -.70549610E+03  EK= 0.41312E+01 SP= 0.00E+00 SK= 0.00E+00
   2252 T=   227. E= -.70127992E+03 F= -.70550019E+03 E0= -.70550019E+03  EK= 0.42203E+01 SP= 0.00E+00 SK= 0.00E+00
   2253 T=   225. E= -.70129611E+03 F= -.70548653E+03 E0= -.70548653E+03  EK= 0.41904E+01 SP= 0.00E+00 SK= 0.00E+00
   2254 T=   223. E= -.70135541E+03 F= -.70550444E+03 E0= -.70550444E+03  EK= 0.41490E+01 SP= 0.00E+00 SK= 0.00E+00
   2255 T=   222. E= -.70142113E+03 F= -.70555799E+03 E0= -.70555799E+03  EK= 0.41369E+01 SP= 0.00E+00 SK= 0.00E+00
   2256 T=   228. E= -.70141611E+03 F= -.70566877E+03 E0= -.70566877E+03  EK= 0.42527E+01 SP= 0.00E+00 SK= 0.00E+00
   2257 T=   239. E= -.70135709E+03 F= -.70581075E+03 E0= -.70581075E+03  EK= 0.44537E+01 SP= 0.00E+00 SK= 0.00E+00
   2258 T=   247. E= -.70129210E+03 F= -.70589191E+03 E0= -.70589191E+03  EK= 0.45998E+01 SP= 0.00E+00 SK= 0.00E+00
   2259 T=   244. E= -.70130537E+03 F= -.70585330E+03 E0= -.70585330E+03  EK= 0.45479E+01 SP= 0.00E+00 SK= 0.00E+00
   2260 T=   235. E= -.70135276E+03 F= -.70572703E+03 E0= -.70572703E+03  EK= 0.43743E+01 SP= 0.00E+00 SK= 0.00E+00
   2261 T=   227. E= -.70135934E+03 F= -.70559167E+03 E0= -.70559167E+03  EK= 0.42323E+01 SP= 0.00E+00 SK= 0.00E+00
   2262 T=   227. E= -.70129105E+03 F= -.70552128E+03 E0= -.70552128E+03  EK= 0.42302E+01 SP= 0.00E+00 SK= 0.00E+00
       N       E                     dE             d eps       ncg     rms          rms(c)
DAV:   1    -0.219391764667E+03    0.47749E+03   -0.39674E+04 12190   0.415E+02
DAV:   2    -0.693224829749E+03   -0.47383E+03   -0.46400E+03 14230   0.126E+02
DAV:   3    -0.707223686698E+03   -0.13999E+02   -0.13980E+02 14468   0.234E+01
DAV:   4    -0.707432952639E+03   -0.20927E+00   -0.20922E+00 14444   0.286E+00    0.312E+01
DAV:   5    -0.696692883997E+03    0.10740E+02   -0.24648E+01 14108   0.121E+01    0.172E+01
DAV:   6    -0.696622357455E+03    0.70527E-01   -0.12897E+01 14060   0.861E+00    0.619E+00
DAV:   7    -0.697214778456E+03   -0.59242E+00   -0.23682E+00 13732   0.404E+00    0.204E+00
DAV:   8    -0.697247860727E+03   -0.33082E-01   -0.23885E-01 14236   0.130E+00    0.954E-01
DAV:   9    -0.697248945938E+03   -0.10852E-02   -0.79472E-02 13500   0.750E-01    0.320E-01
DAV:  10    -0.697246983294E+03    0.19626E-02   -0.11828E-02 14820   0.352E-01    0.157E-01
DAV:  11    -0.697246466803E+03    0.51649E-03   -0.76916E-03 13860   0.227E-01    0.108E-01
DAV:  12    -0.697245883045E+03    0.58376E-03   -0.11171E-03 15500   0.126E-01    0.409E-02
DAV:  13    -0.697245514721E+03    0.36832E-03   -0.59930E-04 12972   0.108E-01    0.438E-02
DAV:  14    -0.697245381956E+03    0.13277E-03   -0.30787E-04 12684   0.750E-02    0.239E-02
DAV:  15    -0.697245362033E+03    0.19923E-04   -0.16329E-04 10188   0.367E-02
   2263 T=   232. E= -.70121328E+03 F= -.70553033E+03 E0= -.70553033E+03  EK= 0.43171E+01 SP= 0.00E+00 SK= 0.00E+00
   2264 T=   233. E= -.70126671E+03 F= -.70559540E+03 E0= -.70559540E+03  EK= 0.43287E+01 SP= 0.00E+00 SK= 0.00E+00
   2265 T=   231. E= -.70129914E+03 F= -.70560100E+03 E0= -.70560100E+03  EK= 0.43019E+01 SP= 0.00E+00 SK= 0.00E+00
   2266 T=   229. E= -.70126125E+03 F= -.70551804E+03 E0= -.70551804E+03  EK= 0.42568E+01 SP= 0.00E+00 SK= 0.00E+00
   2267 T=   225. E= -.70119235E+03 F= -.70537351E+03 E0= -.70537351E+03  EK= 0.41812E+01 SP= 0.00E+00 SK= 0.00E+00
   2268 T=   215. E= -.70121355E+03 F= -.70522238E+03 E0= -.70522238E+03  EK= 0.40088E+01 SP= 0.00E+00 SK= 0.00E+00
   2269 T=   209. E= -.70124474E+03 F= -.70512831E+03 E0= -.70512831E+03  EK= 0.38836E+01 SP= 0.00E+00 SK= 0.00E+00
   2270 T=   205. E= -.70130541E+03 F= -.70512573E+03 E0= -.70512573E+03  EK= 0.38203E+01 SP= 0.00E+00 SK= 0.00E+00
   2271 T=   211. E= -.70132580E+03 F= -.70525805E+03 E0= -.70525805E+03  EK= 0.39323E+01 SP= 0.00E+00 SK= 0.00E+00
   2272 T=   223. E= -.70130040E+03 F= -.70544985E+03 E0= -.70544985E+03  EK= 0.41494E+01 SP= 0.00E+00 SK= 0.00E+00
   2273 T=   232. E= -.70132733E+03 F= -.70563901E+03 E0= -.70563901E+03  EK= 0.43117E+01 SP= 0.00E+00 SK= 0.00E+00
   2274 T=   235. E= -.70135984E+03 F= -.70574283E+03 E0= -.70574283E+03  EK= 0.43830E+01 SP= 0.00E+00 SK= 0.00E+00
   2275 T=   233. E= -.70141623E+03 F= -.70574541E+03 E0= -.70574541E+03  EK= 0.43292E+01 SP= 0.00E+00 SK= 0.00E+00
   2276 T=   229. E= -.70140301E+03 F= -.70566461E+03 E0= -.70566461E+03  EK= 0.42616E+01 SP= 0.00E+00 SK= 0.00E+00
   2277 T=   224. E= -.70139511E+03 F= -.70555824E+03 E0= -.70555824E+03  EK= 0.41631E+01 SP= 0.00E+00 SK= 0.00E+00
   2278 T=   216. E= -.70144626E+03 F= -.70546168E+03 E0= -.70546168E+03  EK= 0.40154E+01 SP= 0.00E+00 SK= 0.00E+00
   2279 T=   211. E= -.70149871E+03 F= -.70542596E+03 E0= -.70542596E+03  EK= 0.39273E+01 SP= 0.00E+00 SK= 0.00E+00
   2280 T=   211. E= -.70149084E+03 F= -.70542424E+03 E0= -.70542424E+03  EK= 0.39334E+01 SP= 0.00E+00 SK= 0.00E+00
   2281 T=   214. E= -.70142213E+03 F= -.70541397E+03 E0= -.70541397E+03  EK= 0.39918E+01 SP= 0.00E+00 SK= 0.00E+00
   2282 T=   212. E= -.70138892E+03 F= -.70534360E+03 E0= -.70534360E+03  EK= 0.39547E+01 SP= 0.00E+00 SK= 0.00E+00
   2283 T=   207. E= -.70139966E+03 F= -.70525863E+03 E0= -.70525863E+03  EK= 0.38590E+01 SP= 0.00E+00 SK= 0.00E+00
   2284 T=   205. E= -.70137449E+03 F= -.70519321E+03 E0= -.70519321E+03  EK= 0.38187E+01 SP= 0.00E+00 SK= 0.00E+00
   2285 T=   206. E= -.70135518E+03 F= -.70519369E+03 E0= -.70519369E+03  EK= 0.38385E+01 SP= 0.00E+00 SK= 0.00E+00
   2286 T=   208. E= -.70137271E+03 F= -.70524148E+03 E0= -.70524148E+03  EK= 0.38688E+01 SP= 0.00E+00 SK= 0.00E+00
   2287 T=   211. E= -.70136855E+03 F= -.70529661E+03 E0= -.70529661E+03  EK= 0.39281E+01 SP= 0.00E+00 SK= 0.00E+00
   2288 T=   217. E= -.70133607E+03 F= -.70537750E+03 E0= -.70537750E+03  EK= 0.40414E+01 SP= 0.00E+00 SK= 0.00E+00
   2289 T=   223. E= -.70129994E+03 F= -.70545530E+03 E0= -.70545530E+03  EK= 0.41554E+01 SP= 0.00E+00 SK= 0.00E+00
   2290 T=   224. E= -.70136193E+03 F= -.70553283E+03 E0= -.70553283E+03  EK= 0.41709E+01 SP= 0.00E+00 SK= 0.00E+00
   2291 T=   226. E= -.70137329E+03 F= -.70558033E+03 E0= -.70558033E+03  EK= 0.42070E+01 SP= 0.00E+00 SK= 0.00E+00
   2292 T=   230. E= -.70132350E+03 F= -.70560449E+03 E0= -.70560449E+03  EK= 0.42810E+01 SP= 0.00E+00 SK= 0.00E+00
   2293 T=   231. E= -.70130222E+03 F= -.70560321E+03 E0= -.70560321E+03  EK= 0.43010E+01 SP= 0.00E+00 SK= 0.00E+00
   2294 T=   231. E= -.70130185E+03 F= -.70560989E+03 E0= -.70560989E+03  EK= 0.43080E+01 SP= 0.00E+00 SK= 0.00E+00
   2295 T=   233. E= -.70131791E+03 F= -.70564963E+03 E0= -.70564963E+03  EK= 0.43317E+01 SP= 0.00E+00 SK= 0.00E+00
   2296 T=   235. E= -.70133584E+03 F= -.70571287E+03 E0= -.70571287E+03  EK= 0.43770E+01 SP= 0.00E+00 SK= 0.00E+00
   2297 T=   238. E= -.70132441E+03 F= -.70576078E+03 E0= -.70576078E+03  EK= 0.44364E+01 SP= 0.00E+00 SK= 0.00E+00
   2298 T=   239. E= -.70131035E+03 F= -.70575973E+03 E0= -.70575973E+03  EK= 0.44494E+01 SP= 0.00E+00 SK= 0.00E+00
   2299 T=   236. E= -.70129362E+03 F= -.70568721E+03 E0= -.70568721E+03  EK= 0.43936E+01 SP= 0.00E+00 SK= 0.00E+00
   2300 T=   232. E= -.70128664E+03 F= -.70559973E+03 E0= -.70559973E+03  EK= 0.43131E+01 SP= 0.00E+00 SK= 0.00E+00
   2301 T=   227. E= -.70130600E+03 F= -.70553205E+03 E0= -.70553205E+03  EK= 0.42261E+01 SP= 0.00E+00 SK= 0.00E+00
   2302 T=   222. E= -.70137139E+03 F= -.70550367E+03 E0= -.70550367E+03  EK= 0.41323E+01 SP= 0.00E+00 SK= 0.00E+00
   2303 T=   221. E= -.70138582E+03 F= -.70549661E+03 E0= -.70549661E+03  EK= 0.41108E+01 SP= 0.00E+00 SK= 0.00E+00
   2304 T=   225. E= -.70132287E+03 F= -.70550196E+03 E0= -.70550196E+03  EK= 0.41791E+01 SP= 0.00E+00 SK= 0.00E+00
   2305 T=   226. E= -.70131599E+03 F= -.70551831E+03 E0= -.70551831E+03  EK= 0.42023E+01 SP= 0.00E+00 SK= 0.00E+00
   2306 T=   232. E= -.70121796E+03 F= -.70554308E+03 E0= -.70554308E+03  EK= 0.43251E+01 SP= 0.00E+00 SK= 0.00E+00
   2307 T=   238. E= -.70111604E+03 F= -.70554783E+03 E0= -.70554783E+03  EK= 0.44318E+01 SP= 0.00E+00 SK= 0.00E+00
   2308 T=   239. E= -.70107733E+03 F= -.70552408E+03 E0= -.70552408E+03  EK= 0.44467E+01 SP= 0.00E+00 SK= 0.00E+00
   2309 T=   240. E= -.70099172E+03 F= -.70545471E+03 E0= -.70545471E+03  EK= 0.44630E+01 SP= 0.00E+00 SK= 0.00E+00
   2310 T=   238. E= -.70096476E+03 F= -.70539508E+03 E0= -.70539508E+03  EK= 0.44303E+01 SP= 0.00E+00 SK= 0.00E+00
   2311 T=   239. E= -.70096300E+03 F= -.70540671E+03 E0= -.70540671E+03  EK= 0.44437E+01 SP= 0.00E+00 SK= 0.00E+00
   2312 T=   245. E= -.70093743E+03 F= -.70550541E+03 E0= -.70550541E+03  EK= 0.45680E+01 SP= 0.00E+00 SK= 0.00E+00
   2313 T=   248. E= -.70096393E+03 F= -.70558836E+03 E0= -.70558836E+03  EK= 0.46244E+01 SP= 0.00E+00 SK= 0.00E+00
   2314 T=   246. E= -.70097266E+03 F= -.70555471E+03 E0= -.70555471E+03  EK= 0.45820E+01 SP= 0.00E+00 SK= 0.00E+00
   2315 T=   240. E= -.70096582E+03 F= -.70543308E+03 E0= -.70543308E+03  EK= 0.44673E+01 SP= 0.00E+00 SK= 0.00E+00
   2316 T=   234. E= -.70094368E+03 F= -.70530239E+03 E0= -.70530239E+03  EK= 0.43587E+01 SP= 0.00E+00 SK= 0.00E+00
   2317 T=   234. E= -.70088988E+03 F= -.70525016E+03 E0= -.70525016E+03  EK= 0.43603E+01 SP= 0.00E+00 SK= 0.00E+00
   2318 T=   235. E= -.70088213E+03 F= -.70525303E+03 E0= -.70525303E+03  EK= 0.43709E+01 SP= 0.00E+00 SK= 0.00E+00
   2319 T=   233. E= -.70096501E+03 F= -.70530794E+03 E0= -.70530794E+03  EK= 0.43429E+01 SP= 0.00E+00 SK= 0.00E+00
   2320 T=   232. E= -.70105321E+03 F= -.70537778E+03 E0= -.70537778E+03  EK= 0.43246E+01 SP= 0.00E+00 SK= 0.00E+00
   2321 T=   234. E= -.70107106E+03 F= -.70543477E+03 E0= -.70543477E+03  EK= 0.43637E+01 SP= 0.00E+00 SK= 0.00E+00
   2322 T=   236. E= -.70110555E+03 F= -.70549144E+03 E0= -.70549144E+03  EK= 0.43859E+01 SP= 0.00E+00 SK= 0.00E+00
   2323 T=   234. E= -.70112552E+03 F= -.70549013E+03 E0= -.70549013E+03  EK= 0.43646E+01 SP= 0.00E+00 SK= 0.00E+00
   2324 T=   235. E= -.70106858E+03 F= -.70544490E+03 E0= -.70544490E+03  EK= 0.43763E+01 SP= 0.00E+00 SK= 0.00E+00
   2325 T=   231. E= -.70103544E+03 F= -.70533015E+03 E0= -.70533015E+03  EK= 0.42947E+01 SP= 0.00E+00 SK= 0.00E+00
   2326 T=   228. E= -.70098749E+03 F= -.70524023E+03 E0= -.70524023E+03  EK= 0.42527E+01 SP= 0.00E+00 SK= 0.00E+00
   2327 T=   233. E= -.70093235E+03 F= -.70526279E+03 E0= -.70526279E+03  EK= 0.43304E+01 SP= 0.00E+00 SK= 0.00E+00
   2328 T=   245. E= -.70086586E+03 F= -.70542587E+03 E0= -.70542587E+03  EK= 0.45600E+01 SP= 0.00E+00 SK= 0.00E+00
   2329 T=   256. E= -.70085159E+03 F= -.70561103E+03 E0= -.70561103E+03  EK= 0.47594E+01 SP= 0.00E+00 SK= 0.00E+00
   2330 T=   259. E= -.70086932E+03 F= -.70568535E+03 E0= -.70568535E+03  EK= 0.48160E+01 SP= 0.00E+00 SK= 0.00E+00
   2331 T=   257. E= -.70084147E+03 F= -.70561919E+03 E0= -.70561919E+03  EK= 0.47777E+01 SP= 0.00E+00 SK= 0.00E+00
   2332 T=   250. E= -.70080757E+03 F= -.70545727E+03 E0= -.70545727E+03  EK= 0.46497E+01 SP= 0.00E+00 SK= 0.00E+00
   2333 T=   247. E= -.70074984E+03 F= -.70534201E+03 E0= -.70534201E+03  EK= 0.45922E+01 SP= 0.00E+00 SK= 0.00E+00
   2334 T=   250. E= -.70067694E+03 F= -.70533553E+03 E0= -.70533553E+03  EK= 0.46586E+01 SP= 0.00E+00 SK= 0.00E+00
   2335 T=   254. E= -.70067190E+03 F= -.70540243E+03 E0= -.70540243E+03  EK= 0.47305E+01 SP= 0.00E+00 SK= 0.00E+00
   2336 T=   256. E= -.70069189E+03 F= -.70544854E+03 E0= -.70544854E+03  EK= 0.47567E+01 SP= 0.00E+00 SK= 0.00E+00
   2337 T=   252. E= -.70074263E+03 F= -.70542881E+03 E0= -.70542881E+03  EK= 0.46862E+01 SP= 0.00E+00 SK= 0.00E+00
   2338 T=   246. E= -.70079506E+03 F= -.70537020E+03 E0= -.70537020E+03  EK= 0.45751E+01 SP= 0.00E+00 SK= 0.00E+00
   2339 T=   241. E= -.70080638E+03 F= -.70528496E+03 E0= -.70528496E+03  EK= 0.44786E+01 SP= 0.00E+00 SK= 0.00E+00
   2340 T=   236. E= -.70083473E+03 F= -.70523497E+03 E0= -.70523497E+03  EK= 0.44002E+01 SP= 0.00E+00 SK= 0.00E+00
   2341 T=   232. E= -.70088396E+03 F= -.70520052E+03 E0= -.70520052E+03  EK= 0.43166E+01 SP= 0.00E+00 SK= 0.00E+00
   2342 T=   232. E= -.70092674E+03 F= -.70524147E+03 E0= -.70524147E+03  EK= 0.43147E+01 SP= 0.00E+00 SK= 0.00E+00
   2343 T=   235. E= -.70095184E+03 F= -.70532002E+03 E0= -.70532002E+03  EK= 0.43682E+01 SP= 0.00E+00 SK= 0.00E+00
   2344 T=   239. E= -.70095394E+03 F= -.70540364E+03 E0= -.70540364E+03  EK= 0.44497E+01 SP= 0.00E+00 SK= 0.00E+00
   2345 T=   246. E= -.70089660E+03 F= -.70546656E+03 E0= -.70546656E+03  EK= 0.45700E+01 SP= 0.00E+00 SK= 0.00E+00
   2346 T=   251. E= -.70082433E+03 F= -.70549083E+03 E0= -.70549083E+03  EK= 0.46665E+01 SP= 0.00E+00 SK= 0.00E+00
   2347 T=   251. E= -.70079591E+03 F= -.70547328E+03 E0= -.70547328E+03  EK= 0.46774E+01 SP= 0.00E+00 SK= 0.00E+00
   2348 T=   252. E= -.70077083E+03 F= -.70546731E+03 E0= -.70546731E+03  EK= 0.46965E+01 SP= 0.00E+00 SK= 0.00E+00
   2349 T=   255. E= -.70076044E+03 F= -.70551111E+03 E0= -.70551111E+03  EK= 0.47507E+01 SP= 0.00E+00 SK= 0.00E+00
   2350 T=   261. E= -.70077915E+03 F= -.70563308E+03 E0= -.70563308E+03  EK= 0.48539E+01 SP= 0.00E+00 SK= 0.00E+00
   2351 T=   266. E= -.70079319E+03 F= -.70574945E+03 E0= -.70574945E+03  EK= 0.49563E+01 SP= 0.00E+00 SK= 0.00E+00
   2352 T=   271. E= -.70076594E+03 F= -.70580287E+03 E0= -.70580287E+03  EK= 0.50369E+01 SP= 0.00E+00 SK= 0.00E+00
   2353 T=   269. E= -.70074202E+03 F= -.70574436E+03 E0= -.70574436E+03  EK= 0.50023E+01 SP= 0.00E+00 SK= 0.00E+00
   2354 T=   262. E= -.70073018E+03 F= -.70561331E+03 E0= -.70561331E+03  EK= 0.48831E+01 SP= 0.00E+00 SK= 0.00E+00
   2355 T=   256. E= -.70069396E+03 F= -.70546614E+03 E0= -.70546614E+03  EK= 0.47722E+01 SP= 0.00E+00 SK= 0.00E+00
   2356 T=   252. E= -.70062181E+03 F= -.70531333E+03 E0= -.70531333E+03  EK= 0.46915E+01 SP= 0.00E+00 SK= 0.00E+00
   2357 T=   252. E= -.70055664E+03 F= -.70524161E+03 E0= -.70524161E+03  EK= 0.46850E+01 SP= 0.00E+00 SK= 0.00E+00
   2358 T=   251. E= -.70056306E+03 F= -.70523106E+03 E0= -.70523106E+03  EK= 0.46680E+01 SP= 0.00E+00 SK= 0.00E+00
   2359 T=   254. E= -.70052006E+03 F= -.70524125E+03 E0= -.70524125E+03  EK= 0.47212E+01 SP= 0.00E+00 SK= 0.00E+00
   2360 T=   259. E= -.70041743E+03 F= -.70523251E+03 E0= -.70523251E+03  EK= 0.48151E+01 SP= 0.00E+00 SK= 0.00E+00
   2361 T=   261. E= -.70035073E+03 F= -.70521727E+03 E0= -.70521727E+03  EK= 0.48665E+01 SP= 0.00E+00 SK= 0.00E+00
   2362 T=   261. E= -.70034487E+03 F= -.70519596E+03 E0= -.70519596E+03  EK= 0.48511E+01 SP= 0.00E+00 SK= 0.00E+00
   2363 T=   257. E= -.70032334E+03 F= -.70509855E+03 E0= -.70509855E+03  EK= 0.47752E+01 SP= 0.00E+00 SK= 0.00E+00
   2364 T=   251. E= -.70030191E+03 F= -.70496827E+03 E0= -.70496827E+03  EK= 0.46664E+01 SP= 0.00E+00 SK= 0.00E+00
   2365 T=   244. E= -.70030385E+03 F= -.70485195E+03 E0= -.70485195E+03  EK= 0.45481E+01 SP= 0.00E+00 SK= 0.00E+00
   2366 T=   244. E= -.70025392E+03 F= -.70480164E+03 E0= -.70480164E+03  EK= 0.45477E+01 SP= 0.00E+00 SK= 0.00E+00
   2367 T=   249. E= -.70018170E+03 F= -.70480793E+03 E0= -.70480793E+03  EK= 0.46262E+01 SP= 0.00E+00 SK= 0.00E+00
   2368 T=   249. E= -.70016941E+03 F= -.70481344E+03 E0= -.70481344E+03  EK= 0.46440E+01 SP= 0.00E+00 SK= 0.00E+00
   2369 T=   249. E= -.70016473E+03 F= -.70479919E+03 E0= -.70479919E+03  EK= 0.46345E+01 SP= 0.00E+00 SK= 0.00E+00
   2370 T=   249. E= -.70014411E+03 F= -.70477373E+03 E0= -.70477373E+03  EK= 0.46296E+01 SP= 0.00E+00 SK= 0.00E+00
   2371 T=   249. E= -.70012841E+03 F= -.70476069E+03 E0= -.70476069E+03  EK= 0.46323E+01 SP= 0.00E+00 SK= 0.00E+00
   2372 T=   249. E= -.70011865E+03 F= -.70475219E+03 E0= -.70475219E+03  EK= 0.46335E+01 SP= 0.00E+00 SK= 0.00E+00
   2373 T=   246. E= -.70013504E+03 F= -.70470841E+03 E0= -.70470841E+03  EK= 0.45734E+01 SP= 0.00E+00 SK= 0.00E+00
   2374 T=   247. E= -.70009059E+03 F= -.70468235E+03 E0= -.70468235E+03  EK= 0.45918E+01 SP= 0.00E+00 SK= 0.00E+00
   2375 T=   246. E= -.70006603E+03 F= -.70464129E+03 E0= -.70464129E+03  EK= 0.45753E+01 SP= 0.00E+00 SK= 0.00E+00
   2376 T=   239. E= -.70015734E+03 F= -.70461122E+03 E0= -.70461122E+03  EK= 0.44539E+01 SP= 0.00E+00 SK= 0.00E+00
   2377 T=   237. E= -.70024983E+03 F= -.70465620E+03 E0= -.70465620E+03  EK= 0.44064E+01 SP= 0.00E+00 SK= 0.00E+00
   2378 T=   243. E= -.70028122E+03 F= -.70480210E+03 E0= -.70480210E+03  EK= 0.45209E+01 SP= 0.00E+00 SK= 0.00E+00
   2379 T=   254. E= -.70025197E+03 F= -.70498523E+03 E0= -.70498523E+03  EK= 0.47333E+01 SP= 0.00E+00 SK= 0.00E+00
   2380 T=   265. E= -.70021367E+03 F= -.70514057E+03 E0= -.70514057E+03  EK= 0.49269E+01 SP= 0.00E+00 SK= 0.00E+00
   2381 T=   269. E= -.70018662E+03 F= -.70519505E+03 E0= -.70519505E+03  EK= 0.50084E+01 SP= 0.00E+00 SK= 0.00E+00
   2382 T=   268. E= -.70017565E+03 F= -.70516991E+03 E0= -.70516991E+03  EK= 0.49943E+01 SP= 0.00E+00 SK= 0.00E+00
   2383 T=   270. E= -.70012021E+03 F= -.70514005E+03 E0= -.70514005E+03  EK= 0.50198E+01 SP= 0.00E+00 SK= 0.00E+00
   2384 T=   267. E= -.70009261E+03 F= -.70505736E+03 E0= -.70505736E+03  EK= 0.49647E+01 SP= 0.00E+00 SK= 0.00E+00
   2385 T=   262. E= -.70008222E+03 F= -.70496626E+03 E0= -.70496626E+03  EK= 0.48840E+01 SP= 0.00E+00 SK= 0.00E+00
   2386 T=   262. E= -.70002993E+03 F= -.70490343E+03 E0= -.70490343E+03  EK= 0.48735E+01 SP= 0.00E+00 SK= 0.00E+00
   2387 T=   269. E= -.69989284E+03 F= -.70489567E+03 E0= -.70489567E+03  EK= 0.50028E+01 SP= 0.00E+00 SK= 0.00E+00
   2388 T=   276. E= -.69976821E+03 F= -.70490270E+03 E0= -.70490270E+03  EK= 0.51345E+01 SP= 0.00E+00 SK= 0.00E+00
   2389 T=   273. E= -.69981802E+03 F= -.70490700E+03 E0= -.70490700E+03  EK= 0.50890E+01 SP= 0.00E+00 SK= 0.00E+00
   2390 T=   270. E= -.69983211E+03 F= -.70486227E+03 E0= -.70486227E+03  EK= 0.50302E+01 SP= 0.00E+00 SK= 0.00E+00
   2391 T=   270. E= -.69981440E+03 F= -.70483793E+03 E0= -.70483793E+03  EK= 0.50235E+01 SP= 0.00E+00 SK= 0.00E+00
   2392 T=   264. E= -.69993194E+03 F= -.70484014E+03 E0= -.70484014E+03  EK= 0.49082E+01 SP= 0.00E+00 SK= 0.00E+00
   2393 T=   262. E= -.69998394E+03 F= -.70486401E+03 E0= -.70486401E+03  EK= 0.48801E+01 SP= 0.00E+00 SK= 0.00E+00
   2394 T=   267. E= -.69993473E+03 F= -.70490056E+03 E0= -.70490056E+03  EK= 0.49658E+01 SP= 0.00E+00 SK= 0.00E+00
   2395 T=   269. E= -.69994157E+03 F= -.70494117E+03 E0= -.70494117E+03  EK= 0.49996E+01 SP= 0.00E+00 SK= 0.00E+00
   2396 T=   270. E= -.69999639E+03 F= -.70502399E+03 E0= -.70502399E+03  EK= 0.50276E+01 SP= 0.00E+00 SK= 0.00E+00
   2397 T=   271. E= -.70006741E+03 F= -.70512077E+03 E0= -.70512077E+03  EK= 0.50534E+01 SP= 0.00E+00 SK= 0.00E+00
       N       E                     dE             d eps       ncg     rms          rms(c)
DAV:   1    -0.369819247657E+03    0.32743E+03   -0.30600E+04 12190   0.370E+02
DAV:   2    -0.697573902588E+03   -0.32775E+03   -0.32356E+03 13786   0.105E+02
DAV:   3    -0.705462309697E+03   -0.78884E+01   -0.78827E+01 14276   0.185E+01
DAV:   4    -0.705589743733E+03   -0.12743E+00   -0.12742E+00 14468   0.222E+00    0.283E+01
DAV:   5    -0.696854342638E+03    0.87354E+01   -0.17971E+01 13988   0.108E+01    0.157E+01
DAV:   6    -0.696509198469E+03    0.34514E+00   -0.11886E+01 14580   0.821E+00    0.522E+00
DAV:   7    -0.696894404933E+03   -0.38521E+00   -0.21087E+00 13948   0.393E+00    0.188E+00
DAV:   8    -0.696914163718E+03   -0.19759E-01   -0.22661E-01 13916   0.133E+00    0.861E-01
DAV:   9    -0.696914306680E+03   -0.14296E-03   -0.68364E-02 13964   0.684E-01    0.334E-01
DAV:  10    -0.696912289130E+03    0.20175E-02   -0.10003E-02 15108   0.339E-01    0.139E-01
DAV:  11    -0.696911826666E+03    0.46246E-03   -0.64914E-03 14076   0.212E-01    0.102E-01
DAV:  12    -0.696911285113E+03    0.54155E-03   -0.93832E-04 14436   0.115E-01    0.396E-02
DAV:  13    -0.696910932868E+03    0.35225E-03   -0.62921E-04 12908   0.106E-01    0.468E-02
DAV:  14    -0.696910826409E+03    0.10646E-03   -0.30968E-04 12724   0.665E-02    0.280E-02
DAV:  15    -0.696910812279E+03    0.14131E-04   -0.11762E-04  9444   0.286E-02
   2398 T=   277. E= -.70003091E+03 F= -.70518689E+03 E0= -.70518689E+03  EK= 0.51560E+01 SP= 0.00E+00 SK= 0.00E+00
   2399 T=   283. E= -.70003936E+03 F= -.70531016E+03 E0= -.70531016E+03  EK= 0.52708E+01 SP= 0.00E+00 SK= 0.00E+00
   2400 T=   280. E= -.70006801E+03 F= -.70528110E+03 E0= -.70528110E+03  EK= 0.52131E+01 SP= 0.00E+00 SK= 0.00E+00
   2401 T=   272. E= -.70006848E+03 F= -.70513524E+03 E0= -.70513524E+03  EK= 0.50668E+01 SP= 0.00E+00 SK= 0.00E+00
   2402 T=   263. E= -.69999480E+03 F= -.70489832E+03 E0= -.70489832E+03  EK= 0.49035E+01 SP= 0.00E+00 SK= 0.00E+00
   2403 T=   256. E= -.69994176E+03 F= -.70471155E+03 E0= -.70471155E+03  EK= 0.47698E+01 SP= 0.00E+00 SK= 0.00E+00
   2404 T=   258. E= -.69982831E+03 F= -.70462133E+03 E0= -.70462133E+03  EK= 0.47930E+01 SP= 0.00E+00 SK= 0.00E+00
   2405 T=   263. E= -.69970363E+03 F= -.70460238E+03 E0= -.70460238E+03  EK= 0.48988E+01 SP= 0.00E+00 SK= 0.00E+00
   2406 T=   262. E= -.69972361E+03 F= -.70459205E+03 E0= -.70459205E+03  EK= 0.48684E+01 SP= 0.00E+00 SK= 0.00E+00
   2407 T=   262. E= -.69970689E+03 F= -.70457527E+03 E0= -.70457527E+03  EK= 0.48684E+01 SP= 0.00E+00 SK= 0.00E+00
       N       E                     dE             d eps       ncg     rms          rms(c)
DAV:   1    -0.691788845182E+03    0.51220E+01   -0.19397E+03 12190   0.995E+01
DAV:   2    -0.696965966427E+03   -0.51771E+01   -0.51755E+01 14468   0.147E+01
DAV:   3    -0.697020464376E+03   -0.54498E-01   -0.54494E-01 14636   0.156E+00
DAV:   4    -0.697021718408E+03   -0.12540E-02   -0.12540E-02 14444   0.224E-01    0.880E+00
DAV:   5    -0.696318636767E+03    0.70308E+00   -0.14616E+00 15316   0.372E+00    0.483E+00
DAV:   6    -0.696270051702E+03    0.48585E-01   -0.10975E+00 14516   0.272E+00    0.145E+00
DAV:   7    -0.696284033397E+03   -0.13982E-01   -0.21399E-01 14220   0.137E+00    0.529E-01
DAV:   8    -0.696280804969E+03    0.32284E-02   -0.23451E-02 14404   0.450E-01    0.267E-01
DAV:   9    -0.696278489588E+03    0.23154E-02   -0.10441E-02 13812   0.271E-01    0.153E-01
DAV:  10    -0.696277106662E+03    0.13829E-02   -0.25335E-03 16380   0.207E-01    0.453E-02
DAV:  11    -0.696276770935E+03    0.33573E-03   -0.11067E-03 14132   0.976E-02    0.476E-02
DAV:  12    -0.696276446515E+03    0.32442E-03   -0.25095E-04 11236   0.731E-02    0.172E-02
DAV:  13    -0.696276359241E+03    0.87274E-04   -0.19744E-04 10380   0.588E-02
   2408 T=   269. E= -.69956268E+03 F= -.70456166E+03 E0= -.70456166E+03  EK= 0.49990E+01 SP= 0.00E+00 SK= 0.00E+00
   2409 T=   276. E= -.69950292E+03 F= -.70463399E+03 E0= -.70463399E+03  EK= 0.51311E+01 SP= 0.00E+00 SK= 0.00E+00
   2410 T=   278. E= -.69949382E+03 F= -.70465981E+03 E0= -.70465981E+03  EK= 0.51660E+01 SP= 0.00E+00 SK= 0.00E+00
   2411 T=   272. E= -.69951594E+03 F= -.70457949E+03 E0= -.70457949E+03  EK= 0.50635E+01 SP= 0.00E+00 SK= 0.00E+00
   2412 T=   263. E= -.69955658E+03 F= -.70445765E+03 E0= -.70445765E+03  EK= 0.49011E+01 SP= 0.00E+00 SK= 0.00E+00
   2413 T=   255. E= -.69959675E+03 F= -.70434007E+03 E0= -.70434007E+03  EK= 0.47433E+01 SP= 0.00E+00 SK= 0.00E+00
   2414 T=   253. E= -.69956088E+03 F= -.70427280E+03 E0= -.70427280E+03  EK= 0.47119E+01 SP= 0.00E+00 SK= 0.00E+00
   2415 T=   257. E= -.69954658E+03 F= -.70433025E+03 E0= -.70433025E+03  EK= 0.47837E+01 SP= 0.00E+00 SK= 0.00E+00
   2416 T=   265. E= -.69952837E+03 F= -.70446762E+03 E0= -.70446762E+03  EK= 0.49392E+01 SP= 0.00E+00 SK= 0.00E+00
   2417 T=   272. E= -.69951092E+03 F= -.70457897E+03 E0= -.70457897E+03  EK= 0.50680E+01 SP= 0.00E+00 SK= 0.00E+00
       N       E                     dE             d eps       ncg     rms          rms(c)
DAV:   1    -0.691107885947E+03    0.51686E+01   -0.21854E+03 12190   0.105E+02
DAV:   2    -0.697097096879E+03   -0.59892E+01   -0.59876E+01 14436   0.158E+01
DAV:   3    -0.697159504502E+03   -0.62408E-01   -0.62404E-01 14636   0.168E+00
DAV:   4    -0.697160894451E+03   -0.13899E-02   -0.13899E-02 14452   0.240E-01    0.915E+00
DAV:   5    -0.696282314511E+03    0.87858E+00   -0.16686E+00 15020   0.415E+00    0.495E+00
DAV:   6    -0.696198681926E+03    0.83633E-01   -0.13616E+00 14628   0.307E+00    0.155E+00
DAV:   7    -0.696207076763E+03   -0.83948E-02   -0.26099E-01 13932   0.151E+00    0.561E-01
DAV:   8    -0.696203100782E+03    0.39760E-02   -0.28589E-02 14308   0.546E-01    0.263E-01
DAV:   9    -0.696200788354E+03    0.23124E-02   -0.12758E-02 13660   0.295E-01    0.176E-01
DAV:  10    -0.696199464703E+03    0.13237E-02   -0.30010E-03 16260   0.208E-01    0.510E-02
DAV:  11    -0.696199104039E+03    0.36066E-03   -0.12489E-03 14084   0.108E-01    0.461E-02
DAV:  12    -0.696198831927E+03    0.27211E-03   -0.18168E-04 10644   0.760E-02    0.235E-02
DAV:  13    -0.696198682249E+03    0.14968E-03   -0.25227E-04 11388   0.868E-02    0.223E-02
DAV:  14    -0.696198671403E+03    0.10845E-04   -0.19270E-04 10572   0.434E-02
   2418 T=   265. E= -.69958712E+03 F= -.70451994E+03 E0= -.70451994E+03  EK= 0.49328E+01 SP= 0.00E+00 SK= 0.00E+00
   2419 T=   254. E= -.69961176E+03 F= -.70433967E+03 E0= -.70433967E+03  EK= 0.47279E+01 SP= 0.00E+00 SK= 0.00E+00
   2420 T=   248. E= -.69954218E+03 F= -.70414986E+03 E0= -.70414986E+03  EK= 0.46077E+01 SP= 0.00E+00 SK= 0.00E+00
   2421 T=   243. E= -.69950547E+03 F= -.70402295E+03 E0= -.70402295E+03  EK= 0.45175E+01 SP= 0.00E+00 SK= 0.00E+00
   2422 T=   242. E= -.69952059E+03 F= -.70403378E+03 E0= -.70403378E+03  EK= 0.45132E+01 SP= 0.00E+00 SK= 0.00E+00
   2423 T=   245. E= -.69954203E+03 F= -.70410568E+03 E0= -.70410568E+03  EK= 0.45636E+01 SP= 0.00E+00 SK= 0.00E+00
   2424 T=   253. E= -.69948262E+03 F= -.70418683E+03 E0= -.70418683E+03  EK= 0.47042E+01 SP= 0.00E+00 SK= 0.00E+00
   2425 T=   259. E= -.69944121E+03 F= -.70426850E+03 E0= -.70426850E+03  EK= 0.48273E+01 SP= 0.00E+00 SK= 0.00E+00
   2426 T=   259. E= -.69952008E+03 F= -.70433319E+03 E0= -.70433319E+03  EK= 0.48131E+01 SP= 0.00E+00 SK= 0.00E+00
   2427 T=   258. E= -.69955237E+03 F= -.70436372E+03 E0= -.70436372E+03  EK= 0.48113E+01 SP= 0.00E+00 SK= 0.00E+00
       N       E                     dE             d eps       ncg     rms          rms(c)
DAV:   1    -0.691333361323E+03    0.48653E+01   -0.20864E+03 12190   0.103E+02
DAV:   2    -0.696999531117E+03   -0.56662E+01   -0.56647E+01 14412   0.154E+01
DAV:   3    -0.697058810768E+03   -0.59280E-01   -0.59276E-01 14660   0.162E+00
DAV:   4    -0.697060166884E+03   -0.13561E-02   -0.13561E-02 14444   0.234E-01    0.892E+00
DAV:   5    -0.696208898244E+03    0.85127E+00   -0.17091E+00 15260   0.392E+00    0.476E+00
DAV:   6    -0.696124825811E+03    0.84072E-01   -0.11786E+00 14684   0.275E+00    0.149E+00
DAV:   7    -0.696137725544E+03   -0.12900E-01   -0.21729E-01 14196   0.132E+00    0.531E-01
DAV:   8    -0.696134264484E+03    0.34611E-02   -0.21312E-02 14180   0.455E-01    0.259E-01
DAV:   9    -0.696131587530E+03    0.26770E-02   -0.97056E-03 13588   0.272E-01    0.138E-01
DAV:  10    -0.696130412276E+03    0.11753E-02   -0.20745E-03 15940   0.171E-01    0.509E-02
DAV:  11    -0.696130028910E+03    0.38337E-03   -0.96048E-04 13804   0.895E-02    0.441E-02
DAV:  12    -0.696129673052E+03    0.35586E-03   -0.15698E-04 10220   0.789E-02    0.174E-02
DAV:  13    -0.696129569842E+03    0.10321E-03   -0.34804E-04 12596   0.731E-02    0.255E-02
DAV:  14    -0.696129555019E+03    0.14823E-04   -0.13200E-04 10396   0.364E-02
   2428 T=   265. E= -.69949662E+03 F= -.70442911E+03 E0= -.70442911E+03  EK= 0.49325E+01 SP= 0.00E+00 SK= 0.00E+00
   2429 T=   272. E= -.69948857E+03 F= -.70454450E+03 E0= -.70454450E+03  EK= 0.50559E+01 SP= 0.00E+00 SK= 0.00E+00
   2430 T=   283. E= -.69944980E+03 F= -.70471566E+03 E0= -.70471566E+03  EK= 0.52659E+01 SP= 0.00E+00 SK= 0.00E+00
   2431 T=   299. E= -.69928893E+03 F= -.70485622E+03 E0= -.70485622E+03  EK= 0.55673E+01 SP= 0.00E+00 SK= 0.00E+00
   2432 T=   305. E= -.69924466E+03 F= -.70491927E+03 E0= -.70491927E+03  EK= 0.56746E+01 SP= 0.00E+00 SK= 0.00E+00
   2433 T=   308. E= -.69924237E+03 F= -.70497188E+03 E0= -.70497188E+03  EK= 0.57295E+01 SP= 0.00E+00 SK= 0.00E+00
   2434 T=   310. E= -.69924876E+03 F= -.70501660E+03 E0= -.70501660E+03  EK= 0.57678E+01 SP= 0.00E+00 SK= 0.00E+00
   2435 T=   308. E= -.69932269E+03 F= -.70504684E+03 E0= -.70504684E+03  EK= 0.57242E+01 SP= 0.00E+00 SK= 0.00E+00
   2436 T=   304. E= -.69937560E+03 F= -.70503548E+03 E0= -.70503548E+03  EK= 0.56599E+01 SP= 0.00E+00 SK= 0.00E+00
   2437 T=   302. E= -.69935719E+03 F= -.70498695E+03 E0= -.70498695E+03  EK= 0.56298E+01 SP= 0.00E+00 SK= 0.00E+00
       N       E                     dE             d eps       ncg     rms          rms(c)
DAV:   1    -0.691167494905E+03    0.49621E+01   -0.24069E+03 12190   0.111E+02
DAV:   2    -0.697561184686E+03   -0.63937E+01   -0.63918E+01 14356   0.164E+01
DAV:   3    -0.697630016902E+03   -0.68832E-01   -0.68827E-01 14644   0.175E+00
DAV:   4    -0.697631607552E+03   -0.15907E-02   -0.15906E-02 14412   0.253E-01    0.963E+00
DAV:   5    -0.696728816939E+03    0.90279E+00   -0.17014E+00 14676   0.398E+00    0.525E+00
DAV:   6    -0.696606646004E+03    0.12217E+00   -0.13434E+00 14708   0.324E+00    0.153E+00
DAV:   7    -0.696616179993E+03   -0.95340E-02   -0.29744E-01 14316   0.156E+00    0.637E-01
DAV:   8    -0.696609310440E+03    0.68696E-02   -0.30991E-02 13980   0.491E-01    0.306E-01
DAV:   9    -0.696603968258E+03    0.53422E-02   -0.84686E-03 14028   0.312E-01    0.135E-01
DAV:  10    -0.696601193032E+03    0.27752E-02   -0.27255E-03 15620   0.257E-01    0.653E-02
DAV:  11    -0.696600263161E+03    0.92987E-03   -0.24026E-03 14460   0.185E-01    0.681E-02
DAV:  12    -0.696599746994E+03    0.51617E-03   -0.95089E-04 14236   0.128E-01    0.399E-02
DAV:  13    -0.696599536163E+03    0.21083E-03   -0.24077E-04 11140   0.987E-02    0.385E-02
DAV:  14    -0.696599523717E+03    0.12446E-04   -0.49903E-04 14452   0.621E-02
   2438 T=   301. E= -.69931044E+03 F= -.70490856E+03 E0= -.70490856E+03  EK= 0.55981E+01 SP= 0.00E+00 SK= 0.00E+00
   2439 T=   298. E= -.69927612E+03 F= -.70482706E+03 E0= -.70482706E+03  EK= 0.55509E+01 SP= 0.00E+00 SK= 0.00E+00
   2440 T=   288. E= -.69934796E+03 F= -.70471392E+03 E0= -.70471392E+03  EK= 0.53660E+01 SP= 0.00E+00 SK= 0.00E+00
   2441 T=   278. E= -.69946163E+03 F= -.70462799E+03 E0= -.70462799E+03  EK= 0.51664E+01 SP= 0.00E+00 SK= 0.00E+00
   2442 T=   269. E= -.69961854E+03 F= -.70462710E+03 E0= -.70462710E+03  EK= 0.50086E+01 SP= 0.00E+00 SK= 0.00E+00
   2443 T=   271. E= -.69968357E+03 F= -.70472952E+03 E0= -.70472952E+03  EK= 0.50459E+01 SP= 0.00E+00 SK= 0.00E+00
   2444 T=   280. E= -.69966848E+03 F= -.70487639E+03 E0= -.70487639E+03  EK= 0.52079E+01 SP= 0.00E+00 SK= 0.00E+00
   2445 T=   287. E= -.69966345E+03 F= -.70501073E+03 E0= -.70501073E+03  EK= 0.53473E+01 SP= 0.00E+00 SK= 0.00E+00
   2446 T=   291. E= -.69962953E+03 F= -.70505332E+03 E0= -.70505332E+03  EK= 0.54238E+01 SP= 0.00E+00 SK= 0.00E+00
   2447 T=   289. E= -.69964151E+03 F= -.70501822E+03 E0= -.70501822E+03  EK= 0.53767E+01 SP= 0.00E+00 SK= 0.00E+00
       N       E                     dE             d eps       ncg     rms          rms(c)
DAV:   1    -0.690792948827E+03    0.58066E+01   -0.24179E+03 12190   0.111E+02
DAV:   2    -0.697579979152E+03   -0.67870E+01   -0.67850E+01 14236   0.167E+01
DAV:   3    -0.697649788458E+03   -0.69809E-01   -0.69805E-01 14636   0.177E+00
DAV:   4    -0.697651337964E+03   -0.15495E-02   -0.15495E-02 14380   0.250E-01    0.954E+00
DAV:   5    -0.696719830391E+03    0.93151E+00   -0.18578E+00 15204   0.423E+00    0.513E+00
DAV:   6    -0.696631016663E+03    0.88814E-01   -0.13370E+00 14436   0.312E+00    0.161E+00
DAV:   7    -0.696640840947E+03   -0.98243E-02   -0.25320E-01 14348   0.151E+00    0.582E-01
DAV:   8    -0.696635684805E+03    0.51561E-02   -0.29988E-02 14436   0.501E-01    0.289E-01
DAV:   9    -0.696630806603E+03    0.48782E-02   -0.92954E-03 14028   0.336E-01    0.142E-01
DAV:  10    -0.696628377847E+03    0.24288E-02   -0.28120E-03 15724   0.263E-01    0.653E-02
DAV:  11    -0.696627284479E+03    0.10934E-02   -0.22182E-03 14244   0.202E-01    0.632E-02
DAV:  12    -0.696626552479E+03    0.73200E-03   -0.65811E-04 14652   0.161E-01    0.264E-02
DAV:  13    -0.696626345449E+03    0.20703E-03   -0.57296E-04 14260   0.127E-01    0.369E-02
DAV:  14    -0.696626347410E+03   -0.19607E-05   -0.58735E-04 14412   0.652E-02
   2448 T=   286. E= -.69962329E+03 F= -.70494137E+03 E0= -.70494137E+03  EK= 0.53181E+01 SP= 0.00E+00 SK= 0.00E+00
   2449 T=   289. E= -.69960187E+03 F= -.70497806E+03 E0= -.70497806E+03  EK= 0.53762E+01 SP= 0.00E+00 SK= 0.00E+00
   2450 T=   292. E= -.69955683E+03 F= -.70499543E+03 E0= -.70499543E+03  EK= 0.54386E+01 SP= 0.00E+00 SK= 0.00E+00
   2451 T=   291. E= -.69958875E+03 F= -.70499653E+03 E0= -.70499653E+03  EK= 0.54078E+01 SP= 0.00E+00 SK= 0.00E+00
   2452 T=   284. E= -.69968812E+03 F= -.70498261E+03 E0= -.70498261E+03  EK= 0.52945E+01 SP= 0.00E+00 SK= 0.00E+00
   2453 T=   279. E= -.69974830E+03 F= -.70493562E+03 E0= -.70493562E+03  EK= 0.51873E+01 SP= 0.00E+00 SK= 0.00E+00
   2454 T=   278. E= -.69970590E+03 F= -.70488117E+03 E0= -.70488117E+03  EK= 0.51753E+01 SP= 0.00E+00 SK= 0.00E+00
   2455 T=   274. E= -.69973879E+03 F= -.70483033E+03 E0= -.70483033E+03  EK= 0.50915E+01 SP= 0.00E+00 SK= 0.00E+00
   2456 T=   269. E= -.69975743E+03 F= -.70476461E+03 E0= -.70476461E+03  EK= 0.50072E+01 SP= 0.00E+00 SK= 0.00E+00
   2457 T=   260. E= -.69984628E+03 F= -.70469146E+03 E0= -.70469146E+03  EK= 0.48452E+01 SP= 0.00E+00 SK= 0.00E+00
       N       E                     dE             d eps       ncg     rms          rms(c)
DAV:   1    -0.690138049701E+03    0.64883E+01   -0.25232E+03 12190   0.113E+02
DAV:   2    -0.697202792317E+03   -0.70647E+01   -0.70625E+01 14340   0.171E+01
DAV:   3    -0.697277024829E+03   -0.74233E-01   -0.74227E-01 14644   0.182E+00
DAV:   4    -0.697278737134E+03   -0.17123E-02   -0.17122E-02 14412   0.260E-01    0.921E+00
DAV:   5    -0.696368076055E+03    0.91066E+00   -0.16358E+00 15156   0.401E+00    0.502E+00
DAV:   6    -0.696244290831E+03    0.12379E+00   -0.14192E+00 14732   0.325E+00    0.148E+00
DAV:   7    -0.696249338048E+03   -0.50472E-02   -0.30498E-01 14284   0.167E+00    0.608E-01
DAV:   8    -0.696242851569E+03    0.64865E-02   -0.36398E-02 14364   0.550E-01    0.321E-01
DAV:   9    -0.696236968919E+03    0.58826E-02   -0.13810E-02 13948   0.357E-01    0.179E-01
DAV:  10    -0.696233845346E+03    0.31236E-02   -0.35831E-03 16284   0.298E-01    0.729E-02
DAV:  11    -0.696232762941E+03    0.10824E-02   -0.31255E-03 14468   0.212E-01    0.794E-02
DAV:  12    -0.696231919773E+03    0.84317E-03   -0.82803E-04 14380   0.152E-01    0.308E-02
DAV:  13    -0.696231651656E+03    0.26812E-03   -0.53788E-04 13884   0.129E-01    0.454E-02
DAV:  14    -0.696231630732E+03    0.20924E-04   -0.64928E-04 14564   0.763E-02
   2458 T=   249. E= -.69989213E+03 F= -.70452961E+03 E0= -.70452961E+03  EK= 0.46375E+01 SP= 0.00E+00 SK= 0.00E+00
   2459 T=   247. E= -.69989076E+03 F= -.70449297E+03 E0= -.70449297E+03  EK= 0.46022E+01 SP= 0.00E+00 SK= 0.00E+00
   2460 T=   244. E= -.69989873E+03 F= -.70444020E+03 E0= -.70444020E+03  EK= 0.45415E+01 SP= 0.00E+00 SK= 0.00E+00
   2461 T=   240. E= -.69998587E+03 F= -.70444632E+03 E0= -.70444632E+03  EK= 0.44604E+01 SP= 0.00E+00 SK= 0.00E+00
   2462 T=   242. E= -.70000616E+03 F= -.70451309E+03 E0= -.70451309E+03  EK= 0.45069E+01 SP= 0.00E+00 SK= 0.00E+00
   2463 T=   246. E= -.70003741E+03 F= -.70461174E+03 E0= -.70461174E+03  EK= 0.45743E+01 SP= 0.00E+00 SK= 0.00E+00
   2464 T=   249. E= -.70008948E+03 F= -.70472009E+03 E0= -.70472009E+03  EK= 0.46306E+01 SP= 0.00E+00 SK= 0.00E+00
   2465 T=   251. E= -.70011384E+03 F= -.70478477E+03 E0= -.70478477E+03  EK= 0.46709E+01 SP= 0.00E+00 SK= 0.00E+00
   2466 T=   249. E= -.70016887E+03 F= -.70479597E+03 E0= -.70479597E+03  EK= 0.46271E+01 SP= 0.00E+00 SK= 0.00E+00
   2467 T=   244. E= -.70021832E+03 F= -.70475944E+03 E0= -.70475944E+03  EK= 0.45411E+01 SP= 0.00E+00 SK= 0.00E+00
       N       E                     dE             d eps       ncg     rms          rms(c)
DAV:   1    -0.691641946940E+03    0.45897E+01   -0.20375E+03 12190   0.102E+02
DAV:   2    -0.697064891438E+03   -0.54229E+01   -0.54216E+01 14380   0.152E+01
DAV:   3    -0.697120176384E+03   -0.55285E-01   -0.55282E-01 14628   0.158E+00
DAV:   4    -0.697121420507E+03   -0.12441E-02   -0.12441E-02 14388   0.226E-01    0.883E+00
DAV:   5    -0.696325533491E+03    0.79589E+00   -0.17071E+00 14924   0.393E+00    0.470E+00
DAV:   6    -0.696270423684E+03    0.55110E-01   -0.11180E+00 14548   0.260E+00    0.156E+00
DAV:   7    -0.696282457992E+03   -0.12034E-01   -0.20996E-01 14284   0.140E+00    0.533E-01
DAV:   8    -0.696279693932E+03    0.27641E-02   -0.28074E-02 14380   0.524E-01    0.250E-01
DAV:   9    -0.696277641997E+03    0.20519E-02   -0.10205E-02 13820   0.258E-01    0.152E-01
DAV:  10    -0.696276439389E+03    0.12026E-02   -0.22647E-03 16116   0.185E-01    0.500E-02
DAV:  11    -0.696276072461E+03    0.36693E-03   -0.10539E-03 13972   0.960E-02    0.448E-02
DAV:  12    -0.696275719896E+03    0.35257E-03   -0.11625E-04  9756   0.746E-02    0.196E-02
DAV:  13    -0.696275569298E+03    0.15060E-03   -0.38468E-04 12620   0.907E-02    0.246E-02
DAV:  14    -0.696275564375E+03    0.49228E-05   -0.22181E-04 11348   0.423E-02
   2468 T=   237. E= -.70017140E+03 F= -.70458517E+03 E0= -.70458517E+03  EK= 0.44138E+01 SP= 0.00E+00 SK= 0.00E+00
   2469 T=   233. E= -.70017671E+03 F= -.70451171E+03 E0= -.70451171E+03  EK= 0.43350E+01 SP= 0.00E+00 SK= 0.00E+00
   2470 T=   230. E= -.70017177E+03 F= -.70445613E+03 E0= -.70445613E+03  EK= 0.42844E+01 SP= 0.00E+00 SK= 0.00E+00
   2471 T=   233. E= -.70019806E+03 F= -.70453162E+03 E0= -.70453162E+03  EK= 0.43336E+01 SP= 0.00E+00 SK= 0.00E+00
   2472 T=   239. E= -.70021515E+03 F= -.70465647E+03 E0= -.70465647E+03  EK= 0.44413E+01 SP= 0.00E+00 SK= 0.00E+00
   2473 T=   244. E= -.70021026E+03 F= -.70474705E+03 E0= -.70474705E+03  EK= 0.45368E+01 SP= 0.00E+00 SK= 0.00E+00
   2474 T=   245. E= -.70019687E+03 F= -.70475560E+03 E0= -.70475560E+03  EK= 0.45587E+01 SP= 0.00E+00 SK= 0.00E+00
   2475 T=   240. E= -.70025371E+03 F= -.70472512E+03 E0= -.70472512E+03  EK= 0.44714E+01 SP= 0.00E+00 SK= 0.00E+00
   2476 T=   238. E= -.70030640E+03 F= -.70474506E+03 E0= -.70474506E+03  EK= 0.44387E+01 SP= 0.00E+00 SK= 0.00E+00
   2477 T=   239. E= -.70030822E+03 F= -.70475031E+03 E0= -.70475031E+03  EK= 0.44421E+01 SP= 0.00E+00 SK= 0.00E+00
       N       E                     dE             d eps       ncg     rms          rms(c)
DAV:   1    -0.692574441458E+03    0.37011E+01   -0.17878E+03 12190   0.955E+01
DAV:   2    -0.697189510029E+03   -0.46151E+01   -0.46139E+01 14468   0.137E+01
DAV:   3    -0.697238873508E+03   -0.49363E-01   -0.49360E-01 14692   0.145E+00
DAV:   4    -0.697240019045E+03   -0.11455E-02   -0.11455E-02 14468   0.211E-01    0.865E+00
DAV:   5    -0.696486249716E+03    0.75377E+00   -0.17154E+00 15340   0.401E+00    0.459E+00
DAV:   6    -0.696422526599E+03    0.63723E-01   -0.92918E-01 14260   0.246E+00    0.162E+00
DAV:   7    -0.696427800325E+03   -0.52737E-02   -0.19958E-01 15060   0.136E+00    0.529E-01
DAV:   8    -0.696423425372E+03    0.43750E-02   -0.27522E-02 14660   0.491E-01    0.276E-01
DAV:   9    -0.696419777799E+03    0.36476E-02   -0.10858E-02 13708   0.270E-01    0.142E-01
DAV:  10    -0.696418274075E+03    0.15037E-02   -0.20033E-03 16668   0.191E-01    0.547E-02
DAV:  11    -0.696417717268E+03    0.55681E-03   -0.13172E-03 13988   0.122E-01    0.550E-02
DAV:  12    -0.696417341831E+03    0.37544E-03   -0.33229E-04 12364   0.874E-02    0.186E-02
DAV:  13    -0.696417209862E+03    0.13197E-03   -0.20218E-04 10924   0.707E-02    0.222E-02
DAV:  14    -0.696417192306E+03    0.17556E-04   -0.16073E-04 10324   0.413E-02
   2478 T=   240. E= -.70026188E+03 F= -.70473545E+03 E0= -.70473545E+03  EK= 0.44736E+01 SP= 0.00E+00 SK= 0.00E+00
   2479 T=   243. E= -.70036238E+03 F= -.70488538E+03 E0= -.70488538E+03  EK= 0.45230E+01 SP= 0.00E+00 SK= 0.00E+00
   2480 T=   250. E= -.70036853E+03 F= -.70502921E+03 E0= -.70502921E+03  EK= 0.46607E+01 SP= 0.00E+00 SK= 0.00E+00
   2481 T=   264. E= -.70025114E+03 F= -.70517250E+03 E0= -.70517250E+03  EK= 0.49214E+01 SP= 0.00E+00 SK= 0.00E+00
   2482 T=   275. E= -.70015789E+03 F= -.70527806E+03 E0= -.70527806E+03  EK= 0.51202E+01 SP= 0.00E+00 SK= 0.00E+00
   2483 T=   272. E= -.70018359E+03 F= -.70524490E+03 E0= -.70524490E+03  EK= 0.50613E+01 SP= 0.00E+00 SK= 0.00E+00
   2484 T=   258. E= -.70027576E+03 F= -.70508175E+03 E0= -.70508175E+03  EK= 0.48060E+01 SP= 0.00E+00 SK= 0.00E+00
   2485 T=   247. E= -.70033473E+03 F= -.70493854E+03 E0= -.70493854E+03  EK= 0.46038E+01 SP= 0.00E+00 SK= 0.00E+00
   2486 T=   250. E= -.70027408E+03 F= -.70492841E+03 E0= -.70492841E+03  EK= 0.46543E+01 SP= 0.00E+00 SK= 0.00E+00
   2487 T=   256. E= -.70023484E+03 F= -.70499305E+03 E0= -.70499305E+03  EK= 0.47582E+01 SP= 0.00E+00 SK= 0.00E+00
   2488 T=   261. E= -.70023949E+03 F= -.70509223E+03 E0= -.70509223E+03  EK= 0.48527E+01 SP= 0.00E+00 SK= 0.00E+00
   2489 T=   261. E= -.70025607E+03 F= -.70511743E+03 E0= -.70511743E+03  EK= 0.48614E+01 SP= 0.00E+00 SK= 0.00E+00
   2490 T=   258. E= -.70027014E+03 F= -.70507849E+03 E0= -.70507849E+03  EK= 0.48084E+01 SP= 0.00E+00 SK= 0.00E+00
   2491 T=   255. E= -.70025007E+03 F= -.70499747E+03 E0= -.70499747E+03  EK= 0.47474E+01 SP= 0.00E+00 SK= 0.00E+00
   2492 T=   251. E= -.70026391E+03 F= -.70493491E+03 E0= -.70493491E+03  EK= 0.46710E+01 SP= 0.00E+00 SK= 0.00E+00
   2493 T=   246. E= -.70031413E+03 F= -.70489029E+03 E0= -.70489029E+03  EK= 0.45762E+01 SP= 0.00E+00 SK= 0.00E+00
   2494 T=   243. E= -.70035961E+03 F= -.70487986E+03 E0= -.70487986E+03  EK= 0.45203E+01 SP= 0.00E+00 SK= 0.00E+00
   2495 T=   241. E= -.70039754E+03 F= -.70488766E+03 E0= -.70488766E+03  EK= 0.44901E+01 SP= 0.00E+00 SK= 0.00E+00
   2496 T=   242. E= -.70044853E+03 F= -.70495601E+03 E0= -.70495601E+03  EK= 0.45075E+01 SP= 0.00E+00 SK= 0.00E+00
   2497 T=   247. E= -.70050011E+03 F= -.70508887E+03 E0= -.70508887E+03  EK= 0.45888E+01 SP= 0.00E+00 SK= 0.00E+00
   2498 T=   252. E= -.70052732E+03 F= -.70521775E+03 E0= -.70521775E+03  EK= 0.46904E+01 SP= 0.00E+00 SK= 0.00E+00
   2499 T=   255. E= -.70055396E+03 F= -.70530411E+03 E0= -.70530411E+03  EK= 0.47501E+01 SP= 0.00E+00 SK= 0.00E+00
   2500 T=   257. E= -.70053085E+03 F= -.70531575E+03 E0= -.70531575E+03  EK= 0.47849E+01 SP= 0.00E+00 SK= 0.00E+00
   2501 T=   256. E= -.70046867E+03 F= -.70522610E+03 E0= -.70522610E+03  EK= 0.47574E+01 SP= 0.00E+00 SK= 0.00E+00
   2502 T=   252. E= -.70043103E+03 F= -.70512038E+03 E0= -.70512038E+03  EK= 0.46893E+01 SP= 0.00E+00 SK= 0.00E+00
   2503 T=   249. E= -.70041892E+03 F= -.70504636E+03 E0= -.70504636E+03  EK= 0.46274E+01 SP= 0.00E+00 SK= 0.00E+00
   2504 T=   248. E= -.70041287E+03 F= -.70502376E+03 E0= -.70502376E+03  EK= 0.46109E+01 SP= 0.00E+00 SK= 0.00E+00
   2505 T=   253. E= -.70031675E+03 F= -.70503190E+03 E0= -.70503190E+03  EK= 0.47152E+01 SP= 0.00E+00 SK= 0.00E+00
   2506 T=   258. E= -.70023961E+03 F= -.70503403E+03 E0= -.70503403E+03  EK= 0.47944E+01 SP= 0.00E+00 SK= 0.00E+00
   2507 T=   259. E= -.70025926E+03 F= -.70507982E+03 E0= -.70507982E+03  EK= 0.48206E+01 SP= 0.00E+00 SK= 0.00E+00
   2508 T=   264. E= -.70024334E+03 F= -.70515382E+03 E0= -.70515382E+03  EK= 0.49105E+01 SP= 0.00E+00 SK= 0.00E+00
   2509 T=   270. E= -.70018611E+03 F= -.70520659E+03 E0= -.70520659E+03  EK= 0.50205E+01 SP= 0.00E+00 SK= 0.00E+00
   2510 T=   271. E= -.70012857E+03 F= -.70516368E+03 E0= -.70516368E+03  EK= 0.50351E+01 SP= 0.00E+00 SK= 0.00E+00
   2511 T=   270. E= -.69999692E+03 F= -.70503022E+03 E0= -.70503022E+03  EK= 0.50333E+01 SP= 0.00E+00 SK= 0.00E+00
   2512 T=   264. E= -.69998948E+03 F= -.70489846E+03 E0= -.70489846E+03  EK= 0.49090E+01 SP= 0.00E+00 SK= 0.00E+00
   2513 T=   257. E= -.70003552E+03 F= -.70481304E+03 E0= -.70481304E+03  EK= 0.47775E+01 SP= 0.00E+00 SK= 0.00E+00
   2514 T=   258. E= -.69998939E+03 F= -.70478711E+03 E0= -.70478711E+03  EK= 0.47977E+01 SP= 0.00E+00 SK= 0.00E+00
   2515 T=   261. E= -.69996825E+03 F= -.70482190E+03 E0= -.70482190E+03  EK= 0.48537E+01 SP= 0.00E+00 SK= 0.00E+00
   2516 T=   263. E= -.70000129E+03 F= -.70489377E+03 E0= -.70489377E+03  EK= 0.48925E+01 SP= 0.00E+00 SK= 0.00E+00
   2517 T=   262. E= -.70008171E+03 F= -.70495846E+03 E0= -.70495846E+03  EK= 0.48768E+01 SP= 0.00E+00 SK= 0.00E+00
   2518 T=   262. E= -.70008012E+03 F= -.70496318E+03 E0= -.70496318E+03  EK= 0.48831E+01 SP= 0.00E+00 SK= 0.00E+00
   2519 T=   263. E= -.70002761E+03 F= -.70491424E+03 E0= -.70491424E+03  EK= 0.48866E+01 SP= 0.00E+00 SK= 0.00E+00
   2520 T=   259. E= -.70001660E+03 F= -.70483470E+03 E0= -.70483470E+03  EK= 0.48181E+01 SP= 0.00E+00 SK= 0.00E+00
   2521 T=   259. E= -.69996690E+03 F= -.70478878E+03 E0= -.70478878E+03  EK= 0.48219E+01 SP= 0.00E+00 SK= 0.00E+00
   2522 T=   259. E= -.69993516E+03 F= -.70476206E+03 E0= -.70476206E+03  EK= 0.48269E+01 SP= 0.00E+00 SK= 0.00E+00
   2523 T=   268. E= -.69982291E+03 F= -.70480710E+03 E0= -.70480710E+03  EK= 0.49842E+01 SP= 0.00E+00 SK= 0.00E+00
   2524 T=   274. E= -.69977707E+03 F= -.70488504E+03 E0= -.70488504E+03  EK= 0.51080E+01 SP= 0.00E+00 SK= 0.00E+00
   2525 T=   273. E= -.69984876E+03 F= -.70492645E+03 E0= -.70492645E+03  EK= 0.50777E+01 SP= 0.00E+00 SK= 0.00E+00
   2526 T=   268. E= -.69993455E+03 F= -.70492819E+03 E0= -.70492819E+03  EK= 0.49936E+01 SP= 0.00E+00 SK= 0.00E+00
   2527 T=   264. E= -.69999313E+03 F= -.70491560E+03 E0= -.70491560E+03  EK= 0.49225E+01 SP= 0.00E+00 SK= 0.00E+00
   2528 T=   261. E= -.70001069E+03 F= -.70487575E+03 E0= -.70487575E+03  EK= 0.48651E+01 SP= 0.00E+00 SK= 0.00E+00
   2529 T=   260. E= -.70001696E+03 F= -.70485748E+03 E0= -.70485748E+03  EK= 0.48405E+01 SP= 0.00E+00 SK= 0.00E+00
   2530 T=   267. E= -.69992957E+03 F= -.70490237E+03 E0= -.70490237E+03  EK= 0.49728E+01 SP= 0.00E+00 SK= 0.00E+00
   2531 T=   272. E= -.69989071E+03 F= -.70496191E+03 E0= -.70496191E+03  EK= 0.50712E+01 SP= 0.00E+00 SK= 0.00E+00
   2532 T=   273. E= -.69993590E+03 F= -.70501115E+03 E0= -.70501115E+03  EK= 0.50752E+01 SP= 0.00E+00 SK= 0.00E+00
   2533 T=   270. E= -.69997576E+03 F= -.70499579E+03 E0= -.70499579E+03  EK= 0.50200E+01 SP= 0.00E+00 SK= 0.00E+00
   2534 T=   267. E= -.69999155E+03 F= -.70495489E+03 E0= -.70495489E+03  EK= 0.49633E+01 SP= 0.00E+00 SK= 0.00E+00
   2535 T=   265. E= -.69995509E+03 F= -.70489483E+03 E0= -.70489483E+03  EK= 0.49397E+01 SP= 0.00E+00 SK= 0.00E+00
   2536 T=   264. E= -.69995662E+03 F= -.70486788E+03 E0= -.70486788E+03  EK= 0.49113E+01 SP= 0.00E+00 SK= 0.00E+00
   2537 T=   264. E= -.69996097E+03 F= -.70487144E+03 E0= -.70487144E+03  EK= 0.49105E+01 SP= 0.00E+00 SK= 0.00E+00
   2538 T=   263. E= -.69994876E+03 F= -.70484394E+03 E0= -.70484394E+03  EK= 0.48952E+01 SP= 0.00E+00 SK= 0.00E+00
   2539 T=   262. E= -.69996046E+03 F= -.70483826E+03 E0= -.70483826E+03  EK= 0.48778E+01 SP= 0.00E+00 SK= 0.00E+00
   2540 T=   266. E= -.69991323E+03 F= -.70485563E+03 E0= -.70485563E+03  EK= 0.49424E+01 SP= 0.00E+00 SK= 0.00E+00
   2541 T=   270. E= -.69986004E+03 F= -.70488654E+03 E0= -.70488654E+03  EK= 0.50265E+01 SP= 0.00E+00 SK= 0.00E+00
   2542 T=   268. E= -.69991652E+03 F= -.70489902E+03 E0= -.70489902E+03  EK= 0.49825E+01 SP= 0.00E+00 SK= 0.00E+00
   2543 T=   263. E= -.69997106E+03 F= -.70487405E+03 E0= -.70487405E+03  EK= 0.49030E+01 SP= 0.00E+00 SK= 0.00E+00
   2544 T=   261. E= -.69993250E+03 F= -.70479330E+03 E0= -.70479330E+03  EK= 0.48608E+01 SP= 0.00E+00 SK= 0.00E+00
   2545 T=   261. E= -.69991076E+03 F= -.70476562E+03 E0= -.70476562E+03  EK= 0.48549E+01 SP= 0.00E+00 SK= 0.00E+00
   2546 T=   263. E= -.69989180E+03 F= -.70479037E+03 E0= -.70479037E+03  EK= 0.48986E+01 SP= 0.00E+00 SK= 0.00E+00
   2547 T=   263. E= -.69993671E+03 F= -.70482511E+03 E0= -.70482511E+03  EK= 0.48884E+01 SP= 0.00E+00 SK= 0.00E+00
   2548 T=   261. E= -.70000910E+03 F= -.70487216E+03 E0= -.70487216E+03  EK= 0.48631E+01 SP= 0.00E+00 SK= 0.00E+00
   2549 T=   266. E= -.70001603E+03 F= -.70496255E+03 E0= -.70496255E+03  EK= 0.49465E+01 SP= 0.00E+00 SK= 0.00E+00
   2550 T=   272. E= -.70002699E+03 F= -.70508797E+03 E0= -.70508797E+03  EK= 0.50610E+01 SP= 0.00E+00 SK= 0.00E+00
   2551 T=   280. E= -.69996681E+03 F= -.70516949E+03 E0= -.70516949E+03  EK= 0.52027E+01 SP= 0.00E+00 SK= 0.00E+00
   2552 T=   279. E= -.69994622E+03 F= -.70514857E+03 E0= -.70514857E+03  EK= 0.52023E+01 SP= 0.00E+00 SK= 0.00E+00
   2553 T=   274. E= -.69993926E+03 F= -.70503464E+03 E0= -.70503464E+03  EK= 0.50954E+01 SP= 0.00E+00 SK= 0.00E+00
   2554 T=   268. E= -.69984379E+03 F= -.70483203E+03 E0= -.70483203E+03  EK= 0.49882E+01 SP= 0.00E+00 SK= 0.00E+00
   2555 T=   265. E= -.69969611E+03 F= -.70463247E+03 E0= -.70463247E+03  EK= 0.49364E+01 SP= 0.00E+00 SK= 0.00E+00
   2556 T=   269. E= -.69957205E+03 F= -.70457830E+03 E0= -.70457830E+03  EK= 0.50063E+01 SP= 0.00E+00 SK= 0.00E+00
   2557 T=   275. E= -.69955940E+03 F= -.70468739E+03 E0= -.70468739E+03  EK= 0.51280E+01 SP= 0.00E+00 SK= 0.00E+00
   2558 T=   285. E= -.69960375E+03 F= -.70491063E+03 E0= -.70491063E+03  EK= 0.53069E+01 SP= 0.00E+00 SK= 0.00E+00
   2559 T=   289. E= -.69964274E+03 F= -.70502730E+03 E0= -.70502730E+03  EK= 0.53846E+01 SP= 0.00E+00 SK= 0.00E+00
   2560 T=   288. E= -.69955508E+03 F= -.70492023E+03 E0= -.70492023E+03  EK= 0.53651E+01 SP= 0.00E+00 SK= 0.00E+00
   2561 T=   273. E= -.69955584E+03 F= -.70463217E+03 E0= -.70463217E+03  EK= 0.50763E+01 SP= 0.00E+00 SK= 0.00E+00
   2562 T=   248. E= -.69971933E+03 F= -.70432671E+03 E0= -.70432671E+03  EK= 0.46074E+01 SP= 0.00E+00 SK= 0.00E+00
   2563 T=   237. E= -.69975185E+03 F= -.70415841E+03 E0= -.70415841E+03  EK= 0.44066E+01 SP= 0.00E+00 SK= 0.00E+00
   2564 T=   243. E= -.69967631E+03 F= -.70420321E+03 E0= -.70420321E+03  EK= 0.45269E+01 SP= 0.00E+00 SK= 0.00E+00
   2565 T=   261. E= -.69960310E+03 F= -.70445617E+03 E0= -.70445617E+03  EK= 0.48531E+01 SP= 0.00E+00 SK= 0.00E+00
   2566 T=   283. E= -.69955086E+03 F= -.70481740E+03 E0= -.70481740E+03  EK= 0.52665E+01 SP= 0.00E+00 SK= 0.00E+00
   2567 T=   297. E= -.69954165E+03 F= -.70507189E+03 E0= -.70507189E+03  EK= 0.55302E+01 SP= 0.00E+00 SK= 0.00E+00
   2568 T=   298. E= -.69952854E+03 F= -.70507531E+03 E0= -.70507531E+03  EK= 0.55468E+01 SP= 0.00E+00 SK= 0.00E+00
   2569 T=   282. E= -.69955305E+03 F= -.70480660E+03 E0= -.70480660E+03  EK= 0.52536E+01 SP= 0.00E+00 SK= 0.00E+00
   2570 T=   260. E= -.69958002E+03 F= -.70442336E+03 E0= -.70442336E+03  EK= 0.48433E+01 SP= 0.00E+00 SK= 0.00E+00
   2571 T=   246. E= -.69959195E+03 F= -.70417143E+03 E0= -.70417143E+03  EK= 0.45795E+01 SP= 0.00E+00 SK= 0.00E+00
   2572 T=   250. E= -.69960321E+03 F= -.70426253E+03 E0= -.70426253E+03  EK= 0.46593E+01 SP= 0.00E+00 SK= 0.00E+00
   2573 T=   269. E= -.69961589E+03 F= -.70462055E+03 E0= -.70462055E+03  EK= 0.50047E+01 SP= 0.00E+00 SK= 0.00E+00
   2574 T=   284. E= -.69973423E+03 F= -.70502749E+03 E0= -.70502749E+03  EK= 0.52933E+01 SP= 0.00E+00 SK= 0.00E+00
   2575 T=   291. E= -.69984627E+03 F= -.70527129E+03 E0= -.70527129E+03  EK= 0.54250E+01 SP= 0.00E+00 SK= 0.00E+00
   2576 T=   293. E= -.69984315E+03 F= -.70530242E+03 E0= -.70530242E+03  EK= 0.54593E+01 SP= 0.00E+00 SK= 0.00E+00
   2577 T=   288. E= -.69976168E+03 F= -.70512658E+03 E0= -.70512658E+03  EK= 0.53649E+01 SP= 0.00E+00 SK= 0.00E+00
   2578 T=   281. E= -.69963811E+03 F= -.70487759E+03 E0= -.70487759E+03  EK= 0.52395E+01 SP= 0.00E+00 SK= 0.00E+00
   2579 T=   276. E= -.69958379E+03 F= -.70471849E+03 E0= -.70471849E+03  EK= 0.51347E+01 SP= 0.00E+00 SK= 0.00E+00
   2580 T=   275. E= -.69960920E+03 F= -.70472453E+03 E0= -.70472453E+03  EK= 0.51153E+01 SP= 0.00E+00 SK= 0.00E+00
   2581 T=   285. E= -.69962343E+03 F= -.70492097E+03 E0= -.70492097E+03  EK= 0.52975E+01 SP= 0.00E+00 SK= 0.00E+00
   2582 T=   300. E= -.69963147E+03 F= -.70521202E+03 E0= -.70521202E+03  EK= 0.55805E+01 SP= 0.00E+00 SK= 0.00E+00
   2583 T=   311. E= -.69964561E+03 F= -.70542822E+03 E0= -.70542822E+03  EK= 0.57826E+01 SP= 0.00E+00 SK= 0.00E+00
   2584 T=   314. E= -.69964031E+03 F= -.70548696E+03 E0= -.70548696E+03  EK= 0.58467E+01 SP= 0.00E+00 SK= 0.00E+00
   2585 T=   305. E= -.69968695E+03 F= -.70535961E+03 E0= -.70535961E+03  EK= 0.56727E+01 SP= 0.00E+00 SK= 0.00E+00
   2586 T=   289. E= -.69975766E+03 F= -.70513615E+03 E0= -.70513615E+03  EK= 0.53785E+01 SP= 0.00E+00 SK= 0.00E+00
   2587 T=   273. E= -.69984302E+03 F= -.70492322E+03 E0= -.70492322E+03  EK= 0.50802E+01 SP= 0.00E+00 SK= 0.00E+00
   2588 T=   264. E= -.69991293E+03 F= -.70483449E+03 E0= -.70483449E+03  EK= 0.49216E+01 SP= 0.00E+00 SK= 0.00E+00
   2589 T=   265. E= -.69990752E+03 F= -.70484563E+03 E0= -.70484563E+03  EK= 0.49381E+01 SP= 0.00E+00 SK= 0.00E+00
   2590 T=   266. E= -.69994387E+03 F= -.70489315E+03 E0= -.70489315E+03  EK= 0.49493E+01 SP= 0.00E+00 SK= 0.00E+00
   2591 T=   267. E= -.69995929E+03 F= -.70492399E+03 E0= -.70492399E+03  EK= 0.49647E+01 SP= 0.00E+00 SK= 0.00E+00
   2592 T=   264. E= -.69998517E+03 F= -.70490221E+03 E0= -.70490221E+03  EK= 0.49170E+01 SP= 0.00E+00 SK= 0.00E+00
       N       E                     dE             d eps       ncg     rms          rms(c)
DAV:   1    -0.368869413692E+03    0.32755E+03   -0.31704E+04 12190   0.377E+02
DAV:   2    -0.695799067164E+03   -0.32693E+03   -0.32068E+03 13982   0.106E+02
DAV:   3    -0.705169627855E+03   -0.93706E+01   -0.93590E+01 14132   0.194E+01
DAV:   4    -0.705319333866E+03   -0.14971E+00   -0.14967E+00 14476   0.234E+00    0.284E+01
DAV:   5    -0.696352735526E+03    0.89666E+01   -0.19371E+01 14484   0.114E+01    0.155E+01
DAV:   6    -0.696151244058E+03    0.20149E+00   -0.11340E+01 14108   0.817E+00    0.555E+00
DAV:   7    -0.696530362185E+03   -0.37912E+00   -0.21127E+00 13980   0.404E+00    0.177E+00
DAV:   8    -0.696539270553E+03   -0.89084E-02   -0.24691E-01 14548   0.148E+00    0.837E-01
DAV:   9    -0.696536306288E+03    0.29643E-02   -0.80332E-02 13948   0.748E-01    0.390E-01
DAV:  10    -0.696532432072E+03    0.38742E-02   -0.12688E-02 15500   0.400E-01    0.153E-01
DAV:  11    -0.696531095738E+03    0.13363E-02   -0.72358E-03 14076   0.241E-01    0.109E-01
DAV:  12    -0.696529688635E+03    0.14071E-02   -0.10086E-03 15220   0.174E-01    0.394E-02
DAV:  13    -0.696528901744E+03    0.78689E-03   -0.11323E-03 13644   0.189E-01    0.564E-02
DAV:  14    -0.696528810793E+03    0.90952E-04   -0.10841E-03 14644   0.104E-01    0.315E-02
DAV:  15    -0.696528804074E+03    0.67188E-05   -0.17795E-04 10508   0.311E-02
   2593 T=   259. E= -.70004419E+03 F= -.70485740E+03 E0= -.70485740E+03  EK= 0.48132E+01 SP= 0.00E+00 SK= 0.00E+00
   2594 T=   258. E= -.70011170E+03 F= -.70490905E+03 E0= -.70490905E+03  EK= 0.47973E+01 SP= 0.00E+00 SK= 0.00E+00
   2595 T=   256. E= -.70022603E+03 F= -.70498314E+03 E0= -.70498314E+03  EK= 0.47571E+01 SP= 0.00E+00 SK= 0.00E+00
   2596 T=   255. E= -.70030868E+03 F= -.70505291E+03 E0= -.70505291E+03  EK= 0.47442E+01 SP= 0.00E+00 SK= 0.00E+00
   2597 T=   256. E= -.70030439E+03 F= -.70507244E+03 E0= -.70507244E+03  EK= 0.47681E+01 SP= 0.00E+00 SK= 0.00E+00
   2598 T=   254. E= -.70030411E+03 F= -.70503682E+03 E0= -.70503682E+03  EK= 0.47327E+01 SP= 0.00E+00 SK= 0.00E+00
   2599 T=   252. E= -.70031480E+03 F= -.70500369E+03 E0= -.70500369E+03  EK= 0.46889E+01 SP= 0.00E+00 SK= 0.00E+00
   2600 T=   257. E= -.70025736E+03 F= -.70504725E+03 E0= -.70504725E+03  EK= 0.47899E+01 SP= 0.00E+00 SK= 0.00E+00
   2601 T=   265. E= -.70021455E+03 F= -.70515176E+03 E0= -.70515176E+03  EK= 0.49372E+01 SP= 0.00E+00 SK= 0.00E+00
   2602 T=   271. E= -.70022184E+03 F= -.70527280E+03 E0= -.70527280E+03  EK= 0.50510E+01 SP= 0.00E+00 SK= 0.00E+00
       N       E                     dE             d eps       ncg     rms          rms(c)
DAV:   1    -0.692673646178E+03    0.38552E+01   -0.19109E+03 12190   0.985E+01
DAV:   2    -0.697575292763E+03   -0.49016E+01   -0.49004E+01 14428   0.144E+01
DAV:   3    -0.697626791679E+03   -0.51499E-01   -0.51496E-01 14644   0.151E+00
DAV:   4    -0.697627967367E+03   -0.11757E-02   -0.11757E-02 14428   0.219E-01    0.857E+00
DAV:   5    -0.697029646840E+03    0.59832E+00   -0.11408E+00 15332   0.343E+00    0.479E+00
DAV:   6    -0.696993272421E+03    0.36374E-01   -0.12036E+00 14660   0.297E+00    0.125E+00
DAV:   7    -0.697002551143E+03   -0.92787E-02   -0.21917E-01 13844   0.130E+00    0.515E-01
DAV:   8    -0.696999519536E+03    0.30316E-02   -0.21301E-02 14324   0.404E-01    0.251E-01
DAV:   9    -0.696997545824E+03    0.19737E-02   -0.87066E-03 13900   0.286E-01    0.150E-01
DAV:  10    -0.696996258229E+03    0.12876E-02   -0.29093E-03 16676   0.203E-01    0.444E-02
DAV:  11    -0.696995949715E+03    0.30851E-03   -0.80835E-04 14476   0.925E-02    0.397E-02
DAV:  12    -0.696995723749E+03    0.22597E-03   -0.24211E-04 10988   0.653E-02    0.195E-02
DAV:  13    -0.696995608759E+03    0.11499E-03   -0.98695E-05  9628   0.664E-02    0.175E-02
DAV:  14    -0.696995604325E+03    0.44333E-05   -0.15853E-04 10388   0.370E-02
   2603 T=   274. E= -.70021442E+03 F= -.70531687E+03 E0= -.70531687E+03  EK= 0.51025E+01 SP= 0.00E+00 SK= 0.00E+00
   2604 T=   275. E= -.70019217E+03 F= -.70531831E+03 E0= -.70531831E+03  EK= 0.51261E+01 SP= 0.00E+00 SK= 0.00E+00
   2605 T=   273. E= -.70015806E+03 F= -.70524869E+03 E0= -.70524869E+03  EK= 0.50906E+01 SP= 0.00E+00 SK= 0.00E+00
   2606 T=   269. E= -.70011389E+03 F= -.70511959E+03 E0= -.70511959E+03  EK= 0.50057E+01 SP= 0.00E+00 SK= 0.00E+00
   2607 T=   266. E= -.70003689E+03 F= -.70499288E+03 E0= -.70499288E+03  EK= 0.49560E+01 SP= 0.00E+00 SK= 0.00E+00
   2608 T=   270. E= -.69995587E+03 F= -.70498597E+03 E0= -.70498597E+03  EK= 0.50301E+01 SP= 0.00E+00 SK= 0.00E+00
   2609 T=   279. E= -.69988660E+03 F= -.70507945E+03 E0= -.70507945E+03  EK= 0.51928E+01 SP= 0.00E+00 SK= 0.00E+00
   2610 T=   284. E= -.69988368E+03 F= -.70517774E+03 E0= -.70517774E+03  EK= 0.52941E+01 SP= 0.00E+00 SK= 0.00E+00
   2611 T=   287. E= -.69987857E+03 F= -.70522031E+03 E0= -.70522031E+03  EK= 0.53417E+01 SP= 0.00E+00 SK= 0.00E+00
   2612 T=   286. E= -.69986076E+03 F= -.70518170E+03 E0= -.70518170E+03  EK= 0.53209E+01 SP= 0.00E+00 SK= 0.00E+00
       N       E                     dE             d eps       ncg     rms          rms(c)
DAV:   1    -0.691571452943E+03    0.54242E+01   -0.22855E+03 12190   0.107E+02
DAV:   2    -0.697543907579E+03   -0.59725E+01   -0.59709E+01 14356   0.158E+01
DAV:   3    -0.697605781164E+03   -0.61874E-01   -0.61870E-01 14628   0.167E+00
DAV:   4    -0.697607181875E+03   -0.14007E-02   -0.14007E-02 14412   0.239E-01    0.903E+00
DAV:   5    -0.696809732813E+03    0.79745E+00   -0.15095E+00 15204   0.389E+00    0.496E+00
DAV:   6    -0.696742521838E+03    0.67211E-01   -0.13779E+00 14660   0.312E+00    0.144E+00
DAV:   7    -0.696755192576E+03   -0.12671E-01   -0.24060E-01 13900   0.143E+00    0.521E-01
DAV:   8    -0.696751984833E+03    0.32077E-02   -0.24589E-02 14028   0.466E-01    0.249E-01
DAV:   9    -0.696749882036E+03    0.21028E-02   -0.99912E-03 13764   0.288E-01    0.158E-01
DAV:  10    -0.696748530709E+03    0.13513E-02   -0.27698E-03 16804   0.202E-01    0.434E-02
DAV:  11    -0.696748181020E+03    0.34969E-03   -0.87209E-04 14012   0.892E-02    0.402E-02
DAV:  12    -0.696747877158E+03    0.30386E-03   -0.18478E-04 10268   0.723E-02    0.161E-02
DAV:  13    -0.696747797080E+03    0.80078E-04   -0.24982E-04 10948   0.645E-02
   2613 T=   278. E= -.69988733E+03 F= -.70505959E+03 E0= -.70505959E+03  EK= 0.51723E+01 SP= 0.00E+00 SK= 0.00E+00
   2614 T=   269. E= -.69994456E+03 F= -.70495841E+03 E0= -.70495841E+03  EK= 0.50139E+01 SP= 0.00E+00 SK= 0.00E+00
   2615 T=   265. E= -.69996887E+03 F= -.70490372E+03 E0= -.70490372E+03  EK= 0.49348E+01 SP= 0.00E+00 SK= 0.00E+00
   2616 T=   264. E= -.70002982E+03 F= -.70495229E+03 E0= -.70495229E+03  EK= 0.49225E+01 SP= 0.00E+00 SK= 0.00E+00
   2617 T=   266. E= -.70012003E+03 F= -.70506670E+03 E0= -.70506670E+03  EK= 0.49467E+01 SP= 0.00E+00 SK= 0.00E+00
   2618 T=   272. E= -.70015545E+03 F= -.70521828E+03 E0= -.70521828E+03  EK= 0.50628E+01 SP= 0.00E+00 SK= 0.00E+00
   2619 T=   275. E= -.70020670E+03 F= -.70532136E+03 E0= -.70532136E+03  EK= 0.51147E+01 SP= 0.00E+00 SK= 0.00E+00
   2620 T=   274. E= -.70022059E+03 F= -.70532218E+03 E0= -.70532218E+03  EK= 0.51016E+01 SP= 0.00E+00 SK= 0.00E+00
   2621 T=   273. E= -.70012514E+03 F= -.70520117E+03 E0= -.70520117E+03  EK= 0.50760E+01 SP= 0.00E+00 SK= 0.00E+00
   2622 T=   264. E= -.70007139E+03 F= -.70498838E+03 E0= -.70498838E+03  EK= 0.49170E+01 SP= 0.00E+00 SK= 0.00E+00
   2623 T=   253. E= -.70007634E+03 F= -.70478542E+03 E0= -.70478542E+03  EK= 0.47091E+01 SP= 0.00E+00 SK= 0.00E+00
   2624 T=   248. E= -.70005030E+03 F= -.70467215E+03 E0= -.70467215E+03  EK= 0.46219E+01 SP= 0.00E+00 SK= 0.00E+00
   2625 T=   248. E= -.70006497E+03 F= -.70467460E+03 E0= -.70467460E+03  EK= 0.46096E+01 SP= 0.00E+00 SK= 0.00E+00
   2626 T=   249. E= -.70012951E+03 F= -.70476936E+03 E0= -.70476936E+03  EK= 0.46398E+01 SP= 0.00E+00 SK= 0.00E+00
   2627 T=   257. E= -.70009541E+03 F= -.70487444E+03 E0= -.70487444E+03  EK= 0.47790E+01 SP= 0.00E+00 SK= 0.00E+00
   2628 T=   263. E= -.70004821E+03 F= -.70493476E+03 E0= -.70493476E+03  EK= 0.48865E+01 SP= 0.00E+00 SK= 0.00E+00
   2629 T=   263. E= -.70003782E+03 F= -.70492650E+03 E0= -.70492650E+03  EK= 0.48887E+01 SP= 0.00E+00 SK= 0.00E+00
   2630 T=   261. E= -.69996466E+03 F= -.70483027E+03 E0= -.70483027E+03  EK= 0.48656E+01 SP= 0.00E+00 SK= 0.00E+00
   2631 T=   256. E= -.69991170E+03 F= -.70468130E+03 E0= -.70468130E+03  EK= 0.47696E+01 SP= 0.00E+00 SK= 0.00E+00
   2632 T=   248. E= -.69995620E+03 F= -.70457073E+03 E0= -.70457073E+03  EK= 0.46145E+01 SP= 0.00E+00 SK= 0.00E+00
   2633 T=   240. E= -.70007833E+03 F= -.70453856E+03 E0= -.70453856E+03  EK= 0.44602E+01 SP= 0.00E+00 SK= 0.00E+00
   2634 T=   242. E= -.70012419E+03 F= -.70462244E+03 E0= -.70462244E+03  EK= 0.44982E+01 SP= 0.00E+00 SK= 0.00E+00
   2635 T=   251. E= -.70008946E+03 F= -.70476025E+03 E0= -.70476025E+03  EK= 0.46708E+01 SP= 0.00E+00 SK= 0.00E+00
   2636 T=   252. E= -.70018449E+03 F= -.70488378E+03 E0= -.70488378E+03  EK= 0.46993E+01 SP= 0.00E+00 SK= 0.00E+00
   2637 T=   253. E= -.70026759E+03 F= -.70497532E+03 E0= -.70497532E+03  EK= 0.47077E+01 SP= 0.00E+00 SK= 0.00E+00
   2638 T=   252. E= -.70032453E+03 F= -.70501933E+03 E0= -.70501933E+03  EK= 0.46948E+01 SP= 0.00E+00 SK= 0.00E+00
   2639 T=   249. E= -.70034566E+03 F= -.70497534E+03 E0= -.70497534E+03  EK= 0.46297E+01 SP= 0.00E+00 SK= 0.00E+00
   2640 T=   249. E= -.70023882E+03 F= -.70488102E+03 E0= -.70488102E+03  EK= 0.46422E+01 SP= 0.00E+00 SK= 0.00E+00
   2641 T=   250. E= -.70009998E+03 F= -.70475533E+03 E0= -.70475533E+03  EK= 0.46553E+01 SP= 0.00E+00 SK= 0.00E+00
   2642 T=   253. E= -.69997009E+03 F= -.70467077E+03 E0= -.70467077E+03  EK= 0.47007E+01 SP= 0.00E+00 SK= 0.00E+00
   2643 T=   255. E= -.69990164E+03 F= -.70465704E+03 E0= -.70465704E+03  EK= 0.47554E+01 SP= 0.00E+00 SK= 0.00E+00
   2644 T=   260. E= -.69991471E+03 F= -.70474737E+03 E0= -.70474737E+03  EK= 0.48327E+01 SP= 0.00E+00 SK= 0.00E+00
   2645 T=   263. E= -.69996018E+03 F= -.70485937E+03 E0= -.70485937E+03  EK= 0.48992E+01 SP= 0.00E+00 SK= 0.00E+00
   2646 T=   266. E= -.69998112E+03 F= -.70493749E+03 E0= -.70493749E+03  EK= 0.49564E+01 SP= 0.00E+00 SK= 0.00E+00
   2647 T=   265. E= -.69999903E+03 F= -.70492475E+03 E0= -.70492475E+03  EK= 0.49257E+01 SP= 0.00E+00 SK= 0.00E+00
   2648 T=   260. E= -.70002666E+03 F= -.70486513E+03 E0= -.70486513E+03  EK= 0.48385E+01 SP= 0.00E+00 SK= 0.00E+00
   2649 T=   256. E= -.70002380E+03 F= -.70477973E+03 E0= -.70477973E+03  EK= 0.47559E+01 SP= 0.00E+00 SK= 0.00E+00
   2650 T=   256. E= -.69999079E+03 F= -.70475693E+03 E0= -.70475693E+03  EK= 0.47661E+01 SP= 0.00E+00 SK= 0.00E+00
   2651 T=   259. E= -.69993819E+03 F= -.70476322E+03 E0= -.70476322E+03  EK= 0.48250E+01 SP= 0.00E+00 SK= 0.00E+00
   2652 T=   262. E= -.69993061E+03 F= -.70480624E+03 E0= -.70480624E+03  EK= 0.48756E+01 SP= 0.00E+00 SK= 0.00E+00
   2653 T=   263. E= -.69994941E+03 F= -.70485169E+03 E0= -.70485169E+03  EK= 0.49023E+01 SP= 0.00E+00 SK= 0.00E+00
   2654 T=   266. E= -.69995753E+03 F= -.70491470E+03 E0= -.70491470E+03  EK= 0.49572E+01 SP= 0.00E+00 SK= 0.00E+00
   2655 T=   270. E= -.69996669E+03 F= -.70498895E+03 E0= -.70498895E+03  EK= 0.50223E+01 SP= 0.00E+00 SK= 0.00E+00
   2656 T=   273. E= -.69996121E+03 F= -.70503612E+03 E0= -.70503612E+03  EK= 0.50749E+01 SP= 0.00E+00 SK= 0.00E+00
   2657 T=   273. E= -.69996265E+03 F= -.70504146E+03 E0= -.70504146E+03  EK= 0.50788E+01 SP= 0.00E+00 SK= 0.00E+00
   2658 T=   271. E= -.69993340E+03 F= -.70497283E+03 E0= -.70497283E+03  EK= 0.50394E+01 SP= 0.00E+00 SK= 0.00E+00
   2659 T=   265. E= -.69989989E+03 F= -.70483465E+03 E0= -.70483465E+03  EK= 0.49348E+01 SP= 0.00E+00 SK= 0.00E+00
   2660 T=   262. E= -.69985245E+03 F= -.70472160E+03 E0= -.70472160E+03  EK= 0.48692E+01 SP= 0.00E+00 SK= 0.00E+00
   2661 T=   263. E= -.69979811E+03 F= -.70468574E+03 E0= -.70468574E+03  EK= 0.48876E+01 SP= 0.00E+00 SK= 0.00E+00
   2662 T=   266. E= -.69976027E+03 F= -.70471992E+03 E0= -.70471992E+03  EK= 0.49596E+01 SP= 0.00E+00 SK= 0.00E+00
   2663 T=   273. E= -.69973149E+03 F= -.70481361E+03 E0= -.70481361E+03  EK= 0.50821E+01 SP= 0.00E+00 SK= 0.00E+00
   2664 T=   280. E= -.69970150E+03 F= -.70490599E+03 E0= -.70490599E+03  EK= 0.52045E+01 SP= 0.00E+00 SK= 0.00E+00
   2665 T=   283. E= -.69966835E+03 F= -.70493319E+03 E0= -.70493319E+03  EK= 0.52648E+01 SP= 0.00E+00 SK= 0.00E+00
   2666 T=   282. E= -.69966167E+03 F= -.70490491E+03 E0= -.70490491E+03  EK= 0.52432E+01 SP= 0.00E+00 SK= 0.00E+00
   2667 T=   280. E= -.69963889E+03 F= -.70485961E+03 E0= -.70485961E+03  EK= 0.52207E+01 SP= 0.00E+00 SK= 0.00E+00
   2668 T=   284. E= -.69954115E+03 F= -.70483531E+03 E0= -.70483531E+03  EK= 0.52942E+01 SP= 0.00E+00 SK= 0.00E+00
   2669 T=   285. E= -.69947220E+03 F= -.70477850E+03 E0= -.70477850E+03  EK= 0.53063E+01 SP= 0.00E+00 SK= 0.00E+00
   2670 T=   283. E= -.69944443E+03 F= -.70471698E+03 E0= -.70471698E+03  EK= 0.52725E+01 SP= 0.00E+00 SK= 0.00E+00
   2671 T=   280. E= -.69943596E+03 F= -.70463869E+03 E0= -.70463869E+03  EK= 0.52027E+01 SP= 0.00E+00 SK= 0.00E+00
   2672 T=   274. E= -.69951375E+03 F= -.70461064E+03 E0= -.70461064E+03  EK= 0.50969E+01 SP= 0.00E+00 SK= 0.00E+00
   2673 T=   273. E= -.69959418E+03 F= -.70466922E+03 E0= -.70466922E+03  EK= 0.50750E+01 SP= 0.00E+00 SK= 0.00E+00
   2674 T=   276. E= -.69958919E+03 F= -.70472477E+03 E0= -.70472477E+03  EK= 0.51356E+01 SP= 0.00E+00 SK= 0.00E+00
   2675 T=   277. E= -.69954201E+03 F= -.70469649E+03 E0= -.70469649E+03  EK= 0.51545E+01 SP= 0.00E+00 SK= 0.00E+00
   2676 T=   271. E= -.69953098E+03 F= -.70457248E+03 E0= -.70457248E+03  EK= 0.50415E+01 SP= 0.00E+00 SK= 0.00E+00
   2677 T=   260. E= -.69953270E+03 F= -.70437184E+03 E0= -.70437184E+03  EK= 0.48391E+01 SP= 0.00E+00 SK= 0.00E+00
   2678 T=   249. E= -.69954572E+03 F= -.70418274E+03 E0= -.70418274E+03  EK= 0.46370E+01 SP= 0.00E+00 SK= 0.00E+00
   2679 T=   244. E= -.69957150E+03 F= -.70410677E+03 E0= -.70410677E+03  EK= 0.45353E+01 SP= 0.00E+00 SK= 0.00E+00
   2680 T=   247. E= -.69957524E+03 F= -.70416834E+03 E0= -.70416834E+03  EK= 0.45931E+01 SP= 0.00E+00 SK= 0.00E+00
   2681 T=   261. E= -.69948990E+03 F= -.70434432E+03 E0= -.70434432E+03  EK= 0.48544E+01 SP= 0.00E+00 SK= 0.00E+00
   2682 T=   274. E= -.69939294E+03 F= -.70449643E+03 E0= -.70449643E+03  EK= 0.51035E+01 SP= 0.00E+00 SK= 0.00E+00
   2683 T=   273. E= -.69948040E+03 F= -.70455315E+03 E0= -.70455315E+03  EK= 0.50727E+01 SP= 0.00E+00 SK= 0.00E+00
   2684 T=   263. E= -.69958680E+03 F= -.70447358E+03 E0= -.70447358E+03  EK= 0.48868E+01 SP= 0.00E+00 SK= 0.00E+00
       N       E                     dE             d eps       ncg     rms          rms(c)
DAV:   1    -0.503182790305E+03    0.19357E+03   -0.23468E+04 12190   0.328E+02
DAV:   2    -0.697917572622E+03   -0.19473E+03   -0.19405E+03 13948   0.841E+01
DAV:   3    -0.701264265715E+03   -0.33467E+01   -0.33457E+01 14596   0.123E+01
DAV:   4    -0.701323918421E+03   -0.59653E-01   -0.59648E-01 14204   0.159E+00    0.243E+01
DAV:   5    -0.696145479889E+03    0.51784E+01   -0.91575E+00 13900   0.777E+00    0.139E+01
DAV:   6    -0.695773406764E+03    0.37207E+00   -0.95307E+00 14620   0.770E+00    0.336E+00
DAV:   7    -0.695957050682E+03   -0.18364E+00   -0.16669E+00 14108   0.330E+00    0.161E+00
DAV:   8    -0.695951369128E+03    0.56816E-02   -0.16299E-01 13996   0.995E-01    0.678E-01
DAV:   9    -0.695943850810E+03    0.75183E-02   -0.23606E-02 14204   0.474E-01    0.249E-01
DAV:  10    -0.695940576179E+03    0.32746E-02   -0.76769E-03 14580   0.318E-01    0.108E-01
DAV:  11    -0.695939511383E+03    0.10648E-02   -0.35784E-03 14684   0.184E-01    0.868E-02
DAV:  12    -0.695938464573E+03    0.10468E-02   -0.57815E-04 13828   0.107E-01    0.362E-02
DAV:  13    -0.695937681389E+03    0.78318E-03   -0.68232E-04 12996   0.161E-01    0.444E-02
DAV:  14    -0.695937670241E+03    0.11147E-04   -0.10061E-03 13884   0.911E-02    0.262E-02
DAV:  15    -0.695937664576E+03    0.56655E-05   -0.12419E-04  9388   0.263E-02
   2685 T=   251. E= -.69960315E+03 F= -.70426645E+03 E0= -.70426645E+03  EK= 0.46633E+01 SP= 0.00E+00 SK= 0.00E+00
   2686 T=   238. E= -.69967549E+03 F= -.70410567E+03 E0= -.70410567E+03  EK= 0.44302E+01 SP= 0.00E+00 SK= 0.00E+00
   2687 T=   229. E= -.69969329E+03 F= -.70396159E+03 E0= -.70396159E+03  EK= 0.42683E+01 SP= 0.00E+00 SK= 0.00E+00
   2688 T=   227. E= -.69972314E+03 F= -.70395089E+03 E0= -.70395089E+03  EK= 0.42278E+01 SP= 0.00E+00 SK= 0.00E+00
   2689 T=   234. E= -.69971102E+03 F= -.70405970E+03 E0= -.70405970E+03  EK= 0.43487E+01 SP= 0.00E+00 SK= 0.00E+00
   2690 T=   245. E= -.69969789E+03 F= -.70425009E+03 E0= -.70425009E+03  EK= 0.45522E+01 SP= 0.00E+00 SK= 0.00E+00
   2691 T=   254. E= -.69969162E+03 F= -.70441612E+03 E0= -.70441612E+03  EK= 0.47245E+01 SP= 0.00E+00 SK= 0.00E+00
   2692 T=   254. E= -.69975837E+03 F= -.70447865E+03 E0= -.70447865E+03  EK= 0.47203E+01 SP= 0.00E+00 SK= 0.00E+00
   2693 T=   247. E= -.69982790E+03 F= -.70442052E+03 E0= -.70442052E+03  EK= 0.45926E+01 SP= 0.00E+00 SK= 0.00E+00
   2694 T=   236. E= -.69987777E+03 F= -.70427488E+03 E0= -.70427488E+03  EK= 0.43971E+01 SP= 0.00E+00 SK= 0.00E+00
       N       E                     dE             d eps       ncg     rms          rms(c)
DAV:   1    -0.691272902347E+03    0.46648E+01   -0.19976E+03 12190   0.101E+02
DAV:   2    -0.696534001708E+03   -0.52611E+01   -0.52596E+01 14428   0.149E+01
DAV:   3    -0.696587889117E+03   -0.53887E-01   -0.53884E-01 14636   0.155E+00
DAV:   4    -0.696589112309E+03   -0.12232E-02   -0.12231E-02 14420   0.222E-01    0.863E+00
DAV:   5    -0.695864451606E+03    0.72466E+00   -0.13406E+00 14692   0.349E+00    0.471E+00
DAV:   6    -0.695783328213E+03    0.81123E-01   -0.11133E+00 14692   0.275E+00    0.137E+00
DAV:   7    -0.695792443840E+03   -0.91156E-02   -0.22936E-01 14340   0.143E+00    0.544E-01
DAV:   8    -0.695788755658E+03    0.36882E-02   -0.26914E-02 14116   0.501E-01    0.263E-01
DAV:   9    -0.695785935007E+03    0.28207E-02   -0.92378E-03 13900   0.265E-01    0.140E-01
DAV:  10    -0.695784454172E+03    0.14808E-02   -0.22318E-03 16900   0.203E-01    0.533E-02
DAV:  11    -0.695783976581E+03    0.47759E-03   -0.12858E-03 14164   0.117E-01    0.528E-02
DAV:  12    -0.695783545051E+03    0.43153E-03   -0.26149E-04 11364   0.885E-02    0.204E-02
DAV:  13    -0.695783368533E+03    0.17652E-03   -0.32618E-04 12556   0.939E-02    0.315E-02
DAV:  14    -0.695783355834E+03    0.12699E-04   -0.32001E-04 13116   0.538E-02
   2695 T=   227. E= -.69989695E+03 F= -.70411494E+03 E0= -.70411494E+03  EK= 0.42180E+01 SP= 0.00E+00 SK= 0.00E+00
   2696 T=   227. E= -.69992782E+03 F= -.70414849E+03 E0= -.70414849E+03  EK= 0.42207E+01 SP= 0.00E+00 SK= 0.00E+00
   2697 T=   240. E= -.69982646E+03 F= -.70428552E+03 E0= -.70428552E+03  EK= 0.44591E+01 SP= 0.00E+00 SK= 0.00E+00
   2698 T=   254. E= -.69972138E+03 F= -.70445435E+03 E0= -.70445435E+03  EK= 0.47330E+01 SP= 0.00E+00 SK= 0.00E+00
   2699 T=   259. E= -.69972711E+03 F= -.70454468E+03 E0= -.70454468E+03  EK= 0.48176E+01 SP= 0.00E+00 SK= 0.00E+00
   2700 T=   258. E= -.69976252E+03 F= -.70456813E+03 E0= -.70456813E+03  EK= 0.48056E+01 SP= 0.00E+00 SK= 0.00E+00
   2701 T=   256. E= -.69979000E+03 F= -.70455884E+03 E0= -.70455884E+03  EK= 0.47688E+01 SP= 0.00E+00 SK= 0.00E+00
   2702 T=   249. E= -.69991501E+03 F= -.70455854E+03 E0= -.70455854E+03  EK= 0.46435E+01 SP= 0.00E+00 SK= 0.00E+00
   2703 T=   244. E= -.70004942E+03 F= -.70459526E+03 E0= -.70459526E+03  EK= 0.45458E+01 SP= 0.00E+00 SK= 0.00E+00
   2704 T=   248. E= -.70004646E+03 F= -.70465532E+03 E0= -.70465532E+03  EK= 0.46089E+01 SP= 0.00E+00 SK= 0.00E+00
       N       E                     dE             d eps       ncg     rms          rms(c)
DAV:   1    -0.692303801616E+03    0.34796E+01   -0.19214E+03 12190   0.993E+01
DAV:   2    -0.697094853065E+03   -0.47911E+01   -0.47898E+01 14348   0.143E+01
DAV:   3    -0.697143782346E+03   -0.48929E-01   -0.48926E-01 14636   0.148E+00
DAV:   4    -0.697144905242E+03   -0.11229E-02   -0.11229E-02 14404   0.213E-01    0.854E+00
DAV:   5    -0.696451826269E+03    0.69308E+00   -0.13915E+00 15452   0.372E+00    0.466E+00
DAV:   6    -0.696388990658E+03    0.62836E-01   -0.11015E+00 14596   0.273E+00    0.142E+00
DAV:   7    -0.696396231238E+03   -0.72406E-02   -0.21121E-01 14100   0.139E+00    0.514E-01
DAV:   8    -0.696391930152E+03    0.43011E-02   -0.24808E-02 14364   0.480E-01    0.262E-01
DAV:   9    -0.696388419262E+03    0.35109E-02   -0.12091E-02 13684   0.311E-01    0.168E-01
DAV:  10    -0.696386648104E+03    0.17712E-02   -0.31423E-03 16500   0.237E-01    0.550E-02
DAV:  11    -0.696386092458E+03    0.55565E-03   -0.15832E-03 14060   0.133E-01    0.566E-02
DAV:  12    -0.696385580559E+03    0.51190E-03   -0.25783E-04 11084   0.110E-01    0.227E-02
DAV:  13    -0.696385405792E+03    0.17477E-03   -0.45479E-04 13140   0.105E-01    0.290E-02
DAV:  14    -0.696385398537E+03    0.72555E-05   -0.34118E-04 13604   0.550E-02
   2705 T=   258. E= -.69990830E+03 F= -.70470872E+03 E0= -.70470872E+03  EK= 0.48004E+01 SP= 0.00E+00 SK= 0.00E+00
   2706 T=   265. E= -.69988059E+03 F= -.70481756E+03 E0= -.70481756E+03  EK= 0.49370E+01 SP= 0.00E+00 SK= 0.00E+00
   2707 T=   262. E= -.69995973E+03 F= -.70483910E+03 E0= -.70483910E+03  EK= 0.48794E+01 SP= 0.00E+00 SK= 0.00E+00
   2708 T=   258. E= -.70002925E+03 F= -.70483099E+03 E0= -.70483099E+03  EK= 0.48017E+01 SP= 0.00E+00 SK= 0.00E+00
   2709 T=   249. E= -.70015348E+03 F= -.70478803E+03 E0= -.70478803E+03  EK= 0.46346E+01 SP= 0.00E+00 SK= 0.00E+00
   2710 T=   243. E= -.70026732E+03 F= -.70478685E+03 E0= -.70478685E+03  EK= 0.45195E+01 SP= 0.00E+00 SK= 0.00E+00
   2711 T=   248. E= -.70020096E+03 F= -.70481822E+03 E0= -.70481822E+03  EK= 0.46173E+01 SP= 0.00E+00 SK= 0.00E+00
   2712 T=   251. E= -.70017096E+03 F= -.70483683E+03 E0= -.70483683E+03  EK= 0.46659E+01 SP= 0.00E+00 SK= 0.00E+00
   2713 T=   247. E= -.70024708E+03 F= -.70484646E+03 E0= -.70484646E+03  EK= 0.45994E+01 SP= 0.00E+00 SK= 0.00E+00
   2714 T=   242. E= -.70029880E+03 F= -.70480384E+03 E0= -.70480384E+03  EK= 0.45050E+01 SP= 0.00E+00 SK= 0.00E+00
   2715 T=   240. E= -.70023638E+03 F= -.70469741E+03 E0= -.70469741E+03  EK= 0.44610E+01 SP= 0.00E+00 SK= 0.00E+00
   2716 T=   238. E= -.70017739E+03 F= -.70460232E+03 E0= -.70460232E+03  EK= 0.44249E+01 SP= 0.00E+00 SK= 0.00E+00
   2717 T=   237. E= -.70014786E+03 F= -.70456289E+03 E0= -.70456289E+03  EK= 0.44150E+01 SP= 0.00E+00 SK= 0.00E+00
   2718 T=   236. E= -.70016898E+03 F= -.70456620E+03 E0= -.70456620E+03  EK= 0.43972E+01 SP= 0.00E+00 SK= 0.00E+00
   2719 T=   237. E= -.70021109E+03 F= -.70461419E+03 E0= -.70461419E+03  EK= 0.44031E+01 SP= 0.00E+00 SK= 0.00E+00
   2720 T=   241. E= -.70018744E+03 F= -.70467865E+03 E0= -.70467865E+03  EK= 0.44912E+01 SP= 0.00E+00 SK= 0.00E+00
   2721 T=   248. E= -.70014843E+03 F= -.70477060E+03 E0= -.70477060E+03  EK= 0.46222E+01 SP= 0.00E+00 SK= 0.00E+00
   2722 T=   255. E= -.70012750E+03 F= -.70486632E+03 E0= -.70486632E+03  EK= 0.47388E+01 SP= 0.00E+00 SK= 0.00E+00
   2723 T=   257. E= -.70014980E+03 F= -.70492596E+03 E0= -.70492596E+03  EK= 0.47762E+01 SP= 0.00E+00 SK= 0.00E+00
   2724 T=   255. E= -.70018009E+03 F= -.70493510E+03 E0= -.70493510E+03  EK= 0.47550E+01 SP= 0.00E+00 SK= 0.00E+00
   2725 T=   258. E= -.70015167E+03 F= -.70495146E+03 E0= -.70495146E+03  EK= 0.47998E+01 SP= 0.00E+00 SK= 0.00E+00
   2726 T=   259. E= -.70016355E+03 F= -.70497662E+03 E0= -.70497662E+03  EK= 0.48131E+01 SP= 0.00E+00 SK= 0.00E+00
   2727 T=   256. E= -.70023095E+03 F= -.70499002E+03 E0= -.70499002E+03  EK= 0.47591E+01 SP= 0.00E+00 SK= 0.00E+00
   2728 T=   257. E= -.70020141E+03 F= -.70498396E+03 E0= -.70498396E+03  EK= 0.47826E+01 SP= 0.00E+00 SK= 0.00E+00
   2729 T=   256. E= -.70015953E+03 F= -.70492470E+03 E0= -.70492470E+03  EK= 0.47652E+01 SP= 0.00E+00 SK= 0.00E+00
   2730 T=   253. E= -.70011974E+03 F= -.70483532E+03 E0= -.70483532E+03  EK= 0.47156E+01 SP= 0.00E+00 SK= 0.00E+00
   2731 T=   251. E= -.70009408E+03 F= -.70476187E+03 E0= -.70476187E+03  EK= 0.46678E+01 SP= 0.00E+00 SK= 0.00E+00
   2732 T=   254. E= -.70005618E+03 F= -.70477565E+03 E0= -.70477565E+03  EK= 0.47195E+01 SP= 0.00E+00 SK= 0.00E+00
   2733 T=   260. E= -.69996551E+03 F= -.70480492E+03 E0= -.70480492E+03  EK= 0.48394E+01 SP= 0.00E+00 SK= 0.00E+00
   2734 T=   258. E= -.70001346E+03 F= -.70482161E+03 E0= -.70482161E+03  EK= 0.48082E+01 SP= 0.00E+00 SK= 0.00E+00
   2735 T=   249. E= -.70013145E+03 F= -.70476496E+03 E0= -.70476496E+03  EK= 0.46335E+01 SP= 0.00E+00 SK= 0.00E+00
   2736 T=   241. E= -.70023678E+03 F= -.70471632E+03 E0= -.70471632E+03  EK= 0.44795E+01 SP= 0.00E+00 SK= 0.00E+00
   2737 T=   235. E= -.70031923E+03 F= -.70470101E+03 E0= -.70470101E+03  EK= 0.43818E+01 SP= 0.00E+00 SK= 0.00E+00
       N       E                     dE             d eps       ncg     rms          rms(c)
DAV:   1    -0.644308742126E+03    0.52077E+02   -0.10356E+04 12190   0.224E+02
DAV:   2    -0.698573197973E+03   -0.54264E+02   -0.54208E+02 14380   0.446E+01
DAV:   3    -0.699236458772E+03   -0.66326E+00   -0.66314E+00 14620   0.552E+00
DAV:   4    -0.699248581993E+03   -0.12123E-01   -0.12122E-01 14372   0.725E-01    0.178E+01
DAV:   5    -0.696649669854E+03    0.25989E+01   -0.44040E+00 14300   0.598E+00    0.102E+01
DAV:   6    -0.696359710149E+03    0.28996E+00   -0.53348E+00 14668   0.612E+00    0.229E+00
DAV:   7    -0.696439634154E+03   -0.79924E-01   -0.10196E+00 13972   0.261E+00    0.113E+00
DAV:   8    -0.696430962622E+03    0.86715E-02   -0.80564E-02 14148   0.712E-01    0.606E-01
DAV:   9    -0.696424578778E+03    0.63838E-02   -0.32491E-02 13804   0.524E-01    0.286E-01
DAV:  10    -0.696420645915E+03    0.39329E-02   -0.65382E-03 15556   0.329E-01    0.114E-01
DAV:  11    -0.696419596443E+03    0.10495E-02   -0.53025E-03 14580   0.220E-01    0.911E-02
DAV:  12    -0.696418766027E+03    0.83042E-03   -0.11165E-03 14340   0.124E-01    0.381E-02
DAV:  13    -0.696418292419E+03    0.47361E-03   -0.45623E-04 12868   0.115E-01    0.445E-02
DAV:  14    -0.696418204567E+03    0.87852E-04   -0.45225E-04 13724   0.799E-02
   2738 T=   238. E= -.70029248E+03 F= -.70471859E+03 E0= -.70471859E+03  EK= 0.44261E+01 SP= 0.00E+00 SK= 0.00E+00
   2739 T=   239. E= -.70032175E+03 F= -.70477147E+03 E0= -.70477147E+03  EK= 0.44497E+01 SP= 0.00E+00 SK= 0.00E+00
   2740 T=   241. E= -.70031840E+03 F= -.70479701E+03 E0= -.70479701E+03  EK= 0.44786E+01 SP= 0.00E+00 SK= 0.00E+00
   2741 T=   242. E= -.70037619E+03 F= -.70487689E+03 E0= -.70487689E+03  EK= 0.45007E+01 SP= 0.00E+00 SK= 0.00E+00
   2742 T=   243. E= -.70042369E+03 F= -.70494066E+03 E0= -.70494066E+03  EK= 0.45170E+01 SP= 0.00E+00 SK= 0.00E+00
   2743 T=   242. E= -.70051084E+03 F= -.70501594E+03 E0= -.70501594E+03  EK= 0.45051E+01 SP= 0.00E+00 SK= 0.00E+00
   2744 T=   239. E= -.70063546E+03 F= -.70508607E+03 E0= -.70508607E+03  EK= 0.44506E+01 SP= 0.00E+00 SK= 0.00E+00
   2745 T=   243. E= -.70056914E+03 F= -.70510036E+03 E0= -.70510036E+03  EK= 0.45312E+01 SP= 0.00E+00 SK= 0.00E+00
   2746 T=   244. E= -.70047411E+03 F= -.70500979E+03 E0= -.70500979E+03  EK= 0.45357E+01 SP= 0.00E+00 SK= 0.00E+00
   2747 T=   240. E= -.70043584E+03 F= -.70490362E+03 E0= -.70490362E+03  EK= 0.44678E+01 SP= 0.00E+00 SK= 0.00E+00
   2748 T=   242. E= -.70037474E+03 F= -.70487792E+03 E0= -.70487792E+03  EK= 0.45032E+01 SP= 0.00E+00 SK= 0.00E+00
   2749 T=   247. E= -.70034811E+03 F= -.70493769E+03 E0= -.70493769E+03  EK= 0.45896E+01 SP= 0.00E+00 SK= 0.00E+00
   2750 T=   257. E= -.70027453E+03 F= -.70505371E+03 E0= -.70505371E+03  EK= 0.47792E+01 SP= 0.00E+00 SK= 0.00E+00
   2751 T=   267. E= -.70014766E+03 F= -.70511015E+03 E0= -.70511015E+03  EK= 0.49625E+01 SP= 0.00E+00 SK= 0.00E+00
   2752 T=   265. E= -.70011844E+03 F= -.70505092E+03 E0= -.70505092E+03  EK= 0.49325E+01 SP= 0.00E+00 SK= 0.00E+00
   2753 T=   256. E= -.70017282E+03 F= -.70493630E+03 E0= -.70493630E+03  EK= 0.47635E+01 SP= 0.00E+00 SK= 0.00E+00
   2754 T=   250. E= -.70014182E+03 F= -.70479771E+03 E0= -.70479771E+03  EK= 0.46559E+01 SP= 0.00E+00 SK= 0.00E+00
   2755 T=   248. E= -.70007217E+03 F= -.70469278E+03 E0= -.70469278E+03  EK= 0.46206E+01 SP= 0.00E+00 SK= 0.00E+00
   2756 T=   246. E= -.70003808E+03 F= -.70462460E+03 E0= -.70462460E+03  EK= 0.45865E+01 SP= 0.00E+00 SK= 0.00E+00
   2757 T=   251. E= -.69998655E+03 F= -.70466710E+03 E0= -.70466710E+03  EK= 0.46805E+01 SP= 0.00E+00 SK= 0.00E+00
   2758 T=   258. E= -.70001632E+03 F= -.70481494E+03 E0= -.70481494E+03  EK= 0.47986E+01 SP= 0.00E+00 SK= 0.00E+00
   2759 T=   262. E= -.70012657E+03 F= -.70500527E+03 E0= -.70500527E+03  EK= 0.48787E+01 SP= 0.00E+00 SK= 0.00E+00
   2760 T=   265. E= -.70019704E+03 F= -.70513097E+03 E0= -.70513097E+03  EK= 0.49339E+01 SP= 0.00E+00 SK= 0.00E+00
   2761 T=   267. E= -.70020637E+03 F= -.70516820E+03 E0= -.70516820E+03  EK= 0.49618E+01 SP= 0.00E+00 SK= 0.00E+00
   2762 T=   262. E= -.70024753E+03 F= -.70512014E+03 E0= -.70512014E+03  EK= 0.48726E+01 SP= 0.00E+00 SK= 0.00E+00
   2763 T=   253. E= -.70030612E+03 F= -.70500791E+03 E0= -.70500791E+03  EK= 0.47018E+01 SP= 0.00E+00 SK= 0.00E+00
   2764 T=   248. E= -.70028998E+03 F= -.70490409E+03 E0= -.70490409E+03  EK= 0.46141E+01 SP= 0.00E+00 SK= 0.00E+00
   2765 T=   248. E= -.70029240E+03 F= -.70490405E+03 E0= -.70490405E+03  EK= 0.46116E+01 SP= 0.00E+00 SK= 0.00E+00
   2766 T=   253. E= -.70030341E+03 F= -.70501704E+03 E0= -.70501704E+03  EK= 0.47136E+01 SP= 0.00E+00 SK= 0.00E+00
   2767 T=   261. E= -.70033473E+03 F= -.70519152E+03 E0= -.70519152E+03  EK= 0.48568E+01 SP= 0.00E+00 SK= 0.00E+00
   2768 T=   262. E= -.70044690E+03 F= -.70532615E+03 E0= -.70532615E+03  EK= 0.48792E+01 SP= 0.00E+00 SK= 0.00E+00
   2769 T=   259. E= -.70050576E+03 F= -.70532953E+03 E0= -.70532953E+03  EK= 0.48238E+01 SP= 0.00E+00 SK= 0.00E+00
   2770 T=   252. E= -.70053317E+03 F= -.70521459E+03 E0= -.70521459E+03  EK= 0.46814E+01 SP= 0.00E+00 SK= 0.00E+00
   2771 T=   237. E= -.70065364E+03 F= -.70506339E+03 E0= -.70506339E+03  EK= 0.44098E+01 SP= 0.00E+00 SK= 0.00E+00
   2772 T=   230. E= -.70066522E+03 F= -.70495273E+03 E0= -.70495273E+03  EK= 0.42875E+01 SP= 0.00E+00 SK= 0.00E+00
   2773 T=   232. E= -.70060279E+03 F= -.70491273E+03 E0= -.70491273E+03  EK= 0.43099E+01 SP= 0.00E+00 SK= 0.00E+00
   2774 T=   234. E= -.70060445E+03 F= -.70495632E+03 E0= -.70495632E+03  EK= 0.43519E+01 SP= 0.00E+00 SK= 0.00E+00
   2775 T=   239. E= -.70062857E+03 F= -.70508443E+03 E0= -.70508443E+03  EK= 0.44559E+01 SP= 0.00E+00 SK= 0.00E+00
   2776 T=   244. E= -.70064713E+03 F= -.70518823E+03 E0= -.70518823E+03  EK= 0.45411E+01 SP= 0.00E+00 SK= 0.00E+00
   2777 T=   247. E= -.70061541E+03 F= -.70521751E+03 E0= -.70521751E+03  EK= 0.46021E+01 SP= 0.00E+00 SK= 0.00E+00
   2778 T=   247. E= -.70055113E+03 F= -.70515364E+03 E0= -.70515364E+03  EK= 0.46025E+01 SP= 0.00E+00 SK= 0.00E+00
   2779 T=   244. E= -.70049282E+03 F= -.70503234E+03 E0= -.70503234E+03  EK= 0.45395E+01 SP= 0.00E+00 SK= 0.00E+00
   2780 T=   241. E= -.70046573E+03 F= -.70496050E+03 E0= -.70496050E+03  EK= 0.44948E+01 SP= 0.00E+00 SK= 0.00E+00
   2781 T=   243. E= -.70049595E+03 F= -.70501164E+03 E0= -.70501164E+03  EK= 0.45157E+01 SP= 0.00E+00 SK= 0.00E+00
   2782 T=   254. E= -.70045674E+03 F= -.70518036E+03 E0= -.70518036E+03  EK= 0.47236E+01 SP= 0.00E+00 SK= 0.00E+00
   2783 T=   267. E= -.70040597E+03 F= -.70537350E+03 E0= -.70537350E+03  EK= 0.49675E+01 SP= 0.00E+00 SK= 0.00E+00
   2784 T=   276. E= -.70038981E+03 F= -.70552681E+03 E0= -.70552681E+03  EK= 0.51370E+01 SP= 0.00E+00 SK= 0.00E+00
   2785 T=   278. E= -.70036540E+03 F= -.70554737E+03 E0= -.70554737E+03  EK= 0.51820E+01 SP= 0.00E+00 SK= 0.00E+00
   2786 T=   271. E= -.70036570E+03 F= -.70541374E+03 E0= -.70541374E+03  EK= 0.50480E+01 SP= 0.00E+00 SK= 0.00E+00
   2787 T=   260. E= -.70042045E+03 F= -.70526575E+03 E0= -.70526575E+03  EK= 0.48453E+01 SP= 0.00E+00 SK= 0.00E+00
   2788 T=   254. E= -.70043177E+03 F= -.70516471E+03 E0= -.70516471E+03  EK= 0.47329E+01 SP= 0.00E+00 SK= 0.00E+00
   2789 T=   254. E= -.70040574E+03 F= -.70513041E+03 E0= -.70513041E+03  EK= 0.47247E+01 SP= 0.00E+00 SK= 0.00E+00
   2790 T=   259. E= -.70037558E+03 F= -.70520423E+03 E0= -.70520423E+03  EK= 0.48287E+01 SP= 0.00E+00 SK= 0.00E+00
   2791 T=   272. E= -.70028507E+03 F= -.70534734E+03 E0= -.70534734E+03  EK= 0.50623E+01 SP= 0.00E+00 SK= 0.00E+00
   2792 T=   281. E= -.70023862E+03 F= -.70546948E+03 E0= -.70546948E+03  EK= 0.52309E+01 SP= 0.00E+00 SK= 0.00E+00
   2793 T=   286. E= -.70022107E+03 F= -.70553541E+03 E0= -.70553541E+03  EK= 0.53143E+01 SP= 0.00E+00 SK= 0.00E+00
   2794 T=   285. E= -.70018268E+03 F= -.70548553E+03 E0= -.70548553E+03  EK= 0.53028E+01 SP= 0.00E+00 SK= 0.00E+00
   2795 T=   283. E= -.70009812E+03 F= -.70536309E+03 E0= -.70536309E+03  EK= 0.52650E+01 SP= 0.00E+00 SK= 0.00E+00
   2796 T=   278. E= -.70004219E+03 F= -.70522117E+03 E0= -.70522117E+03  EK= 0.51790E+01 SP= 0.00E+00 SK= 0.00E+00
   2797 T=   273. E= -.70001437E+03 F= -.70508701E+03 E0= -.70508701E+03  EK= 0.50726E+01 SP= 0.00E+00 SK= 0.00E+00
   2798 T=   271. E= -.69996744E+03 F= -.70501484E+03 E0= -.70501484E+03  EK= 0.50474E+01 SP= 0.00E+00 SK= 0.00E+00
   2799 T=   273. E= -.69995456E+03 F= -.70504429E+03 E0= -.70504429E+03  EK= 0.50897E+01 SP= 0.00E+00 SK= 0.00E+00
   2800 T=   279. E= -.69993902E+03 F= -.70513029E+03 E0= -.70513029E+03  EK= 0.51913E+01 SP= 0.00E+00 SK= 0.00E+00
   2801 T=   287. E= -.69988024E+03 F= -.70522589E+03 E0= -.70522589E+03  EK= 0.53456E+01 SP= 0.00E+00 SK= 0.00E+00
   2802 T=   294. E= -.69978882E+03 F= -.70526159E+03 E0= -.70526159E+03  EK= 0.54728E+01 SP= 0.00E+00 SK= 0.00E+00
   2803 T=   290. E= -.69979052E+03 F= -.70518688E+03 E0= -.70518688E+03  EK= 0.53964E+01 SP= 0.00E+00 SK= 0.00E+00
   2804 T=   282. E= -.69980771E+03 F= -.70506108E+03 E0= -.70506108E+03  EK= 0.52534E+01 SP= 0.00E+00 SK= 0.00E+00
   2805 T=   279. E= -.69976166E+03 F= -.70494978E+03 E0= -.70494978E+03  EK= 0.51881E+01 SP= 0.00E+00 SK= 0.00E+00
   2806 T=   274. E= -.69978121E+03 F= -.70489042E+03 E0= -.70489042E+03  EK= 0.51092E+01 SP= 0.00E+00 SK= 0.00E+00
   2807 T=   273. E= -.69980288E+03 F= -.70488253E+03 E0= -.70488253E+03  EK= 0.50796E+01 SP= 0.00E+00 SK= 0.00E+00
   2808 T=   276. E= -.69979002E+03 F= -.70493149E+03 E0= -.70493149E+03  EK= 0.51415E+01 SP= 0.00E+00 SK= 0.00E+00
   2809 T=   278. E= -.69983606E+03 F= -.70501696E+03 E0= -.70501696E+03  EK= 0.51809E+01 SP= 0.00E+00 SK= 0.00E+00
   2810 T=   279. E= -.69990104E+03 F= -.70509481E+03 E0= -.70509481E+03  EK= 0.51938E+01 SP= 0.00E+00 SK= 0.00E+00
   2811 T=   280. E= -.69987344E+03 F= -.70508212E+03 E0= -.70508212E+03  EK= 0.52087E+01 SP= 0.00E+00 SK= 0.00E+00
   2812 T=   273. E= -.69990199E+03 F= -.70498540E+03 E0= -.70498540E+03  EK= 0.50834E+01 SP= 0.00E+00 SK= 0.00E+00
   2813 T=   264. E= -.69995221E+03 F= -.70486761E+03 E0= -.70486761E+03  EK= 0.49154E+01 SP= 0.00E+00 SK= 0.00E+00
   2814 T=   261. E= -.69986677E+03 F= -.70472098E+03 E0= -.70472098E+03  EK= 0.48542E+01 SP= 0.00E+00 SK= 0.00E+00
   2815 T=   257. E= -.69982046E+03 F= -.70459612E+03 E0= -.70459612E+03  EK= 0.47757E+01 SP= 0.00E+00 SK= 0.00E+00
   2816 T=   248. E= -.69988621E+03 F= -.70450384E+03 E0= -.70450384E+03  EK= 0.46176E+01 SP= 0.00E+00 SK= 0.00E+00
   2817 T=   240. E= -.69996877E+03 F= -.70444489E+03 E0= -.70444489E+03  EK= 0.44761E+01 SP= 0.00E+00 SK= 0.00E+00
   2818 T=   241. E= -.70000634E+03 F= -.70449148E+03 E0= -.70449148E+03  EK= 0.44851E+01 SP= 0.00E+00 SK= 0.00E+00
   2819 T=   248. E= -.70002020E+03 F= -.70463729E+03 E0= -.70463729E+03  EK= 0.46171E+01 SP= 0.00E+00 SK= 0.00E+00
   2820 T=   258. E= -.69997787E+03 F= -.70478219E+03 E0= -.70478219E+03  EK= 0.48043E+01 SP= 0.00E+00 SK= 0.00E+00
   2821 T=   267. E= -.69989915E+03 F= -.70485967E+03 E0= -.70485967E+03  EK= 0.49605E+01 SP= 0.00E+00 SK= 0.00E+00
   2822 T=   264. E= -.69989116E+03 F= -.70480618E+03 E0= -.70480618E+03  EK= 0.49150E+01 SP= 0.00E+00 SK= 0.00E+00
   2823 T=   255. E= -.69991656E+03 F= -.70466694E+03 E0= -.70466694E+03  EK= 0.47504E+01 SP= 0.00E+00 SK= 0.00E+00
   2824 T=   249. E= -.69991316E+03 F= -.70455104E+03 E0= -.70455104E+03  EK= 0.46379E+01 SP= 0.00E+00 SK= 0.00E+00
   2825 T=   244. E= -.69994855E+03 F= -.70449036E+03 E0= -.70449036E+03  EK= 0.45418E+01 SP= 0.00E+00 SK= 0.00E+00
   2826 T=   244. E= -.70000240E+03 F= -.70454621E+03 E0= -.70454621E+03  EK= 0.45438E+01 SP= 0.00E+00 SK= 0.00E+00
   2827 T=   247. E= -.70009573E+03 F= -.70469253E+03 E0= -.70469253E+03  EK= 0.45968E+01 SP= 0.00E+00 SK= 0.00E+00
   2828 T=   249. E= -.70020914E+03 F= -.70483538E+03 E0= -.70483538E+03  EK= 0.46262E+01 SP= 0.00E+00 SK= 0.00E+00
   2829 T=   254. E= -.70020207E+03 F= -.70493329E+03 E0= -.70493329E+03  EK= 0.47312E+01 SP= 0.00E+00 SK= 0.00E+00
   2830 T=   259. E= -.70015176E+03 F= -.70496537E+03 E0= -.70496537E+03  EK= 0.48136E+01 SP= 0.00E+00 SK= 0.00E+00
   2831 T=   259. E= -.70008081E+03 F= -.70490664E+03 E0= -.70490664E+03  EK= 0.48258E+01 SP= 0.00E+00 SK= 0.00E+00
   2832 T=   258. E= -.69997401E+03 F= -.70477177E+03 E0= -.70477177E+03  EK= 0.47978E+01 SP= 0.00E+00 SK= 0.00E+00
   2833 T=   251. E= -.69998642E+03 F= -.70466047E+03 E0= -.70466047E+03  EK= 0.46740E+01 SP= 0.00E+00 SK= 0.00E+00
   2834 T=   245. E= -.70008529E+03 F= -.70465208E+03 E0= -.70465208E+03  EK= 0.45668E+01 SP= 0.00E+00 SK= 0.00E+00
   2835 T=   247. E= -.70014142E+03 F= -.70473916E+03 E0= -.70473916E+03  EK= 0.45977E+01 SP= 0.00E+00 SK= 0.00E+00
   2836 T=   253. E= -.70016668E+03 F= -.70488123E+03 E0= -.70488123E+03  EK= 0.47145E+01 SP= 0.00E+00 SK= 0.00E+00
   2837 T=   257. E= -.70025617E+03 F= -.70504257E+03 E0= -.70504257E+03  EK= 0.47864E+01 SP= 0.00E+00 SK= 0.00E+00
   2838 T=   260. E= -.70030583E+03 F= -.70513884E+03 E0= -.70513884E+03  EK= 0.48330E+01 SP= 0.00E+00 SK= 0.00E+00
   2839 T=   262. E= -.70024054E+03 F= -.70512645E+03 E0= -.70512645E+03  EK= 0.48859E+01 SP= 0.00E+00 SK= 0.00E+00
   2840 T=   260. E= -.70018629E+03 F= -.70501904E+03 E0= -.70501904E+03  EK= 0.48327E+01 SP= 0.00E+00 SK= 0.00E+00
   2841 T=   256. E= -.70016098E+03 F= -.70492413E+03 E0= -.70492413E+03  EK= 0.47631E+01 SP= 0.00E+00 SK= 0.00E+00
   2842 T=   254. E= -.70017179E+03 F= -.70490590E+03 E0= -.70490590E+03  EK= 0.47341E+01 SP= 0.00E+00 SK= 0.00E+00
   2843 T=   252. E= -.70024159E+03 F= -.70493751E+03 E0= -.70493751E+03  EK= 0.46959E+01 SP= 0.00E+00 SK= 0.00E+00
   2844 T=   253. E= -.70031040E+03 F= -.70502333E+03 E0= -.70502333E+03  EK= 0.47129E+01 SP= 0.00E+00 SK= 0.00E+00
   2845 T=   254. E= -.70039198E+03 F= -.70511771E+03 E0= -.70511771E+03  EK= 0.47257E+01 SP= 0.00E+00 SK= 0.00E+00
       N       E                     dE             d eps       ncg     rms          rms(c)
DAV:   1    -0.363608188368E+03    0.33281E+03   -0.31200E+04 12190   0.374E+02
DAV:   2    -0.695682441849E+03   -0.33207E+03   -0.32397E+03 14430   0.106E+02
DAV:   3    -0.705812233139E+03   -0.10130E+02   -0.10117E+02 14308   0.196E+01
DAV:   4    -0.705960032323E+03   -0.14780E+00   -0.14776E+00 14636   0.232E+00    0.282E+01
DAV:   5    -0.696932001548E+03    0.90280E+01   -0.18459E+01 14516   0.109E+01    0.155E+01
DAV:   6    -0.696398584723E+03    0.53342E+00   -0.10427E+01 14340   0.796E+00    0.535E+00
DAV:   7    -0.696792745583E+03   -0.39416E+00   -0.18781E+00 14004   0.357E+00    0.176E+00
DAV:   8    -0.696805911220E+03   -0.13166E-01   -0.16455E-01 13996   0.110E+00    0.742E-01
DAV:   9    -0.696804451670E+03    0.14595E-02   -0.42865E-02 14116   0.548E-01    0.269E-01
DAV:  10    -0.696802706796E+03    0.17449E-02   -0.73441E-03 15476   0.294E-01    0.104E-01
DAV:  11    -0.696802044226E+03    0.66257E-03   -0.28017E-03 14044   0.143E-01    0.759E-02
DAV:  12    -0.696801269735E+03    0.77449E-03   -0.45050E-04 12940   0.104E-01    0.304E-02
DAV:  13    -0.696800914853E+03    0.35488E-03   -0.53893E-04 13020   0.987E-02    0.365E-02
DAV:  14    -0.696800865061E+03    0.49793E-04   -0.37055E-04 13236   0.616E-02
   2846 T=   257. E= -.70034773E+03 F= -.70512620E+03 E0= -.70512620E+03  EK= 0.47785E+01 SP= 0.00E+00 SK= 0.00E+00
   2847 T=   256. E= -.70048445E+03 F= -.70524636E+03 E0= -.70524636E+03  EK= 0.47619E+01 SP= 0.00E+00 SK= 0.00E+00
   2848 T=   250. E= -.70062134E+03 F= -.70527179E+03 E0= -.70527179E+03  EK= 0.46505E+01 SP= 0.00E+00 SK= 0.00E+00
   2849 T=   248. E= -.70068921E+03 F= -.70530755E+03 E0= -.70530755E+03  EK= 0.46183E+01 SP= 0.00E+00 SK= 0.00E+00
   2850 T=   245. E= -.70077063E+03 F= -.70533427E+03 E0= -.70533427E+03  EK= 0.45636E+01 SP= 0.00E+00 SK= 0.00E+00
   2851 T=   238. E= -.70092542E+03 F= -.70534745E+03 E0= -.70534745E+03  EK= 0.44220E+01 SP= 0.00E+00 SK= 0.00E+00
   2852 T=   231. E= -.70105156E+03 F= -.70535327E+03 E0= -.70535327E+03  EK= 0.43017E+01 SP= 0.00E+00 SK= 0.00E+00
   2853 T=   228. E= -.70111489E+03 F= -.70534970E+03 E0= -.70534970E+03  EK= 0.42348E+01 SP= 0.00E+00 SK= 0.00E+00
   2854 T=   226. E= -.70116509E+03 F= -.70537666E+03 E0= -.70537666E+03  EK= 0.42116E+01 SP= 0.00E+00 SK= 0.00E+00
   2855 T=   229. E= -.70114508E+03 F= -.70541300E+03 E0= -.70541300E+03  EK= 0.42679E+01 SP= 0.00E+00 SK= 0.00E+00
       N       E                     dE             d eps       ncg     rms          rms(c)
DAV:   1    -0.693495186960E+03    0.33057E+01   -0.16889E+03 12190   0.931E+01
DAV:   2    -0.697660836736E+03   -0.41656E+01   -0.41647E+01 14396   0.133E+01
DAV:   3    -0.697704011604E+03   -0.43175E-01   -0.43173E-01 14644   0.140E+00
DAV:   4    -0.697705000562E+03   -0.98896E-03   -0.98893E-03 14420   0.202E-01    0.824E+00
DAV:   5    -0.697089289369E+03    0.61571E+00   -0.12220E+00 15508   0.347E+00    0.455E+00
DAV:   6    -0.697039842511E+03    0.49447E-01   -0.10665E+00 14700   0.289E+00    0.130E+00
DAV:   7    -0.697050994785E+03   -0.11152E-01   -0.21387E-01 14052   0.129E+00    0.513E-01
DAV:   8    -0.697047130170E+03    0.38646E-02   -0.19985E-02 14180   0.387E-01    0.274E-01
DAV:   9    -0.697043876867E+03    0.32533E-02   -0.80446E-03 14004   0.307E-01    0.134E-01
DAV:  10    -0.697042259144E+03    0.16177E-02   -0.20059E-03 15404   0.197E-01    0.639E-02
DAV:  11    -0.697041646073E+03    0.61307E-03   -0.17117E-03 14292   0.154E-01    0.563E-02
DAV:  12    -0.697041290382E+03    0.35569E-03   -0.63144E-04 14596   0.118E-01    0.276E-02
DAV:  13    -0.697041156394E+03    0.13399E-03   -0.23802E-04 10804   0.773E-02    0.270E-02
DAV:  14    -0.697041119871E+03    0.36523E-04   -0.16129E-04 10460   0.548E-02
   2856 T=   229. E= -.70110646E+03 F= -.70537452E+03 E0= -.70537452E+03  EK= 0.42681E+01 SP= 0.00E+00 SK= 0.00E+00
   2857 T=   225. E= -.70117601E+03 F= -.70536290E+03 E0= -.70536290E+03  EK= 0.41869E+01 SP= 0.00E+00 SK= 0.00E+00
   2858 T=   222. E= -.70117817E+03 F= -.70530213E+03 E0= -.70530213E+03  EK= 0.41240E+01 SP= 0.00E+00 SK= 0.00E+00
   2859 T=   219. E= -.70116063E+03 F= -.70523655E+03 E0= -.70523655E+03  EK= 0.40759E+01 SP= 0.00E+00 SK= 0.00E+00
   2860 T=   219. E= -.70112409E+03 F= -.70520813E+03 E0= -.70520813E+03  EK= 0.40840E+01 SP= 0.00E+00 SK= 0.00E+00
   2861 T=   222. E= -.70107618E+03 F= -.70520152E+03 E0= -.70520152E+03  EK= 0.41253E+01 SP= 0.00E+00 SK= 0.00E+00
   2862 T=   222. E= -.70112291E+03 F= -.70525289E+03 E0= -.70525289E+03  EK= 0.41300E+01 SP= 0.00E+00 SK= 0.00E+00
   2863 T=   226. E= -.70116198E+03 F= -.70537753E+03 E0= -.70537753E+03  EK= 0.42155E+01 SP= 0.00E+00 SK= 0.00E+00
   2864 T=   237. E= -.70109213E+03 F= -.70549694E+03 E0= -.70549694E+03  EK= 0.44048E+01 SP= 0.00E+00 SK= 0.00E+00
   2865 T=   247. E= -.70101194E+03 F= -.70560627E+03 E0= -.70560627E+03  EK= 0.45943E+01 SP= 0.00E+00 SK= 0.00E+00
       N       E                     dE             d eps       ncg     rms          rms(c)
DAV:   1    -0.693584177672E+03    0.34570E+01   -0.17702E+03 12190   0.952E+01
DAV:   2    -0.697868104296E+03   -0.42839E+01   -0.42830E+01 14292   0.135E+01
DAV:   3    -0.697913526474E+03   -0.45422E-01   -0.45420E-01 14628   0.143E+00
DAV:   4    -0.697914576710E+03   -0.10502E-02   -0.10502E-02 14404   0.208E-01    0.831E+00
DAV:   5    -0.697300689307E+03    0.61389E+00   -0.10753E+00 15292   0.327E+00    0.462E+00
DAV:   6    -0.697241097284E+03    0.59592E-01   -0.11506E+00 14668   0.284E+00    0.119E+00
DAV:   7    -0.697250800778E+03   -0.97035E-02   -0.21275E-01 13812   0.135E+00    0.480E-01
DAV:   8    -0.697248894793E+03    0.19060E-02   -0.22291E-02 14284   0.415E-01    0.250E-01
DAV:   9    -0.697247561423E+03    0.13334E-02   -0.10093E-02 13708   0.271E-01    0.165E-01
DAV:  10    -0.697246419616E+03    0.11418E-02   -0.30111E-03 16708   0.214E-01    0.423E-02
DAV:  11    -0.697246207712E+03    0.21190E-03   -0.98569E-04 14172   0.912E-02    0.391E-02
DAV:  12    -0.697246014451E+03    0.19326E-03   -0.14846E-04  9740   0.533E-02    0.178E-02
DAV:  13    -0.697245935403E+03    0.79048E-04   -0.18511E-04 10900   0.583E-02
   2866 T=   248. E= -.70097410E+03 F= -.70559269E+03 E0= -.70559269E+03  EK= 0.46186E+01 SP= 0.00E+00 SK= 0.00E+00
   2867 T=   241. E= -.70108123E+03 F= -.70556597E+03 E0= -.70556597E+03  EK= 0.44847E+01 SP= 0.00E+00 SK= 0.00E+00
   2868 T=   237. E= -.70105468E+03 F= -.70547523E+03 E0= -.70547523E+03  EK= 0.44206E+01 SP= 0.00E+00 SK= 0.00E+00
   2869 T=   235. E= -.70103126E+03 F= -.70541092E+03 E0= -.70541092E+03  EK= 0.43797E+01 SP= 0.00E+00 SK= 0.00E+00
   2870 T=   237. E= -.70102535E+03 F= -.70543414E+03 E0= -.70543414E+03  EK= 0.44088E+01 SP= 0.00E+00 SK= 0.00E+00
   2871 T=   244. E= -.70096771E+03 F= -.70551312E+03 E0= -.70551312E+03  EK= 0.45454E+01 SP= 0.00E+00 SK= 0.00E+00
   2872 T=   252. E= -.70092607E+03 F= -.70561648E+03 E0= -.70561648E+03  EK= 0.46904E+01 SP= 0.00E+00 SK= 0.00E+00
   2873 T=   255. E= -.70088498E+03 F= -.70562751E+03 E0= -.70562751E+03  EK= 0.47425E+01 SP= 0.00E+00 SK= 0.00E+00
   2874 T=   260. E= -.70076115E+03 F= -.70559213E+03 E0= -.70559213E+03  EK= 0.48310E+01 SP= 0.00E+00 SK= 0.00E+00
   2875 T=   263. E= -.70059855E+03 F= -.70550088E+03 E0= -.70550088E+03  EK= 0.49023E+01 SP= 0.00E+00 SK= 0.00E+00
       N       E                     dE             d eps       ncg     rms          rms(c)
DAV:   1    -0.692831440565E+03    0.44146E+01   -0.19509E+03 12190   0.100E+02
DAV:   2    -0.697643484919E+03   -0.48120E+01   -0.48107E+01 14388   0.142E+01
DAV:   3    -0.697693804464E+03   -0.50320E-01   -0.50317E-01 14628   0.150E+00
DAV:   4    -0.697694942127E+03   -0.11377E-02   -0.11376E-02 14436   0.215E-01    0.863E+00
DAV:   5    -0.697033500473E+03    0.66144E+00   -0.13700E+00 15276   0.354E+00    0.471E+00
DAV:   6    -0.696988282998E+03    0.45217E-01   -0.10257E+00 14660   0.267E+00    0.139E+00
DAV:   7    -0.697005638571E+03   -0.17356E-01   -0.19153E-01 13940   0.117E+00    0.499E-01
DAV:   8    -0.697002771840E+03    0.28667E-02   -0.15591E-02 14148   0.363E-01    0.241E-01
DAV:   9    -0.697001020765E+03    0.17511E-02   -0.68668E-03 13828   0.243E-01    0.117E-01
DAV:  10    -0.697000207845E+03    0.81292E-03   -0.16982E-03 16020   0.153E-01    0.411E-02
DAV:  11    -0.696999943844E+03    0.26400E-03   -0.59489E-04 13948   0.761E-02    0.345E-02
DAV:  12    -0.696999700633E+03    0.24321E-03   -0.12420E-04  9932   0.731E-02    0.131E-02
DAV:  13    -0.696999648447E+03    0.52186E-04   -0.22496E-04 11140   0.577E-02
   2876 T=   257. E= -.70056263E+03 F= -.70534323E+03 E0= -.70534323E+03  EK= 0.47806E+01 SP= 0.00E+00 SK= 0.00E+00
   2877 T=   249. E= -.70062598E+03 F= -.70525174E+03 E0= -.70525174E+03  EK= 0.46258E+01 SP= 0.00E+00 SK= 0.00E+00
   2878 T=   248. E= -.70054214E+03 F= -.70515480E+03 E0= -.70515480E+03  EK= 0.46127E+01 SP= 0.00E+00 SK= 0.00E+00
   2879 T=   255. E= -.70041845E+03 F= -.70516603E+03 E0= -.70516603E+03  EK= 0.47476E+01 SP= 0.00E+00 SK= 0.00E+00
   2880 T=   265. E= -.70029008E+03 F= -.70521976E+03 E0= -.70521976E+03  EK= 0.49297E+01 SP= 0.00E+00 SK= 0.00E+00
   2881 T=   270. E= -.70021474E+03 F= -.70523683E+03 E0= -.70523683E+03  EK= 0.50221E+01 SP= 0.00E+00 SK= 0.00E+00
   2882 T=   265. E= -.70022727E+03 F= -.70515876E+03 E0= -.70515876E+03  EK= 0.49315E+01 SP= 0.00E+00 SK= 0.00E+00
   2883 T=   255. E= -.70025070E+03 F= -.70500080E+03 E0= -.70500080E+03  EK= 0.47501E+01 SP= 0.00E+00 SK= 0.00E+00
   2884 T=   245. E= -.70024388E+03 F= -.70480717E+03 E0= -.70480717E+03  EK= 0.45633E+01 SP= 0.00E+00 SK= 0.00E+00
   2885 T=   236. E= -.70023686E+03 F= -.70463206E+03 E0= -.70463206E+03  EK= 0.43952E+01 SP= 0.00E+00 SK= 0.00E+00
       N       E                     dE             d eps       ncg     rms          rms(c)
DAV:   1    -0.691681369493E+03    0.53183E+01   -0.20154E+03 12190   0.101E+02
DAV:   2    -0.696786141257E+03   -0.51048E+01   -0.51033E+01 14492   0.147E+01
DAV:   3    -0.696839227265E+03   -0.53086E-01   -0.53082E-01 14652   0.154E+00
DAV:   4    -0.696840449661E+03   -0.12224E-02   -0.12223E-02 14516   0.223E-01    0.869E+00
DAV:   5    -0.696209775669E+03    0.63067E+00   -0.12919E+00 15188   0.343E+00    0.481E+00
DAV:   6    -0.696174962798E+03    0.34813E-01   -0.11480E+00 14652   0.275E+00    0.132E+00
DAV:   7    -0.696189229737E+03   -0.14267E-01   -0.21325E-01 14060   0.138E+00    0.521E-01
DAV:   8    -0.696187114336E+03    0.21154E-02   -0.24892E-02 14332   0.450E-01    0.268E-01
DAV:   9    -0.696185462785E+03    0.16516E-02   -0.10654E-02 13828   0.280E-01    0.160E-01
DAV:  10    -0.696184186243E+03    0.12765E-02   -0.26113E-03 16996   0.217E-01    0.461E-02
DAV:  11    -0.696183906604E+03    0.27964E-03   -0.11739E-03 14468   0.104E-01    0.459E-02
DAV:  12    -0.696183612034E+03    0.29457E-03   -0.17435E-04 10444   0.730E-02    0.180E-02
DAV:  13    -0.696183495521E+03    0.11651E-03   -0.24911E-04 11404   0.781E-02    0.267E-02
DAV:  14    -0.696183478018E+03    0.17503E-04   -0.18414E-04 10540   0.475E-02
   2886 T=   237. E= -.70012014E+03 F= -.70452801E+03 E0= -.70452801E+03  EK= 0.44079E+01 SP= 0.00E+00 SK= 0.00E+00
   2887 T=   239. E= -.70010031E+03 F= -.70455282E+03 E0= -.70455282E+03  EK= 0.44525E+01 SP= 0.00E+00 SK= 0.00E+00
   2888 T=   242. E= -.70010606E+03 F= -.70460251E+03 E0= -.70460251E+03  EK= 0.44964E+01 SP= 0.00E+00 SK= 0.00E+00
   2889 T=   244. E= -.70011461E+03 F= -.70465709E+03 E0= -.70465709E+03  EK= 0.45425E+01 SP= 0.00E+00 SK= 0.00E+00
   2890 T=   245. E= -.70012025E+03 F= -.70468154E+03 E0= -.70468154E+03  EK= 0.45613E+01 SP= 0.00E+00 SK= 0.00E+00
   2891 T=   244. E= -.70009550E+03 F= -.70464443E+03 E0= -.70464443E+03  EK= 0.45489E+01 SP= 0.00E+00 SK= 0.00E+00
   2892 T=   239. E= -.70012630E+03 F= -.70457239E+03 E0= -.70457239E+03  EK= 0.44461E+01 SP= 0.00E+00 SK= 0.00E+00
   2893 T=   239. E= -.70006374E+03 F= -.70450658E+03 E0= -.70450658E+03  EK= 0.44428E+01 SP= 0.00E+00 SK= 0.00E+00
   2894 T=   243. E= -.69998657E+03 F= -.70450605E+03 E0= -.70450605E+03  EK= 0.45195E+01 SP= 0.00E+00 SK= 0.00E+00
   2895 T=   247. E= -.70000111E+03 F= -.70460389E+03 E0= -.70460389E+03  EK= 0.46028E+01 SP= 0.00E+00 SK= 0.00E+00
       N       E                     dE             d eps       ncg     rms          rms(c)
DAV:   1    -0.692116229174E+03    0.40673E+01   -0.19451E+03 12190   0.993E+01
DAV:   2    -0.697052574238E+03   -0.49363E+01   -0.49351E+01 14444   0.145E+01
DAV:   3    -0.697103024413E+03   -0.50450E-01   -0.50447E-01 14660   0.149E+00
DAV:   4    -0.697104171929E+03   -0.11475E-02   -0.11475E-02 14436   0.217E-01    0.853E+00
DAV:   5    -0.696444789279E+03    0.65938E+00   -0.13718E+00 15404   0.372E+00    0.466E+00
DAV:   6    -0.696394858121E+03    0.49931E-01   -0.10605E+00 14644   0.275E+00    0.141E+00
DAV:   7    -0.696407275655E+03   -0.12418E-01   -0.21385E-01 14404   0.138E+00    0.517E-01
DAV:   8    -0.696404006590E+03    0.32691E-02   -0.24550E-02 14140   0.465E-01    0.256E-01
DAV:   9    -0.696401726437E+03    0.22802E-02   -0.94750E-03 13996   0.266E-01    0.143E-01
DAV:  10    -0.696400461421E+03    0.12650E-02   -0.20288E-03 16964   0.196E-01    0.500E-02
DAV:  11    -0.696400055222E+03    0.40620E-03   -0.11841E-03 14116   0.115E-01    0.479E-02
DAV:  12    -0.696399729482E+03    0.32574E-03   -0.22031E-04 10964   0.866E-02    0.185E-02
DAV:  13    -0.696399613251E+03    0.11623E-03   -0.25323E-04 11196   0.795E-02    0.252E-02
DAV:  14    -0.696399602859E+03    0.10392E-04   -0.20332E-04 10748   0.439E-02
   2896 T=   255. E= -.69999313E+03 F= -.70474342E+03 E0= -.70474342E+03  EK= 0.47503E+01 SP= 0.00E+00 SK= 0.00E+00
   2897 T=   263. E= -.70001247E+03 F= -.70490167E+03 E0= -.70490167E+03  EK= 0.48892E+01 SP= 0.00E+00 SK= 0.00E+00
   2898 T=   265. E= -.70001582E+03 F= -.70495475E+03 E0= -.70495475E+03  EK= 0.49389E+01 SP= 0.00E+00 SK= 0.00E+00
   2899 T=   261. E= -.70000821E+03 F= -.70487557E+03 E0= -.70487557E+03  EK= 0.48674E+01 SP= 0.00E+00 SK= 0.00E+00
   2900 T=   255. E= -.69998080E+03 F= -.70472429E+03 E0= -.70472429E+03  EK= 0.47435E+01 SP= 0.00E+00 SK= 0.00E+00
   2901 T=   245. E= -.69998432E+03 F= -.70455350E+03 E0= -.70455350E+03  EK= 0.45692E+01 SP= 0.00E+00 SK= 0.00E+00
   2902 T=   243. E= -.69995713E+03 F= -.70448622E+03 E0= -.70448622E+03  EK= 0.45291E+01 SP= 0.00E+00 SK= 0.00E+00
   2903 T=   249. E= -.69990402E+03 F= -.70453669E+03 E0= -.70453669E+03  EK= 0.46327E+01 SP= 0.00E+00 SK= 0.00E+00
   2904 T=   254. E= -.69994998E+03 F= -.70466940E+03 E0= -.70466940E+03  EK= 0.47194E+01 SP= 0.00E+00 SK= 0.00E+00
   2905 T=   262. E= -.69996099E+03 F= -.70483751E+03 E0= -.70483751E+03  EK= 0.48765E+01 SP= 0.00E+00 SK= 0.00E+00
       N       E                     dE             d eps       ncg     rms          rms(c)
DAV:   1    -0.692194509536E+03    0.42051E+01   -0.20169E+03 12190   0.101E+02
DAV:   2    -0.697244202747E+03   -0.50497E+01   -0.50483E+01 14484   0.146E+01
DAV:   3    -0.697296903644E+03   -0.52701E-01   -0.52698E-01 14636   0.153E+00
DAV:   4    -0.697298114403E+03   -0.12108E-02   -0.12107E-02 14492   0.222E-01    0.862E+00
DAV:   5    -0.696633733226E+03    0.66438E+00   -0.12493E+00 14828   0.330E+00    0.477E+00
DAV:   6    -0.696575451689E+03    0.58282E-01   -0.11781E+00 14684   0.283E+00    0.125E+00
DAV:   7    -0.696589695832E+03   -0.14244E-01   -0.21482E-01 14012   0.129E+00    0.520E-01
DAV:   8    -0.696586945942E+03    0.27499E-02   -0.20770E-02 14164   0.393E-01    0.271E-01
DAV:   9    -0.696584628995E+03    0.23169E-02   -0.78392E-03 13884   0.271E-01    0.136E-01
DAV:  10    -0.696583233127E+03    0.13959E-02   -0.19092E-03 15780   0.192E-01    0.472E-02
DAV:  11    -0.696582861041E+03    0.37209E-03   -0.11368E-03 14572   0.110E-01    0.441E-02
DAV:  12    -0.696582544478E+03    0.31656E-03   -0.20121E-04 10332   0.776E-02    0.182E-02
DAV:  13    -0.696582425549E+03    0.11893E-03   -0.21913E-04 10948   0.794E-02    0.279E-02
DAV:  14    -0.696582409271E+03    0.16277E-04   -0.22608E-04 10956   0.505E-02
   2906 T=   268. E= -.69994844E+03 F= -.70493748E+03 E0= -.70493748E+03  EK= 0.49890E+01 SP= 0.00E+00 SK= 0.00E+00
   2907 T=   270. E= -.69999162E+03 F= -.70502654E+03 E0= -.70502654E+03  EK= 0.50349E+01 SP= 0.00E+00 SK= 0.00E+00
   2908 T=   272. E= -.69991724E+03 F= -.70497869E+03 E0= -.70497869E+03  EK= 0.50614E+01 SP= 0.00E+00 SK= 0.00E+00
   2909 T=   269. E= -.69985833E+03 F= -.70486065E+03 E0= -.70486065E+03  EK= 0.50023E+01 SP= 0.00E+00 SK= 0.00E+00
   2910 T=   265. E= -.69980190E+03 F= -.70474222E+03 E0= -.70474222E+03  EK= 0.49403E+01 SP= 0.00E+00 SK= 0.00E+00
   2911 T=   264. E= -.69978628E+03 F= -.70469262E+03 E0= -.70469262E+03  EK= 0.49063E+01 SP= 0.00E+00 SK= 0.00E+00
   2912 T=   264. E= -.69980843E+03 F= -.70472848E+03 E0= -.70472848E+03  EK= 0.49201E+01 SP= 0.00E+00 SK= 0.00E+00
   2913 T=   270. E= -.69976123E+03 F= -.70479590E+03 E0= -.70479590E+03  EK= 0.50347E+01 SP= 0.00E+00 SK= 0.00E+00
   2914 T=   273. E= -.69974652E+03 F= -.70483685E+03 E0= -.70483685E+03  EK= 0.50903E+01 SP= 0.00E+00 SK= 0.00E+00
   2915 T=   268. E= -.69979146E+03 F= -.70477639E+03 E0= -.70477639E+03  EK= 0.49849E+01 SP= 0.00E+00 SK= 0.00E+00
       N       E                     dE             d eps       ncg     rms          rms(c)
DAV:   1    -0.692156584352E+03    0.44258E+01   -0.19865E+03 12190   0.101E+02
DAV:   2    -0.696922091817E+03   -0.47655E+01   -0.47642E+01 14388   0.144E+01
DAV:   3    -0.696972320968E+03   -0.50229E-01   -0.50226E-01 14628   0.151E+00
DAV:   4    -0.696973475111E+03   -0.11541E-02   -0.11541E-02 14444   0.218E-01    0.885E+00
DAV:   5    -0.696309289968E+03    0.66419E+00   -0.12851E+00 15292   0.352E+00    0.489E+00
DAV:   6    -0.696266371297E+03    0.42919E-01   -0.11425E+00 14620   0.282E+00    0.136E+00
DAV:   7    -0.696275327254E+03   -0.89560E-02   -0.20341E-01 14060   0.134E+00    0.489E-01
DAV:   8    -0.696271623457E+03    0.37038E-02   -0.22562E-02 13900   0.425E-01    0.250E-01
DAV:   9    -0.696268674317E+03    0.29491E-02   -0.86318E-03 13940   0.286E-01    0.138E-01
DAV:  10    -0.696267209931E+03    0.14644E-02   -0.20773E-03 16604   0.195E-01    0.513E-02
DAV:  11    -0.696266719275E+03    0.49066E-03   -0.11903E-03 14108   0.121E-01    0.440E-02
DAV:  12    -0.696266311402E+03    0.40787E-03   -0.22488E-04 11140   0.109E-01    0.165E-02
DAV:  13    -0.696266243796E+03    0.67606E-04   -0.41314E-04 13388   0.810E-02
   2916 T=   261. E= -.69976084E+03 F= -.70461817E+03 E0= -.70461817E+03  EK= 0.48573E+01 SP= 0.00E+00 SK= 0.00E+00
   2917 T=   257. E= -.69967427E+03 F= -.70445471E+03 E0= -.70445471E+03  EK= 0.47804E+01 SP= 0.00E+00 SK= 0.00E+00
   2918 T=   252. E= -.69966601E+03 F= -.70435733E+03 E0= -.70435733E+03  EK= 0.46913E+01 SP= 0.00E+00 SK= 0.00E+00
   2919 T=   250. E= -.69965839E+03 F= -.70431373E+03 E0= -.70431373E+03  EK= 0.46553E+01 SP= 0.00E+00 SK= 0.00E+00
   2920 T=   249. E= -.69967223E+03 F= -.70429829E+03 E0= -.70429829E+03  EK= 0.46261E+01 SP= 0.00E+00 SK= 0.00E+00
   2921 T=   253. E= -.69965622E+03 F= -.70435831E+03 E0= -.70435831E+03  EK= 0.47021E+01 SP= 0.00E+00 SK= 0.00E+00
   2922 T=   262. E= -.69959269E+03 F= -.70446583E+03 E0= -.70446583E+03  EK= 0.48731E+01 SP= 0.00E+00 SK= 0.00E+00
   2923 T=   272. E= -.69948613E+03 F= -.70455744E+03 E0= -.70455744E+03  EK= 0.50713E+01 SP= 0.00E+00 SK= 0.00E+00
   2924 T=   277. E= -.69944649E+03 F= -.70460218E+03 E0= -.70460218E+03  EK= 0.51557E+01 SP= 0.00E+00 SK= 0.00E+00
   2925 T=   274. E= -.69944704E+03 F= -.70454594E+03 E0= -.70454594E+03  EK= 0.50989E+01 SP= 0.00E+00 SK= 0.00E+00
       N       E                     dE             d eps       ncg     rms          rms(c)
DAV:   1    -0.692366849185E+03    0.38995E+01   -0.18516E+03 12190   0.979E+01
DAV:   2    -0.696888424291E+03   -0.45216E+01   -0.45204E+01 14436   0.139E+01
DAV:   3    -0.696936163847E+03   -0.47740E-01   -0.47736E-01 14628   0.146E+00
DAV:   4    -0.696937275690E+03   -0.11118E-02   -0.11118E-02 14420   0.213E-01    0.882E+00
DAV:   5    -0.696199982467E+03    0.73729E+00   -0.14244E+00 15620   0.386E+00    0.482E+00
DAV:   6    -0.696135184937E+03    0.64798E-01   -0.11936E+00 14676   0.300E+00    0.143E+00
DAV:   7    -0.696145519246E+03   -0.10334E-01   -0.22456E-01 14196   0.135E+00    0.536E-01
DAV:   8    -0.696141718149E+03    0.38011E-02   -0.21656E-02 14372   0.414E-01    0.272E-01
DAV:   9    -0.696138547421E+03    0.31707E-02   -0.93099E-03 13996   0.320E-01    0.148E-01
DAV:  10    -0.696136880114E+03    0.16673E-02   -0.26196E-03 16332   0.218E-01    0.541E-02
DAV:  11    -0.696136288228E+03    0.59189E-03   -0.14056E-03 14132   0.138E-01    0.544E-02
DAV:  12    -0.696135870875E+03    0.41735E-03   -0.49879E-04 13084   0.116E-01    0.254E-02
DAV:  13    -0.696135733221E+03    0.13765E-03   -0.23690E-04 10732   0.819E-02    0.258E-02
DAV:  14    -0.696135720004E+03    0.13217E-04   -0.23251E-04 11244   0.472E-02
   2926 T=   271. E= -.69943081E+03 F= -.70447558E+03 E0= -.70447558E+03  EK= 0.50448E+01 SP= 0.00E+00 SK= 0.00E+00
   2927 T=   271. E= -.69940207E+03 F= -.70444643E+03 E0= -.70444643E+03  EK= 0.50444E+01 SP= 0.00E+00 SK= 0.00E+00
   2928 T=   273. E= -.69945374E+03 F= -.70453623E+03 E0= -.70453623E+03  EK= 0.50825E+01 SP= 0.00E+00 SK= 0.00E+00
   2929 T=   275. E= -.69957105E+03 F= -.70469844E+03 E0= -.70469844E+03  EK= 0.51274E+01 SP= 0.00E+00 SK= 0.00E+00
   2930 T=   284. E= -.69958832E+03 F= -.70488313E+03 E0= -.70488313E+03  EK= 0.52948E+01 SP= 0.00E+00 SK= 0.00E+00
   2931 T=   295. E= -.69952218E+03 F= -.70501538E+03 E0= -.70501538E+03  EK= 0.54932E+01 SP= 0.00E+00 SK= 0.00E+00
   2932 T=   298. E= -.69945088E+03 F= -.70500667E+03 E0= -.70500667E+03  EK= 0.55558E+01 SP= 0.00E+00 SK= 0.00E+00
   2933 T=   297. E= -.69936247E+03 F= -.70488485E+03 E0= -.70488485E+03  EK= 0.55224E+01 SP= 0.00E+00 SK= 0.00E+00
   2934 T=   288. E= -.69937481E+03 F= -.70474131E+03 E0= -.70474131E+03  EK= 0.53665E+01 SP= 0.00E+00 SK= 0.00E+00
   2935 T=   284. E= -.69937241E+03 F= -.70466001E+03 E0= -.70466001E+03  EK= 0.52876E+01 SP= 0.00E+00 SK= 0.00E+00
       N       E                     dE             d eps       ncg     rms          rms(c)
DAV:   1    -0.690885284111E+03    0.52504E+01   -0.23524E+03 12190   0.110E+02
DAV:   2    -0.697278160173E+03   -0.63929E+01   -0.63911E+01 14324   0.164E+01
DAV:   3    -0.697343578825E+03   -0.65419E-01   -0.65414E-01 14628   0.173E+00
DAV:   4    -0.697345045953E+03   -0.14671E-02   -0.14671E-02 14396   0.246E-01    0.949E+00
DAV:   5    -0.696394509309E+03    0.95054E+00   -0.17317E+00 15092   0.400E+00    0.517E+00
DAV:   6    -0.696275785936E+03    0.11872E+00   -0.15027E+00 14660   0.333E+00    0.151E+00
DAV:   7    -0.696286293389E+03   -0.10507E-01   -0.29114E-01 14020   0.151E+00    0.604E-01
DAV:   8    -0.696280745650E+03    0.55477E-02   -0.28850E-02 14116   0.462E-01    0.292E-01
DAV:   9    -0.696276731263E+03    0.40144E-02   -0.85614E-03 13940   0.300E-01    0.139E-01
DAV:  10    -0.696274639965E+03    0.20913E-02   -0.22389E-03 15580   0.205E-01    0.597E-02
DAV:  11    -0.696273939258E+03    0.70071E-03   -0.15228E-03 14356   0.137E-01    0.533E-02
DAV:  12    -0.696273480110E+03    0.45915E-03   -0.44132E-04 12484   0.111E-01    0.255E-02
DAV:  13    -0.696273322419E+03    0.15769E-03   -0.25791E-04 11500   0.886E-02    0.307E-02
DAV:  14    -0.696273307623E+03    0.14796E-04   -0.33313E-04 13756   0.530E-02
   2936 T=   283. E= -.69936274E+03 F= -.70462241E+03 E0= -.70462241E+03  EK= 0.52597E+01 SP= 0.00E+00 SK= 0.00E+00
   2937 T=   278. E= -.69941814E+03 F= -.70458723E+03 E0= -.70458723E+03  EK= 0.51691E+01 SP= 0.00E+00 SK= 0.00E+00
   2938 T=   276. E= -.69945420E+03 F= -.70459675E+03 E0= -.70459675E+03  EK= 0.51425E+01 SP= 0.00E+00 SK= 0.00E+00
   2939 T=   275. E= -.69947726E+03 F= -.70459032E+03 E0= -.70459032E+03  EK= 0.51131E+01 SP= 0.00E+00 SK= 0.00E+00
   2940 T=   266. E= -.69955773E+03 F= -.70451508E+03 E0= -.70451508E+03  EK= 0.49574E+01 SP= 0.00E+00 SK= 0.00E+00
   2941 T=   258. E= -.69957390E+03 F= -.70437120E+03 E0= -.70437120E+03  EK= 0.47973E+01 SP= 0.00E+00 SK= 0.00E+00
   2942 T=   250. E= -.69955724E+03 F= -.70420955E+03 E0= -.70420955E+03  EK= 0.46523E+01 SP= 0.00E+00 SK= 0.00E+00
   2943 T=   242. E= -.69957037E+03 F= -.70407379E+03 E0= -.70407379E+03  EK= 0.45034E+01 SP= 0.00E+00 SK= 0.00E+00
   2944 T=   242. E= -.69952414E+03 F= -.70403309E+03 E0= -.70403309E+03  EK= 0.45089E+01 SP= 0.00E+00 SK= 0.00E+00
   2945 T=   247. E= -.69950046E+03 F= -.70409032E+03 E0= -.70409032E+03  EK= 0.45899E+01 SP= 0.00E+00 SK= 0.00E+00
       N       E                     dE             d eps       ncg     rms          rms(c)
DAV:   1    -0.691750929219E+03    0.45224E+01   -0.18443E+03 12190   0.973E+01
DAV:   2    -0.696473046844E+03   -0.47221E+01   -0.47209E+01 14492   0.140E+01
DAV:   3    -0.696522752749E+03   -0.49706E-01   -0.49703E-01 14804   0.148E+00
DAV:   4    -0.696523824313E+03   -0.10716E-02   -0.10715E-02 14460   0.208E-01    0.849E+00
DAV:   5    -0.695925292681E+03    0.59853E+00   -0.11000E+00 14412   0.316E+00    0.478E+00
DAV:   6    -0.695857666787E+03    0.67626E-01   -0.11139E+00 14724   0.286E+00    0.123E+00
DAV:   7    -0.695862843091E+03   -0.51763E-02   -0.23760E-01 14196   0.144E+00    0.554E-01
DAV:   8    -0.695858549573E+03    0.42935E-02   -0.29350E-02 14172   0.446E-01    0.295E-01
DAV:   9    -0.695854809127E+03    0.37404E-02   -0.92070E-03 13924   0.273E-01    0.150E-01
DAV:  10    -0.695852507520E+03    0.23016E-02   -0.20692E-03 15828   0.237E-01    0.636E-02
DAV:  11    -0.695851962401E+03    0.54512E-03   -0.26185E-03 14692   0.172E-01    0.718E-02
DAV:  12    -0.695851561228E+03    0.40117E-03   -0.88789E-04 14052   0.101E-01    0.312E-02
DAV:  13    -0.695851382248E+03    0.17898E-03   -0.16718E-04  9796   0.823E-02    0.357E-02
DAV:  14    -0.695851340455E+03    0.41794E-04   -0.26184E-04 12028   0.623E-02
   2946 T=   252. E= -.69948988E+03 F= -.70418974E+03 E0= -.70418974E+03  EK= 0.46999E+01 SP= 0.00E+00 SK= 0.00E+00
   2947 T=   263. E= -.69938114E+03 F= -.70426802E+03 E0= -.70426802E+03  EK= 0.48869E+01 SP= 0.00E+00 SK= 0.00E+00
   2948 T=   264. E= -.69933555E+03 F= -.70424575E+03 E0= -.70424575E+03  EK= 0.49102E+01 SP= 0.00E+00 SK= 0.00E+00
   2949 T=   254. E= -.69940553E+03 F= -.70413779E+03 E0= -.70413779E+03  EK= 0.47323E+01 SP= 0.00E+00 SK= 0.00E+00
   2950 T=   249. E= -.69940627E+03 F= -.70404104E+03 E0= -.70404104E+03  EK= 0.46348E+01 SP= 0.00E+00 SK= 0.00E+00
   2951 T=   251. E= -.69937583E+03 F= -.70404535E+03 E0= -.70404535E+03  EK= 0.46695E+01 SP= 0.00E+00 SK= 0.00E+00
   2952 T=   257. E= -.69934934E+03 F= -.70413394E+03 E0= -.70413394E+03  EK= 0.47846E+01 SP= 0.00E+00 SK= 0.00E+00
   2953 T=   264. E= -.69936803E+03 F= -.70428480E+03 E0= -.70428480E+03  EK= 0.49168E+01 SP= 0.00E+00 SK= 0.00E+00
   2954 T=   268. E= -.69939372E+03 F= -.70437661E+03 E0= -.70437661E+03  EK= 0.49829E+01 SP= 0.00E+00 SK= 0.00E+00
   2955 T=   271. E= -.69937477E+03 F= -.70441781E+03 E0= -.70441781E+03  EK= 0.50430E+01 SP= 0.00E+00 SK= 0.00E+00
       N       E                     dE             d eps       ncg     rms          rms(c)
DAV:   1    -0.691529927676E+03    0.43215E+01   -0.20634E+03 12190   0.103E+02
DAV:   2    -0.696786616772E+03   -0.52567E+01   -0.52554E+01 14396   0.149E+01
DAV:   3    -0.696839303005E+03   -0.52686E-01   -0.52683E-01 14628   0.154E+00
DAV:   4    -0.696840485839E+03   -0.11828E-02   -0.11828E-02 14404   0.220E-01    0.865E+00
DAV:   5    -0.696105116843E+03    0.73537E+00   -0.14020E+00 15276   0.371E+00    0.473E+00
DAV:   6    -0.696031751536E+03    0.73365E-01   -0.11933E+00 14612   0.292E+00    0.138E+00
DAV:   7    -0.696039920411E+03   -0.81689E-02   -0.23647E-01 14300   0.142E+00    0.533E-01
DAV:   8    -0.696034891662E+03    0.50287E-02   -0.25163E-02 14324   0.484E-01    0.262E-01
DAV:   9    -0.696031035651E+03    0.38560E-02   -0.10790E-02 13924   0.302E-01    0.155E-01
DAV:  10    -0.696029190375E+03    0.18453E-02   -0.30478E-03 16684   0.226E-01    0.590E-02
DAV:  11    -0.696028450850E+03    0.73953E-03   -0.14490E-03 13972   0.132E-01    0.568E-02
DAV:  12    -0.696027889387E+03    0.56146E-03   -0.38307E-04 12292   0.107E-01    0.236E-02
DAV:  13    -0.696027711698E+03    0.17769E-03   -0.39216E-04 12852   0.904E-02    0.276E-02
DAV:  14    -0.696027708887E+03    0.28105E-05   -0.27247E-04 12748   0.456E-02
   2956 T=   272. E= -.69933303E+03 F= -.70439003E+03 E0= -.70439003E+03  EK= 0.50570E+01 SP= 0.00E+00 SK= 0.00E+00
   2957 T=   267. E= -.69943041E+03 F= -.70440209E+03 E0= -.70440209E+03  EK= 0.49717E+01 SP= 0.00E+00 SK= 0.00E+00
   2958 T=   266. E= -.69945515E+03 F= -.70439776E+03 E0= -.70439776E+03  EK= 0.49426E+01 SP= 0.00E+00 SK= 0.00E+00
   2959 T=   267. E= -.69941656E+03 F= -.70438379E+03 E0= -.70438379E+03  EK= 0.49672E+01 SP= 0.00E+00 SK= 0.00E+00
   2960 T=   270. E= -.69940232E+03 F= -.70443537E+03 E0= -.70443537E+03  EK= 0.50330E+01 SP= 0.00E+00 SK= 0.00E+00
   2961 T=   274. E= -.69942568E+03 F= -.70452312E+03 E0= -.70452312E+03  EK= 0.50974E+01 SP= 0.00E+00 SK= 0.00E+00
   2962 T=   280. E= -.69944372E+03 F= -.70464841E+03 E0= -.70464841E+03  EK= 0.52047E+01 SP= 0.00E+00 SK= 0.00E+00
   2963 T=   286. E= -.69945044E+03 F= -.70477382E+03 E0= -.70477382E+03  EK= 0.53234E+01 SP= 0.00E+00 SK= 0.00E+00
   2964 T=   292. E= -.69939434E+03 F= -.70482546E+03 E0= -.70482546E+03  EK= 0.54311E+01 SP= 0.00E+00 SK= 0.00E+00
   2965 T=   291. E= -.69938715E+03 F= -.70480105E+03 E0= -.70480105E+03  EK= 0.54139E+01 SP= 0.00E+00 SK= 0.00E+00
       N       E                     dE             d eps       ncg     rms          rms(c)
DAV:   1    -0.690480054155E+03    0.55477E+01   -0.24241E+03 12190   0.110E+02
DAV:   2    -0.697367253735E+03   -0.68872E+01   -0.68851E+01 14324   0.168E+01
DAV:   3    -0.697436813347E+03   -0.69560E-01   -0.69555E-01 14628   0.178E+00
DAV:   4    -0.697438347838E+03   -0.15345E-02   -0.15344E-02 14380   0.252E-01    0.934E+00
DAV:   5    -0.696536300314E+03    0.90205E+00   -0.16743E+00 15204   0.386E+00    0.508E+00
DAV:   6    -0.696444047372E+03    0.92253E-01   -0.14397E+00 14708   0.313E+00    0.144E+00
DAV:   7    -0.696457772261E+03   -0.13725E-01   -0.27381E-01 14012   0.150E+00    0.565E-01
DAV:   8    -0.696453265220E+03    0.45070E-02   -0.25913E-02 14292   0.489E-01    0.293E-01
DAV:   9    -0.696449476839E+03    0.37884E-02   -0.12435E-02 13972   0.353E-01    0.167E-01
DAV:  10    -0.696447578989E+03    0.18978E-02   -0.32296E-03 16644   0.240E-01    0.637E-02
DAV:  11    -0.696446902687E+03    0.67630E-03   -0.18228E-03 14076   0.152E-01    0.590E-02
DAV:  12    -0.696446296777E+03    0.60591E-03   -0.39800E-04 12380   0.138E-01    0.227E-02
DAV:  13    -0.696446097046E+03    0.19973E-03   -0.50248E-04 13204   0.123E-01    0.346E-02
DAV:  14    -0.696446090257E+03    0.67893E-05   -0.50019E-04 14796   0.632E-02
   2966 T=   287. E= -.69944372E+03 F= -.70478794E+03 E0= -.70478794E+03  EK= 0.53442E+01 SP= 0.00E+00 SK= 0.00E+00
   2967 T=   290. E= -.69943335E+03 F= -.70482755E+03 E0= -.70482755E+03  EK= 0.53942E+01 SP= 0.00E+00 SK= 0.00E+00
   2968 T=   294. E= -.69939543E+03 F= -.70485920E+03 E0= -.70485920E+03  EK= 0.54638E+01 SP= 0.00E+00 SK= 0.00E+00
   2969 T=   293. E= -.69941613E+03 F= -.70487411E+03 E0= -.70487411E+03  EK= 0.54580E+01 SP= 0.00E+00 SK= 0.00E+00
   2970 T=   293. E= -.69942776E+03 F= -.70487935E+03 E0= -.70487935E+03  EK= 0.54516E+01 SP= 0.00E+00 SK= 0.00E+00
   2971 T=   295. E= -.69937204E+03 F= -.70486338E+03 E0= -.70486338E+03  EK= 0.54913E+01 SP= 0.00E+00 SK= 0.00E+00
   2972 T=   290. E= -.69939670E+03 F= -.70478605E+03 E0= -.70478605E+03  EK= 0.53894E+01 SP= 0.00E+00 SK= 0.00E+00
   2973 T=   282. E= -.69946794E+03 F= -.70472206E+03 E0= -.70472206E+03  EK= 0.52541E+01 SP= 0.00E+00 SK= 0.00E+00
   2974 T=   277. E= -.69951943E+03 F= -.70468155E+03 E0= -.70468155E+03  EK= 0.51621E+01 SP= 0.00E+00 SK= 0.00E+00
   2975 T=   273. E= -.69958037E+03 F= -.70466602E+03 E0= -.70466602E+03  EK= 0.50857E+01 SP= 0.00E+00 SK= 0.00E+00
   2976 T=   268. E= -.69965397E+03 F= -.70464162E+03 E0= -.70464162E+03  EK= 0.49876E+01 SP= 0.00E+00 SK= 0.00E+00
   2977 T=   265. E= -.69968721E+03 F= -.70462407E+03 E0= -.70462407E+03  EK= 0.49369E+01 SP= 0.00E+00 SK= 0.00E+00
   2978 T=   271. E= -.69958621E+03 F= -.70463337E+03 E0= -.70463337E+03  EK= 0.50472E+01 SP= 0.00E+00 SK= 0.00E+00
   2979 T=   277. E= -.69948854E+03 F= -.70463542E+03 E0= -.70463542E+03  EK= 0.51469E+01 SP= 0.00E+00 SK= 0.00E+00
   2980 T=   277. E= -.69947192E+03 F= -.70462365E+03 E0= -.70462365E+03  EK= 0.51517E+01 SP= 0.00E+00 SK= 0.00E+00
   2981 T=   276. E= -.69944911E+03 F= -.70458787E+03 E0= -.70458787E+03  EK= 0.51388E+01 SP= 0.00E+00 SK= 0.00E+00
   2982 T=   278. E= -.69941185E+03 F= -.70458389E+03 E0= -.70458389E+03  EK= 0.51720E+01 SP= 0.00E+00 SK= 0.00E+00
   2983 T=   282. E= -.69937365E+03 F= -.70462534E+03 E0= -.70462534E+03  EK= 0.52517E+01 SP= 0.00E+00 SK= 0.00E+00
   2984 T=   289. E= -.69935247E+03 F= -.70472543E+03 E0= -.70472543E+03  EK= 0.53730E+01 SP= 0.00E+00 SK= 0.00E+00
   2985 T=   294. E= -.69934937E+03 F= -.70481962E+03 E0= -.70481962E+03  EK= 0.54702E+01 SP= 0.00E+00 SK= 0.00E+00
   2986 T=   295. E= -.69935306E+03 F= -.70484185E+03 E0= -.70484185E+03  EK= 0.54888E+01 SP= 0.00E+00 SK= 0.00E+00
   2987 T=   294. E= -.69932405E+03 F= -.70480429E+03 E0= -.70480429E+03  EK= 0.54802E+01 SP= 0.00E+00 SK= 0.00E+00
   2988 T=   290. E= -.69927676E+03 F= -.70466865E+03 E0= -.70466865E+03  EK= 0.53919E+01 SP= 0.00E+00 SK= 0.00E+00
   2989 T=   281. E= -.69926782E+03 F= -.70450303E+03 E0= -.70450303E+03  EK= 0.52352E+01 SP= 0.00E+00 SK= 0.00E+00
   2990 T=   273. E= -.69928185E+03 F= -.70435879E+03 E0= -.70435879E+03  EK= 0.50769E+01 SP= 0.00E+00 SK= 0.00E+00
   2991 T=   266. E= -.69930626E+03 F= -.70426379E+03 E0= -.70426379E+03  EK= 0.49575E+01 SP= 0.00E+00 SK= 0.00E+00
   2992 T=   268. E= -.69928539E+03 F= -.70428029E+03 E0= -.70428029E+03  EK= 0.49949E+01 SP= 0.00E+00 SK= 0.00E+00
   2993 T=   273. E= -.69928259E+03 F= -.70436209E+03 E0= -.70436209E+03  EK= 0.50795E+01 SP= 0.00E+00 SK= 0.00E+00
   2994 T=   274. E= -.69932809E+03 F= -.70442880E+03 E0= -.70442880E+03  EK= 0.51007E+01 SP= 0.00E+00 SK= 0.00E+00
   2995 T=   276. E= -.69933618E+03 F= -.70448263E+03 E0= -.70448263E+03  EK= 0.51464E+01 SP= 0.00E+00 SK= 0.00E+00
   2996 T=   271. E= -.69940375E+03 F= -.70445179E+03 E0= -.70445179E+03  EK= 0.50480E+01 SP= 0.00E+00 SK= 0.00E+00
       N       E                     dE             d eps       ncg     rms          rms(c)
DAV:   1    -0.646952084939E+03    0.49494E+02   -0.10177E+04 12190   0.222E+02
DAV:   2    -0.697678579394E+03   -0.50726E+02   -0.50681E+02 14484   0.435E+01
DAV:   3    -0.698270075737E+03   -0.59150E+00   -0.59139E+00 14612   0.524E+00
DAV:   4    -0.698281200072E+03   -0.11124E-01   -0.11123E-01 14364   0.680E-01    0.178E+01
DAV:   5    -0.696102402099E+03    0.21788E+01   -0.41781E+00 13916   0.581E+00    0.102E+01
DAV:   6    -0.695960162942E+03    0.14224E+00   -0.51820E+00 14628   0.591E+00    0.227E+00
DAV:   7    -0.696022528142E+03   -0.62365E-01   -0.93078E-01 13956   0.254E+00    0.108E+00
DAV:   8    -0.696016421839E+03    0.61063E-02   -0.85728E-02 14340   0.741E-01    0.539E-01
DAV:   9    -0.696011295191E+03    0.51266E-02   -0.25331E-02 13900   0.476E-01    0.261E-01
DAV:  10    -0.696008006890E+03    0.32883E-02   -0.60589E-03 15220   0.299E-01    0.910E-02
DAV:  11    -0.696007225952E+03    0.78094E-03   -0.33296E-03 14580   0.165E-01    0.738E-02
DAV:  12    -0.696006508417E+03    0.71754E-03   -0.62806E-04 13468   0.984E-02    0.316E-02
DAV:  13    -0.696006210733E+03    0.29768E-03   -0.43949E-04 12884   0.941E-02    0.438E-02
DAV:  14    -0.696006144440E+03    0.66293E-04   -0.38289E-04 13364   0.681E-02
   2997 T=   267. E= -.69931986E+03 F= -.70429602E+03 E0= -.70429602E+03  EK= 0.49762E+01 SP= 0.00E+00 SK= 0.00E+00
   2998 T=   263. E= -.69921999E+03 F= -.70412027E+03 E0= -.70412027E+03  EK= 0.49003E+01 SP= 0.00E+00 SK= 0.00E+00
   2999 T=   252. E= -.69923125E+03 F= -.70392121E+03 E0= -.70392121E+03  EK= 0.46900E+01 SP= 0.00E+00 SK= 0.00E+00
   3000 T=   246. E= -.69922309E+03 F= -.70379830E+03 E0= -.70379830E+03  EK= 0.45752E+01 SP= 0.00E+00 SK= 0.00E+00
   3001 T=   254. E= -.69913030E+03 F= -.70385180E+03 E0= -.70385180E+03  EK= 0.47215E+01 SP= 0.00E+00 SK= 0.00E+00
   3002 T=   267. E= -.69904383E+03 F= -.70401651E+03 E0= -.70401651E+03  EK= 0.49727E+01 SP= 0.00E+00 SK= 0.00E+00
   3003 T=   277. E= -.69902426E+03 F= -.70418443E+03 E0= -.70418443E+03  EK= 0.51602E+01 SP= 0.00E+00 SK= 0.00E+00
   3004 T=   275. E= -.69912897E+03 F= -.70424998E+03 E0= -.70424998E+03  EK= 0.51210E+01 SP= 0.00E+00 SK= 0.00E+00
   3005 T=   265. E= -.69931592E+03 F= -.70424691E+03 E0= -.70424691E+03  EK= 0.49310E+01 SP= 0.00E+00 SK= 0.00E+00
   3006 T=   259. E= -.69935268E+03 F= -.70418097E+03 E0= -.70418097E+03  EK= 0.48283E+01 SP= 0.00E+00 SK= 0.00E+00
       N       E                     dE             d eps       ncg     rms          rms(c)
DAV:   1    -0.690960098791E+03    0.50461E+01   -0.20222E+03 12190   0.101E+02
DAV:   2    -0.696482346566E+03   -0.55222E+01   -0.55205E+01 14532   0.152E+01
DAV:   3    -0.696540339121E+03   -0.57993E-01   -0.57988E-01 14652   0.161E+00
DAV:   4    -0.696541674566E+03   -0.13354E-02   -0.13354E-02 14516   0.231E-01    0.880E+00
DAV:   5    -0.695787683914E+03    0.75399E+00   -0.15664E+00 14796   0.373E+00    0.476E+00
DAV:   6    -0.695734552083E+03    0.53132E-01   -0.11576E+00 14652   0.272E+00    0.147E+00
DAV:   7    -0.695751063947E+03   -0.16512E-01   -0.21719E-01 14100   0.136E+00    0.556E-01
DAV:   8    -0.695749158680E+03    0.19053E-02   -0.25646E-02 13876   0.456E-01    0.263E-01
DAV:   9    -0.695747371476E+03    0.17872E-02   -0.79096E-03 13780   0.230E-01    0.129E-01
DAV:  10    -0.695746384966E+03    0.98651E-03   -0.17706E-03 16388   0.170E-01    0.424E-02
DAV:  11    -0.695746158145E+03    0.22682E-03   -0.80956E-04 14196   0.802E-02    0.399E-02
DAV:  12    -0.695745930810E+03    0.22734E-03   -0.12725E-04  9684   0.536E-02    0.144E-02
DAV:  13    -0.695745852456E+03    0.78354E-04   -0.16190E-04 10228   0.545E-02
   3007 T=   256. E= -.69930234E+03 F= -.70406535E+03 E0= -.70406535E+03  EK= 0.47630E+01 SP= 0.00E+00 SK= 0.00E+00
   3008 T=   255. E= -.69924449E+03 F= -.70399590E+03 E0= -.70399590E+03  EK= 0.47514E+01 SP= 0.00E+00 SK= 0.00E+00
   3009 T=   259. E= -.69915661E+03 F= -.70398119E+03 E0= -.70398119E+03  EK= 0.48246E+01 SP= 0.00E+00 SK= 0.00E+00
   3010 T=   263. E= -.69918365E+03 F= -.70407349E+03 E0= -.70407349E+03  EK= 0.48898E+01 SP= 0.00E+00 SK= 0.00E+00
   3011 T=   270. E= -.69920654E+03 F= -.70422777E+03 E0= -.70422777E+03  EK= 0.50212E+01 SP= 0.00E+00 SK= 0.00E+00
   3012 T=   271. E= -.69927560E+03 F= -.70432593E+03 E0= -.70432593E+03  EK= 0.50503E+01 SP= 0.00E+00 SK= 0.00E+00
   3013 T=   264. E= -.69938981E+03 F= -.70431127E+03 E0= -.70431127E+03  EK= 0.49215E+01 SP= 0.00E+00 SK= 0.00E+00
   3014 T=   258. E= -.69944820E+03 F= -.70424237E+03 E0= -.70424237E+03  EK= 0.47942E+01 SP= 0.00E+00 SK= 0.00E+00
   3015 T=   250. E= -.69944857E+03 F= -.70410982E+03 E0= -.70410982E+03  EK= 0.46612E+01 SP= 0.00E+00 SK= 0.00E+00
   3016 T=   245. E= -.69943600E+03 F= -.70399211E+03 E0= -.70399211E+03  EK= 0.45561E+01 SP= 0.00E+00 SK= 0.00E+00
       N       E                     dE             d eps       ncg     rms          rms(c)
DAV:   1    -0.690837857935E+03    0.49081E+01   -0.20126E+03 12190   0.101E+02
DAV:   2    -0.696565768716E+03   -0.57279E+01   -0.57260E+01 14436   0.153E+01
DAV:   3    -0.696624475301E+03   -0.58707E-01   -0.58701E-01 14628   0.161E+00
DAV:   4    -0.696625796112E+03   -0.13208E-02   -0.13207E-02 14444   0.231E-01    0.895E+00
DAV:   5    -0.695772972992E+03    0.85282E+00   -0.17818E+00 15516   0.411E+00    0.479E+00
DAV:   6    -0.695697305457E+03    0.75668E-01   -0.12280E+00 14588   0.284E+00    0.158E+00
DAV:   7    -0.695708749038E+03   -0.11444E-01   -0.25835E-01 14268   0.154E+00    0.572E-01
DAV:   8    -0.695705203672E+03    0.35454E-02   -0.31178E-02 13916   0.550E-01    0.287E-01
DAV:   9    -0.695703057710E+03    0.21460E-02   -0.15562E-02 13564   0.302E-01    0.192E-01
DAV:  10    -0.695701542127E+03    0.15156E-02   -0.33396E-03 16764   0.224E-01    0.515E-02
DAV:  11    -0.695701230392E+03    0.31174E-03   -0.14317E-03 13620   0.106E-01    0.494E-02
DAV:  12    -0.695700984122E+03    0.24627E-03   -0.16420E-04  9964   0.611E-02    0.247E-02
DAV:  13    -0.695700866440E+03    0.11768E-03   -0.26514E-04 11420   0.660E-02    0.219E-02
DAV:  14    -0.695700852726E+03    0.13713E-04   -0.10240E-04 10388   0.331E-02
   3017 T=   248. E= -.69940394E+03 F= -.70402645E+03 E0= -.70402645E+03  EK= 0.46225E+01 SP= 0.00E+00 SK= 0.00E+00
   3018 T=   259. E= -.69933285E+03 F= -.70415461E+03 E0= -.70415461E+03  EK= 0.48218E+01 SP= 0.00E+00 SK= 0.00E+00
   3019 T=   269. E= -.69933922E+03 F= -.70434244E+03 E0= -.70434244E+03  EK= 0.50032E+01 SP= 0.00E+00 SK= 0.00E+00
   3020 T=   276. E= -.69934276E+03 F= -.70448326E+03 E0= -.70448326E+03  EK= 0.51405E+01 SP= 0.00E+00 SK= 0.00E+00
   3021 T=   278. E= -.69936365E+03 F= -.70454081E+03 E0= -.70454081E+03  EK= 0.51772E+01 SP= 0.00E+00 SK= 0.00E+00
   3022 T=   283. E= -.69929726E+03 F= -.70455564E+03 E0= -.70455564E+03  EK= 0.52584E+01 SP= 0.00E+00 SK= 0.00E+00
   3023 T=   290. E= -.69920963E+03 F= -.70460606E+03 E0= -.70460606E+03  EK= 0.53964E+01 SP= 0.00E+00 SK= 0.00E+00
   3024 T=   289. E= -.69926924E+03 F= -.70464955E+03 E0= -.70464955E+03  EK= 0.53803E+01 SP= 0.00E+00 SK= 0.00E+00
   3025 T=   283. E= -.69937036E+03 F= -.70464497E+03 E0= -.70464497E+03  EK= 0.52746E+01 SP= 0.00E+00 SK= 0.00E+00
   3026 T=   275. E= -.69946930E+03 F= -.70459166E+03 E0= -.70459166E+03  EK= 0.51224E+01 SP= 0.00E+00 SK= 0.00E+00
       N       E                     dE             d eps       ncg     rms          rms(c)
DAV:   1    -0.691005206117E+03    0.46957E+01   -0.23094E+03 12190   0.109E+02
DAV:   2    -0.697173577891E+03   -0.61684E+01   -0.61666E+01 14340   0.161E+01
DAV:   3    -0.697236807566E+03   -0.63230E-01   -0.63226E-01 14636   0.169E+00
DAV:   4    -0.697238197712E+03   -0.13901E-02   -0.13901E-02 14484   0.242E-01    0.943E+00
DAV:   5    -0.696305904813E+03    0.93229E+00   -0.17937E+00 15244   0.417E+00    0.508E+00
DAV:   6    -0.696199358138E+03    0.10655E+00   -0.13038E+00 14692   0.311E+00    0.160E+00
DAV:   7    -0.696211465753E+03   -0.12108E-01   -0.26947E-01 14140   0.148E+00    0.592E-01
DAV:   8    -0.696206774649E+03    0.46911E-02   -0.24529E-02 14020   0.458E-01    0.312E-01
DAV:   9    -0.696203369259E+03    0.34054E-02   -0.13815E-02 13812   0.335E-01    0.168E-01
DAV:  10    -0.696201889146E+03    0.14801E-02   -0.29318E-03 16236   0.207E-01    0.593E-02
DAV:  11    -0.696201415017E+03    0.47413E-03   -0.13833E-03 13820   0.113E-01    0.484E-02
DAV:  12    -0.696201117657E+03    0.29736E-03   -0.26647E-04 11148   0.823E-02    0.249E-02
DAV:  13    -0.696201001374E+03    0.11628E-03   -0.25706E-04 11108   0.669E-02    0.248E-02
DAV:  14    -0.696200974901E+03    0.26473E-04   -0.10077E-04 10260   0.359E-02
   3027 T=   266. E= -.69957072E+03 F= -.70452765E+03 E0= -.70452765E+03  EK= 0.49569E+01 SP= 0.00E+00 SK= 0.00E+00
   3028 T=   264. E= -.69966428E+03 F= -.70457308E+03 E0= -.70457308E+03  EK= 0.49088E+01 SP= 0.00E+00 SK= 0.00E+00
   3029 T=   267. E= -.69968297E+03 F= -.70465440E+03 E0= -.70465440E+03  EK= 0.49714E+01 SP= 0.00E+00 SK= 0.00E+00
   3030 T=   269. E= -.69978037E+03 F= -.70477899E+03 E0= -.70477899E+03  EK= 0.49986E+01 SP= 0.00E+00 SK= 0.00E+00
   3031 T=   267. E= -.69985304E+03 F= -.70482538E+03 E0= -.70482538E+03  EK= 0.49723E+01 SP= 0.00E+00 SK= 0.00E+00
   3032 T=   270. E= -.69978256E+03 F= -.70479898E+03 E0= -.70479898E+03  EK= 0.50164E+01 SP= 0.00E+00 SK= 0.00E+00
   3033 T=   265. E= -.69979977E+03 F= -.70473869E+03 E0= -.70473869E+03  EK= 0.49389E+01 SP= 0.00E+00 SK= 0.00E+00
   3034 T=   261. E= -.69984963E+03 F= -.70471548E+03 E0= -.70471548E+03  EK= 0.48658E+01 SP= 0.00E+00 SK= 0.00E+00
   3035 T=   264. E= -.69986289E+03 F= -.70477414E+03 E0= -.70477414E+03  EK= 0.49112E+01 SP= 0.00E+00 SK= 0.00E+00
   3036 T=   270. E= -.69985969E+03 F= -.70488239E+03 E0= -.70488239E+03  EK= 0.50227E+01 SP= 0.00E+00 SK= 0.00E+00
   3037 T=   277. E= -.69984406E+03 F= -.70499361E+03 E0= -.70499361E+03  EK= 0.51495E+01 SP= 0.00E+00 SK= 0.00E+00
   3038 T=   278. E= -.69986446E+03 F= -.70503500E+03 E0= -.70503500E+03  EK= 0.51705E+01 SP= 0.00E+00 SK= 0.00E+00
   3039 T=   280. E= -.69982471E+03 F= -.70503936E+03 E0= -.70503936E+03  EK= 0.52147E+01 SP= 0.00E+00 SK= 0.00E+00
   3040 T=   285. E= -.69975025E+03 F= -.70505567E+03 E0= -.70505567E+03  EK= 0.53054E+01 SP= 0.00E+00 SK= 0.00E+00
   3041 T=   286. E= -.69972933E+03 F= -.70505351E+03 E0= -.70505351E+03  EK= 0.53242E+01 SP= 0.00E+00 SK= 0.00E+00
   3042 T=   286. E= -.69971815E+03 F= -.70504023E+03 E0= -.70504023E+03  EK= 0.53221E+01 SP= 0.00E+00 SK= 0.00E+00
   3043 T=   289. E= -.69962520E+03 F= -.70501100E+03 E0= -.70501100E+03  EK= 0.53858E+01 SP= 0.00E+00 SK= 0.00E+00
   3044 T=   289. E= -.69958384E+03 F= -.70495875E+03 E0= -.70495875E+03  EK= 0.53749E+01 SP= 0.00E+00 SK= 0.00E+00
   3045 T=   286. E= -.69960538E+03 F= -.70493274E+03 E0= -.70493274E+03  EK= 0.53274E+01 SP= 0.00E+00 SK= 0.00E+00
   3046 T=   286. E= -.69960423E+03 F= -.70492806E+03 E0= -.70492806E+03  EK= 0.53238E+01 SP= 0.00E+00 SK= 0.00E+00
   3047 T=   283. E= -.69964769E+03 F= -.70492180E+03 E0= -.70492180E+03  EK= 0.52741E+01 SP= 0.00E+00 SK= 0.00E+00
   3048 T=   281. E= -.69968386E+03 F= -.70491044E+03 E0= -.70491044E+03  EK= 0.52266E+01 SP= 0.00E+00 SK= 0.00E+00
   3049 T=   279. E= -.69966081E+03 F= -.70485169E+03 E0= -.70485169E+03  EK= 0.51909E+01 SP= 0.00E+00 SK= 0.00E+00
   3050 T=   277. E= -.69960139E+03 F= -.70474905E+03 E0= -.70474905E+03  EK= 0.51477E+01 SP= 0.00E+00 SK= 0.00E+00
   3051 T=   273. E= -.69954857E+03 F= -.70462878E+03 E0= -.70462878E+03  EK= 0.50802E+01 SP= 0.00E+00 SK= 0.00E+00
   3052 T=   264. E= -.69962772E+03 F= -.70454712E+03 E0= -.70454712E+03  EK= 0.49194E+01 SP= 0.00E+00 SK= 0.00E+00
   3053 T=   256. E= -.69972254E+03 F= -.70449673E+03 E0= -.70449673E+03  EK= 0.47742E+01 SP= 0.00E+00 SK= 0.00E+00
   3054 T=   257. E= -.69972209E+03 F= -.70451354E+03 E0= -.70451354E+03  EK= 0.47915E+01 SP= 0.00E+00 SK= 0.00E+00
   3055 T=   263. E= -.69969556E+03 F= -.70458413E+03 E0= -.70458413E+03  EK= 0.48886E+01 SP= 0.00E+00 SK= 0.00E+00
   3056 T=   268. E= -.69969383E+03 F= -.70468714E+03 E0= -.70468714E+03  EK= 0.49933E+01 SP= 0.00E+00 SK= 0.00E+00
   3057 T=   275. E= -.69963507E+03 F= -.70475282E+03 E0= -.70475282E+03  EK= 0.51177E+01 SP= 0.00E+00 SK= 0.00E+00
   3058 T=   277. E= -.69961937E+03 F= -.70477010E+03 E0= -.70477010E+03  EK= 0.51507E+01 SP= 0.00E+00 SK= 0.00E+00
   3059 T=   270. E= -.69968464E+03 F= -.70471525E+03 E0= -.70471525E+03  EK= 0.50306E+01 SP= 0.00E+00 SK= 0.00E+00
   3060 T=   262. E= -.69977519E+03 F= -.70464914E+03 E0= -.70464914E+03  EK= 0.48740E+01 SP= 0.00E+00 SK= 0.00E+00
   3061 T=   259. E= -.69983371E+03 F= -.70464869E+03 E0= -.70464869E+03  EK= 0.48150E+01 SP= 0.00E+00 SK= 0.00E+00
   3062 T=   268. E= -.69976965E+03 F= -.70475776E+03 E0= -.70475776E+03  EK= 0.49881E+01 SP= 0.00E+00 SK= 0.00E+00
   3063 T=   278. E= -.69973222E+03 F= -.70490178E+03 E0= -.70490178E+03  EK= 0.51696E+01 SP= 0.00E+00 SK= 0.00E+00
   3064 T=   277. E= -.69983763E+03 F= -.70498875E+03 E0= -.70498875E+03  EK= 0.51511E+01 SP= 0.00E+00 SK= 0.00E+00
   3065 T=   275. E= -.69989728E+03 F= -.70501379E+03 E0= -.70501379E+03  EK= 0.51165E+01 SP= 0.00E+00 SK= 0.00E+00
   3066 T=   278. E= -.69981939E+03 F= -.70499680E+03 E0= -.70499680E+03  EK= 0.51774E+01 SP= 0.00E+00 SK= 0.00E+00
   3067 T=   280. E= -.69976987E+03 F= -.70498149E+03 E0= -.70498149E+03  EK= 0.52116E+01 SP= 0.00E+00 SK= 0.00E+00
   3068 T=   278. E= -.69977785E+03 F= -.70495410E+03 E0= -.70495410E+03  EK= 0.51762E+01 SP= 0.00E+00 SK= 0.00E+00
   3069 T=   274. E= -.69981394E+03 F= -.70492088E+03 E0= -.70492088E+03  EK= 0.51069E+01 SP= 0.00E+00 SK= 0.00E+00
   3070 T=   272. E= -.69980191E+03 F= -.70486750E+03 E0= -.70486750E+03  EK= 0.50656E+01 SP= 0.00E+00 SK= 0.00E+00
   3071 T=   271. E= -.69978730E+03 F= -.70482626E+03 E0= -.70482626E+03  EK= 0.50390E+01 SP= 0.00E+00 SK= 0.00E+00
   3072 T=   268. E= -.69981421E+03 F= -.70480153E+03 E0= -.70480153E+03  EK= 0.49873E+01 SP= 0.00E+00 SK= 0.00E+00
   3073 T=   262. E= -.69989953E+03 F= -.70478033E+03 E0= -.70478033E+03  EK= 0.48808E+01 SP= 0.00E+00 SK= 0.00E+00
   3074 T=   262. E= -.69990314E+03 F= -.70478513E+03 E0= -.70478513E+03  EK= 0.48820E+01 SP= 0.00E+00 SK= 0.00E+00
   3075 T=   268. E= -.69980498E+03 F= -.70478600E+03 E0= -.70478600E+03  EK= 0.49810E+01 SP= 0.00E+00 SK= 0.00E+00
   3076 T=   266. E= -.69982015E+03 F= -.70476856E+03 E0= -.70476856E+03  EK= 0.49484E+01 SP= 0.00E+00 SK= 0.00E+00
   3077 T=   262. E= -.69983632E+03 F= -.70471618E+03 E0= -.70471618E+03  EK= 0.48799E+01 SP= 0.00E+00 SK= 0.00E+00
   3078 T=   261. E= -.69979191E+03 F= -.70464597E+03 E0= -.70464597E+03  EK= 0.48541E+01 SP= 0.00E+00 SK= 0.00E+00
   3079 T=   259. E= -.69976596E+03 F= -.70459496E+03 E0= -.70459496E+03  EK= 0.48290E+01 SP= 0.00E+00 SK= 0.00E+00
   3080 T=   254. E= -.69980850E+03 F= -.70454243E+03 E0= -.70454243E+03  EK= 0.47339E+01 SP= 0.00E+00 SK= 0.00E+00
   3081 T=   252. E= -.69986069E+03 F= -.70454682E+03 E0= -.70454682E+03  EK= 0.46861E+01 SP= 0.00E+00 SK= 0.00E+00
   3082 T=   255. E= -.69987482E+03 F= -.70462430E+03 E0= -.70462430E+03  EK= 0.47495E+01 SP= 0.00E+00 SK= 0.00E+00
   3083 T=   264. E= -.69984351E+03 F= -.70475978E+03 E0= -.70475978E+03  EK= 0.49163E+01 SP= 0.00E+00 SK= 0.00E+00
   3084 T=   276. E= -.69972786E+03 F= -.70485981E+03 E0= -.70485981E+03  EK= 0.51319E+01 SP= 0.00E+00 SK= 0.00E+00
   3085 T=   278. E= -.69970671E+03 F= -.70487638E+03 E0= -.70487638E+03  EK= 0.51697E+01 SP= 0.00E+00 SK= 0.00E+00
   3086 T=   273. E= -.69973486E+03 F= -.70480721E+03 E0= -.70480721E+03  EK= 0.50724E+01 SP= 0.00E+00 SK= 0.00E+00
   3087 T=   269. E= -.69971380E+03 F= -.70471451E+03 E0= -.70471451E+03  EK= 0.50007E+01 SP= 0.00E+00 SK= 0.00E+00
   3088 T=   262. E= -.69976349E+03 F= -.70464280E+03 E0= -.70464280E+03  EK= 0.48793E+01 SP= 0.00E+00 SK= 0.00E+00
   3089 T=   255. E= -.69989444E+03 F= -.70463790E+03 E0= -.70463790E+03  EK= 0.47435E+01 SP= 0.00E+00 SK= 0.00E+00
   3090 T=   254. E= -.69998726E+03 F= -.70471714E+03 E0= -.70471714E+03  EK= 0.47299E+01 SP= 0.00E+00 SK= 0.00E+00
   3091 T=   264. E= -.69998265E+03 F= -.70490455E+03 E0= -.70490455E+03  EK= 0.49219E+01 SP= 0.00E+00 SK= 0.00E+00
   3092 T=   274. E= -.69998281E+03 F= -.70508873E+03 E0= -.70508873E+03  EK= 0.51059E+01 SP= 0.00E+00 SK= 0.00E+00
   3093 T=   279. E= -.69999997E+03 F= -.70519454E+03 E0= -.70519454E+03  EK= 0.51946E+01 SP= 0.00E+00 SK= 0.00E+00
   3094 T=   279. E= -.69996298E+03 F= -.70516389E+03 E0= -.70516389E+03  EK= 0.52009E+01 SP= 0.00E+00 SK= 0.00E+00
   3095 T=   274. E= -.69996339E+03 F= -.70506846E+03 E0= -.70506846E+03  EK= 0.51051E+01 SP= 0.00E+00 SK= 0.00E+00
   3096 T=   272. E= -.69992569E+03 F= -.70498164E+03 E0= -.70498164E+03  EK= 0.50560E+01 SP= 0.00E+00 SK= 0.00E+00
   3097 T=   278. E= -.69984190E+03 F= -.70501523E+03 E0= -.70501523E+03  EK= 0.51733E+01 SP= 0.00E+00 SK= 0.00E+00
   3098 T=   282. E= -.69987924E+03 F= -.70513206E+03 E0= -.70513206E+03  EK= 0.52528E+01 SP= 0.00E+00 SK= 0.00E+00
   3099 T=   287. E= -.69989683E+03 F= -.70524377E+03 E0= -.70524377E+03  EK= 0.53469E+01 SP= 0.00E+00 SK= 0.00E+00
   3100 T=   293. E= -.69985082E+03 F= -.70530172E+03 E0= -.70530172E+03  EK= 0.54509E+01 SP= 0.00E+00 SK= 0.00E+00
   3101 T=   288. E= -.69990017E+03 F= -.70525159E+03 E0= -.70525159E+03  EK= 0.53514E+01 SP= 0.00E+00 SK= 0.00E+00
   3102 T=   278. E= -.69995103E+03 F= -.70512924E+03 E0= -.70512924E+03  EK= 0.51782E+01 SP= 0.00E+00 SK= 0.00E+00
   3103 T=   274. E= -.69989154E+03 F= -.70498334E+03 E0= -.70498334E+03  EK= 0.50918E+01 SP= 0.00E+00 SK= 0.00E+00
   3104 T=   269. E= -.69985377E+03 F= -.70486627E+03 E0= -.70486627E+03  EK= 0.50125E+01 SP= 0.00E+00 SK= 0.00E+00
   3105 T=   269. E= -.69985211E+03 F= -.70485627E+03 E0= -.70485627E+03  EK= 0.50042E+01 SP= 0.00E+00 SK= 0.00E+00
   3106 T=   276. E= -.69978168E+03 F= -.70491138E+03 E0= -.70491138E+03  EK= 0.51297E+01 SP= 0.00E+00 SK= 0.00E+00
   3107 T=   283. E= -.69973597E+03 F= -.70500166E+03 E0= -.70500166E+03  EK= 0.52657E+01 SP= 0.00E+00 SK= 0.00E+00
   3108 T=   285. E= -.69973736E+03 F= -.70505140E+03 E0= -.70505140E+03  EK= 0.53140E+01 SP= 0.00E+00 SK= 0.00E+00
   3109 T=   287. E= -.69972262E+03 F= -.70506184E+03 E0= -.70506184E+03  EK= 0.53392E+01 SP= 0.00E+00 SK= 0.00E+00
   3110 T=   286. E= -.69970394E+03 F= -.70502643E+03 E0= -.70502643E+03  EK= 0.53225E+01 SP= 0.00E+00 SK= 0.00E+00
   3111 T=   284. E= -.69967423E+03 F= -.70496141E+03 E0= -.70496141E+03  EK= 0.52872E+01 SP= 0.00E+00 SK= 0.00E+00
   3112 T=   282. E= -.69966278E+03 F= -.70490442E+03 E0= -.70490442E+03  EK= 0.52416E+01 SP= 0.00E+00 SK= 0.00E+00
   3113 T=   283. E= -.69956503E+03 F= -.70483862E+03 E0= -.70483862E+03  EK= 0.52736E+01 SP= 0.00E+00 SK= 0.00E+00
   3114 T=   289. E= -.69938682E+03 F= -.70476872E+03 E0= -.70476872E+03  EK= 0.53819E+01 SP= 0.00E+00 SK= 0.00E+00
   3115 T=   286. E= -.69936336E+03 F= -.70467874E+03 E0= -.70467874E+03  EK= 0.53154E+01 SP= 0.00E+00 SK= 0.00E+00
   3116 T=   276. E= -.69948711E+03 F= -.70462192E+03 E0= -.70462192E+03  EK= 0.51348E+01 SP= 0.00E+00 SK= 0.00E+00
   3117 T=   270. E= -.69958610E+03 F= -.70460828E+03 E0= -.70460828E+03  EK= 0.50222E+01 SP= 0.00E+00 SK= 0.00E+00
   3118 T=   274. E= -.69954703E+03 F= -.70465233E+03 E0= -.70465233E+03  EK= 0.51053E+01 SP= 0.00E+00 SK= 0.00E+00
   3119 T=   279. E= -.69949116E+03 F= -.70468780E+03 E0= -.70468780E+03  EK= 0.51966E+01 SP= 0.00E+00 SK= 0.00E+00
   3120 T=   278. E= -.69947284E+03 F= -.70465639E+03 E0= -.70465639E+03  EK= 0.51836E+01 SP= 0.00E+00 SK= 0.00E+00
   3121 T=   272. E= -.69951132E+03 F= -.70458110E+03 E0= -.70458110E+03  EK= 0.50698E+01 SP= 0.00E+00 SK= 0.00E+00
   3122 T=   265. E= -.69956991E+03 F= -.70450111E+03 E0= -.70450111E+03  EK= 0.49312E+01 SP= 0.00E+00 SK= 0.00E+00
       N       E                     dE             d eps       ncg     rms          rms(c)
DAV:   1    -0.360155225928E+03    0.33605E+03   -0.32916E+04 12190   0.380E+02
DAV:   2    -0.695930430893E+03   -0.33578E+03   -0.33162E+03 14168   0.107E+02
DAV:   3    -0.703954212460E+03   -0.80238E+01   -0.80189E+01 14244   0.185E+01
DAV:   4    -0.704087004449E+03   -0.13279E+00   -0.13277E+00 14636   0.228E+00    0.284E+01
DAV:   5    -0.696152579416E+03    0.79344E+01   -0.16195E+01 14092   0.102E+01    0.159E+01
DAV:   6    -0.695859869470E+03    0.29271E+00   -0.11577E+01 13860   0.808E+00    0.488E+00
DAV:   7    -0.696182759414E+03   -0.32289E+00   -0.19549E+00 13828   0.366E+00    0.182E+00
DAV:   8    -0.696189787771E+03   -0.70284E-02   -0.18655E-01 14052   0.119E+00    0.761E-01
DAV:   9    -0.696186681778E+03    0.31060E-02   -0.48820E-02 14092   0.605E-01    0.260E-01
DAV:  10    -0.696185558155E+03    0.11236E-02   -0.82274E-03 14668   0.292E-01    0.115E-01
DAV:  11    -0.696185170206E+03    0.38795E-03   -0.31644E-03 14132   0.144E-01    0.826E-02
DAV:  12    -0.696184571701E+03    0.59851E-03   -0.61010E-04 13268   0.122E-01    0.321E-02
DAV:  13    -0.696184318682E+03    0.25302E-03   -0.44632E-04 13236   0.100E-01    0.401E-02
DAV:  14    -0.696184228276E+03    0.90406E-04   -0.35791E-04 13116   0.705E-02
   3123 T=   261. E= -.69959682E+03 F= -.70444834E+03 E0= -.70444834E+03  EK= 0.48515E+01 SP= 0.00E+00 SK= 0.00E+00
   3124 T=   257. E= -.69963134E+03 F= -.70441865E+03 E0= -.70441865E+03  EK= 0.47873E+01 SP= 0.00E+00 SK= 0.00E+00
   3125 T=   253. E= -.69973516E+03 F= -.70444872E+03 E0= -.70444872E+03  EK= 0.47136E+01 SP= 0.00E+00 SK= 0.00E+00
   3126 T=   254. E= -.69984484E+03 F= -.70458116E+03 E0= -.70458116E+03  EK= 0.47363E+01 SP= 0.00E+00 SK= 0.00E+00
   3127 T=   261. E= -.69990261E+03 F= -.70476267E+03 E0= -.70476267E+03  EK= 0.48601E+01 SP= 0.00E+00 SK= 0.00E+00
   3128 T=   266. E= -.69998756E+03 F= -.70493203E+03 E0= -.70493203E+03  EK= 0.49445E+01 SP= 0.00E+00 SK= 0.00E+00
   3129 T=   266. E= -.70003560E+03 F= -.70499032E+03 E0= -.70499032E+03  EK= 0.49547E+01 SP= 0.00E+00 SK= 0.00E+00
   3130 T=   266. E= -.70000857E+03 F= -.70495234E+03 E0= -.70495234E+03  EK= 0.49438E+01 SP= 0.00E+00 SK= 0.00E+00
   3131 T=   260. E= -.70003738E+03 F= -.70487177E+03 E0= -.70487177E+03  EK= 0.48344E+01 SP= 0.00E+00 SK= 0.00E+00
   3132 T=   258. E= -.70003163E+03 F= -.70482805E+03 E0= -.70482805E+03  EK= 0.47964E+01 SP= 0.00E+00 SK= 0.00E+00
       N       E                     dE             d eps       ncg     rms          rms(c)
DAV:   1    -0.691093161015E+03    0.50912E+01   -0.21959E+03 12190   0.105E+02
DAV:   2    -0.697332382172E+03   -0.62392E+01   -0.62374E+01 14428   0.159E+01
DAV:   3    -0.697398129866E+03   -0.65748E-01   -0.65744E-01 14628   0.169E+00
DAV:   4    -0.697399620543E+03   -0.14907E-02   -0.14906E-02 14388   0.241E-01    0.890E+00
DAV:   5    -0.696617699990E+03    0.78192E+00   -0.15924E+00 15188   0.391E+00    0.482E+00
DAV:   6    -0.696539470854E+03    0.78229E-01   -0.11578E+00 14412   0.282E+00    0.153E+00
DAV:   7    -0.696549751168E+03   -0.10280E-01   -0.23120E-01 14236   0.138E+00    0.555E-01
DAV:   8    -0.696544902510E+03    0.48487E-02   -0.26634E-02 14660   0.514E-01    0.246E-01
DAV:   9    -0.696541796707E+03    0.31058E-02   -0.83116E-03 13900   0.259E-01    0.133E-01
DAV:  10    -0.696540212386E+03    0.15843E-02   -0.26725E-03 16404   0.200E-01    0.498E-02
DAV:  11    -0.696539686015E+03    0.52637E-03   -0.85337E-04 14172   0.101E-01    0.436E-02
DAV:  12    -0.696539166111E+03    0.51990E-03   -0.33189E-04 12028   0.108E-01    0.171E-02
DAV:  13    -0.696539112685E+03    0.53425E-04   -0.41650E-04 13492   0.708E-02
   3133 T=   262. E= -.69993707E+03 F= -.70481155E+03 E0= -.70481155E+03  EK= 0.48745E+01 SP= 0.00E+00 SK= 0.00E+00
   3134 T=   266. E= -.69992198E+03 F= -.70487469E+03 E0= -.70487469E+03  EK= 0.49527E+01 SP= 0.00E+00 SK= 0.00E+00
   3135 T=   271. E= -.69993630E+03 F= -.70498980E+03 E0= -.70498980E+03  EK= 0.50535E+01 SP= 0.00E+00 SK= 0.00E+00
   3136 T=   281. E= -.69988582E+03 F= -.70511335E+03 E0= -.70511335E+03  EK= 0.52275E+01 SP= 0.00E+00 SK= 0.00E+00
   3137 T=   284. E= -.69985255E+03 F= -.70513778E+03 E0= -.70513778E+03  EK= 0.52852E+01 SP= 0.00E+00 SK= 0.00E+00
   3138 T=   281. E= -.69986119E+03 F= -.70509012E+03 E0= -.70509012E+03  EK= 0.52289E+01 SP= 0.00E+00 SK= 0.00E+00
   3139 T=   279. E= -.69983826E+03 F= -.70502848E+03 E0= -.70502848E+03  EK= 0.51902E+01 SP= 0.00E+00 SK= 0.00E+00
   3140 T=   272. E= -.69989122E+03 F= -.70496164E+03 E0= -.70496164E+03  EK= 0.50704E+01 SP= 0.00E+00 SK= 0.00E+00
   3141 T=   268. E= -.69992393E+03 F= -.70491644E+03 E0= -.70491644E+03  EK= 0.49925E+01 SP= 0.00E+00 SK= 0.00E+00
   3142 T=   269. E= -.69987128E+03 F= -.70488026E+03 E0= -.70488026E+03  EK= 0.50090E+01 SP= 0.00E+00 SK= 0.00E+00
   3143 T=   266. E= -.69988747E+03 F= -.70483334E+03 E0= -.70483334E+03  EK= 0.49459E+01 SP= 0.00E+00 SK= 0.00E+00
   3144 T=   261. E= -.69993616E+03 F= -.70479270E+03 E0= -.70479270E+03  EK= 0.48565E+01 SP= 0.00E+00 SK= 0.00E+00
   3145 T=   263. E= -.69990634E+03 F= -.70480061E+03 E0= -.70480061E+03  EK= 0.48943E+01 SP= 0.00E+00 SK= 0.00E+00
   3146 T=   265. E= -.69986448E+03 F= -.70478981E+03 E0= -.70478981E+03  EK= 0.49253E+01 SP= 0.00E+00 SK= 0.00E+00
   3147 T=   263. E= -.69987594E+03 F= -.70476383E+03 E0= -.70476383E+03  EK= 0.48879E+01 SP= 0.00E+00 SK= 0.00E+00
   3148 T=   261. E= -.69986143E+03 F= -.70472662E+03 E0= -.70472662E+03  EK= 0.48652E+01 SP= 0.00E+00 SK= 0.00E+00
   3149 T=   256. E= -.69988450E+03 F= -.70465393E+03 E0= -.70465393E+03  EK= 0.47694E+01 SP= 0.00E+00 SK= 0.00E+00
   3150 T=   251. E= -.69994138E+03 F= -.70460598E+03 E0= -.70460598E+03  EK= 0.46646E+01 SP= 0.00E+00 SK= 0.00E+00
   3151 T=   254. E= -.69991801E+03 F= -.70464723E+03 E0= -.70464723E+03  EK= 0.47292E+01 SP= 0.00E+00 SK= 0.00E+00
   3152 T=   265. E= -.69985022E+03 F= -.70478161E+03 E0= -.70478161E+03  EK= 0.49314E+01 SP= 0.00E+00 SK= 0.00E+00
   3153 T=   276. E= -.69980200E+03 F= -.70493420E+03 E0= -.70493420E+03  EK= 0.51322E+01 SP= 0.00E+00 SK= 0.00E+00
   3154 T=   275. E= -.69990919E+03 F= -.70502207E+03 E0= -.70502207E+03  EK= 0.51129E+01 SP= 0.00E+00 SK= 0.00E+00
   3155 T=   263. E= -.70009543E+03 F= -.70499188E+03 E0= -.70499188E+03  EK= 0.48965E+01 SP= 0.00E+00 SK= 0.00E+00
   3156 T=   253. E= -.70020091E+03 F= -.70490447E+03 E0= -.70490447E+03  EK= 0.47036E+01 SP= 0.00E+00 SK= 0.00E+00
   3157 T=   248. E= -.70023538E+03 F= -.70484384E+03 E0= -.70484384E+03  EK= 0.46085E+01 SP= 0.00E+00 SK= 0.00E+00
   3158 T=   250. E= -.70023924E+03 F= -.70488496E+03 E0= -.70488496E+03  EK= 0.46457E+01 SP= 0.00E+00 SK= 0.00E+00
   3159 T=   251. E= -.70026865E+03 F= -.70493916E+03 E0= -.70493916E+03  EK= 0.46705E+01 SP= 0.00E+00 SK= 0.00E+00
   3160 T=   254. E= -.70024752E+03 F= -.70497302E+03 E0= -.70497302E+03  EK= 0.47255E+01 SP= 0.00E+00 SK= 0.00E+00
   3161 T=   258. E= -.70017818E+03 F= -.70497941E+03 E0= -.70497941E+03  EK= 0.48012E+01 SP= 0.00E+00 SK= 0.00E+00
   3162 T=   260. E= -.70014621E+03 F= -.70498564E+03 E0= -.70498564E+03  EK= 0.48394E+01 SP= 0.00E+00 SK= 0.00E+00
   3163 T=   259. E= -.70018516E+03 F= -.70500080E+03 E0= -.70500080E+03  EK= 0.48156E+01 SP= 0.00E+00 SK= 0.00E+00
   3164 T=   255. E= -.70023254E+03 F= -.70497280E+03 E0= -.70497280E+03  EK= 0.47403E+01 SP= 0.00E+00 SK= 0.00E+00
   3165 T=   253. E= -.70020957E+03 F= -.70492088E+03 E0= -.70492088E+03  EK= 0.47113E+01 SP= 0.00E+00 SK= 0.00E+00
   3166 T=   250. E= -.70017514E+03 F= -.70482517E+03 E0= -.70482517E+03  EK= 0.46500E+01 SP= 0.00E+00 SK= 0.00E+00
   3167 T=   249. E= -.70014027E+03 F= -.70476923E+03 E0= -.70476923E+03  EK= 0.46290E+01 SP= 0.00E+00 SK= 0.00E+00
   3168 T=   256. E= -.70004953E+03 F= -.70481550E+03 E0= -.70481550E+03  EK= 0.47660E+01 SP= 0.00E+00 SK= 0.00E+00
   3169 T=   270. E= -.69994749E+03 F= -.70496440E+03 E0= -.70496440E+03  EK= 0.50169E+01 SP= 0.00E+00 SK= 0.00E+00
   3170 T=   278. E= -.69989253E+03 F= -.70506765E+03 E0= -.70506765E+03  EK= 0.51751E+01 SP= 0.00E+00 SK= 0.00E+00
   3171 T=   280. E= -.69985710E+03 F= -.70507298E+03 E0= -.70507298E+03  EK= 0.52159E+01 SP= 0.00E+00 SK= 0.00E+00
   3172 T=   280. E= -.69980428E+03 F= -.70500866E+03 E0= -.70500866E+03  EK= 0.52044E+01 SP= 0.00E+00 SK= 0.00E+00
   3173 T=   277. E= -.69976047E+03 F= -.70491582E+03 E0= -.70491582E+03  EK= 0.51553E+01 SP= 0.00E+00 SK= 0.00E+00
   3174 T=   270. E= -.69978467E+03 F= -.70480343E+03 E0= -.70480343E+03  EK= 0.50188E+01 SP= 0.00E+00 SK= 0.00E+00
   3175 T=   263. E= -.69984183E+03 F= -.70474084E+03 E0= -.70474084E+03  EK= 0.48990E+01 SP= 0.00E+00 SK= 0.00E+00
   3176 T=   262. E= -.69985936E+03 F= -.70473582E+03 E0= -.70473582E+03  EK= 0.48765E+01 SP= 0.00E+00 SK= 0.00E+00
   3177 T=   264. E= -.69987534E+03 F= -.70478057E+03 E0= -.70478057E+03  EK= 0.49052E+01 SP= 0.00E+00 SK= 0.00E+00
   3178 T=   269. E= -.69985408E+03 F= -.70486864E+03 E0= -.70486864E+03  EK= 0.50146E+01 SP= 0.00E+00 SK= 0.00E+00
   3179 T=   271. E= -.69991218E+03 F= -.70495050E+03 E0= -.70495050E+03  EK= 0.50383E+01 SP= 0.00E+00 SK= 0.00E+00
   3180 T=   266. E= -.70002371E+03 F= -.70497459E+03 E0= -.70497459E+03  EK= 0.49509E+01 SP= 0.00E+00 SK= 0.00E+00
   3181 T=   264. E= -.70005435E+03 F= -.70496335E+03 E0= -.70496335E+03  EK= 0.49090E+01 SP= 0.00E+00 SK= 0.00E+00
   3182 T=   264. E= -.70002933E+03 F= -.70493523E+03 E0= -.70493523E+03  EK= 0.49059E+01 SP= 0.00E+00 SK= 0.00E+00
   3183 T=   267. E= -.69995670E+03 F= -.70492824E+03 E0= -.70492824E+03  EK= 0.49715E+01 SP= 0.00E+00 SK= 0.00E+00
   3184 T=   271. E= -.69990503E+03 F= -.70494690E+03 E0= -.70494690E+03  EK= 0.50419E+01 SP= 0.00E+00 SK= 0.00E+00
   3185 T=   274. E= -.69993992E+03 F= -.70503243E+03 E0= -.70503243E+03  EK= 0.50925E+01 SP= 0.00E+00 SK= 0.00E+00
   3186 T=   278. E= -.69999495E+03 F= -.70517042E+03 E0= -.70517042E+03  EK= 0.51755E+01 SP= 0.00E+00 SK= 0.00E+00
   3187 T=   282. E= -.70003717E+03 F= -.70528815E+03 E0= -.70528815E+03  EK= 0.52510E+01 SP= 0.00E+00 SK= 0.00E+00
   3188 T=   280. E= -.70009682E+03 F= -.70531432E+03 E0= -.70531432E+03  EK= 0.52175E+01 SP= 0.00E+00 SK= 0.00E+00
   3189 T=   272. E= -.70018425E+03 F= -.70524017E+03 E0= -.70524017E+03  EK= 0.50559E+01 SP= 0.00E+00 SK= 0.00E+00
   3190 T=   266. E= -.70018175E+03 F= -.70513295E+03 E0= -.70513295E+03  EK= 0.49512E+01 SP= 0.00E+00 SK= 0.00E+00
   3191 T=   258. E= -.70019697E+03 F= -.70500657E+03 E0= -.70500657E+03  EK= 0.48096E+01 SP= 0.00E+00 SK= 0.00E+00
   3192 T=   252. E= -.70025261E+03 F= -.70495213E+03 E0= -.70495213E+03  EK= 0.46995E+01 SP= 0.00E+00 SK= 0.00E+00
   3193 T=   252. E= -.70028586E+03 F= -.70497832E+03 E0= -.70497832E+03  EK= 0.46925E+01 SP= 0.00E+00 SK= 0.00E+00
   3194 T=   257. E= -.70026655E+03 F= -.70504814E+03 E0= -.70504814E+03  EK= 0.47816E+01 SP= 0.00E+00 SK= 0.00E+00
   3195 T=   264. E= -.70022770E+03 F= -.70513972E+03 E0= -.70513972E+03  EK= 0.49120E+01 SP= 0.00E+00 SK= 0.00E+00
   3196 T=   269. E= -.70022715E+03 F= -.70522794E+03 E0= -.70522794E+03  EK= 0.50008E+01 SP= 0.00E+00 SK= 0.00E+00
   3197 T=   272. E= -.70020966E+03 F= -.70527416E+03 E0= -.70527416E+03  EK= 0.50645E+01 SP= 0.00E+00 SK= 0.00E+00
   3198 T=   276. E= -.70013895E+03 F= -.70528035E+03 E0= -.70528035E+03  EK= 0.51414E+01 SP= 0.00E+00 SK= 0.00E+00
   3199 T=   278. E= -.70008293E+03 F= -.70524984E+03 E0= -.70524984E+03  EK= 0.51669E+01 SP= 0.00E+00 SK= 0.00E+00
   3200 T=   281. E= -.69999645E+03 F= -.70522858E+03 E0= -.70522858E+03  EK= 0.52321E+01 SP= 0.00E+00 SK= 0.00E+00
   3201 T=   290. E= -.69988271E+03 F= -.70527957E+03 E0= -.70527957E+03  EK= 0.53969E+01 SP= 0.00E+00 SK= 0.00E+00
   3202 T=   300. E= -.69977576E+03 F= -.70535277E+03 E0= -.70535277E+03  EK= 0.55770E+01 SP= 0.00E+00 SK= 0.00E+00
   3203 T=   310. E= -.69963906E+03 F= -.70541245E+03 E0= -.70541245E+03  EK= 0.57734E+01 SP= 0.00E+00 SK= 0.00E+00
   3204 T=   309. E= -.69964659E+03 F= -.70539611E+03 E0= -.70539611E+03  EK= 0.57495E+01 SP= 0.00E+00 SK= 0.00E+00
   3205 T=   298. E= -.69970059E+03 F= -.70524591E+03 E0= -.70524591E+03  EK= 0.55453E+01 SP= 0.00E+00 SK= 0.00E+00
   3206 T=   283. E= -.69974303E+03 F= -.70500698E+03 E0= -.70500698E+03  EK= 0.52639E+01 SP= 0.00E+00 SK= 0.00E+00
   3207 T=   269. E= -.69973305E+03 F= -.70474273E+03 E0= -.70474273E+03  EK= 0.50097E+01 SP= 0.00E+00 SK= 0.00E+00
   3208 T=   263. E= -.69963156E+03 F= -.70452846E+03 E0= -.70452846E+03  EK= 0.48969E+01 SP= 0.00E+00 SK= 0.00E+00
   3209 T=   262. E= -.69956317E+03 F= -.70444222E+03 E0= -.70444222E+03  EK= 0.48791E+01 SP= 0.00E+00 SK= 0.00E+00
   3210 T=   260. E= -.69960777E+03 F= -.70445566E+03 E0= -.70445566E+03  EK= 0.48479E+01 SP= 0.00E+00 SK= 0.00E+00
   3211 T=   259. E= -.69969473E+03 F= -.70452069E+03 E0= -.70452069E+03  EK= 0.48260E+01 SP= 0.00E+00 SK= 0.00E+00
   3212 T=   266. E= -.69964609E+03 F= -.70459807E+03 E0= -.70459807E+03  EK= 0.49520E+01 SP= 0.00E+00 SK= 0.00E+00
   3213 T=   272. E= -.69959864E+03 F= -.70466997E+03 E0= -.70466997E+03  EK= 0.50713E+01 SP= 0.00E+00 SK= 0.00E+00
   3214 T=   271. E= -.69970652E+03 F= -.70475010E+03 E0= -.70475010E+03  EK= 0.50436E+01 SP= 0.00E+00 SK= 0.00E+00
   3215 T=   274. E= -.69971020E+03 F= -.70481096E+03 E0= -.70481096E+03  EK= 0.51008E+01 SP= 0.00E+00 SK= 0.00E+00
   3216 T=   283. E= -.69956202E+03 F= -.70483101E+03 E0= -.70483101E+03  EK= 0.52690E+01 SP= 0.00E+00 SK= 0.00E+00
   3217 T=   287. E= -.69946867E+03 F= -.70481445E+03 E0= -.70481445E+03  EK= 0.53458E+01 SP= 0.00E+00 SK= 0.00E+00
   3218 T=   287. E= -.69943191E+03 F= -.70478083E+03 E0= -.70478083E+03  EK= 0.53489E+01 SP= 0.00E+00 SK= 0.00E+00
   3219 T=   288. E= -.69944094E+03 F= -.70480328E+03 E0= -.70480328E+03  EK= 0.53623E+01 SP= 0.00E+00 SK= 0.00E+00
   3220 T=   289. E= -.69951247E+03 F= -.70489701E+03 E0= -.70489701E+03  EK= 0.53845E+01 SP= 0.00E+00 SK= 0.00E+00
   3221 T=   296. E= -.69949192E+03 F= -.70500019E+03 E0= -.70500019E+03  EK= 0.55083E+01 SP= 0.00E+00 SK= 0.00E+00
   3222 T=   303. E= -.69940103E+03 F= -.70503934E+03 E0= -.70503934E+03  EK= 0.56383E+01 SP= 0.00E+00 SK= 0.00E+00
   3223 T=   306. E= -.69933013E+03 F= -.70502902E+03 E0= -.70502902E+03  EK= 0.56989E+01 SP= 0.00E+00 SK= 0.00E+00
   3224 T=   304. E= -.69933762E+03 F= -.70499819E+03 E0= -.70499819E+03  EK= 0.56606E+01 SP= 0.00E+00 SK= 0.00E+00
   3225 T=   297. E= -.69937253E+03 F= -.70490109E+03 E0= -.70490109E+03  EK= 0.55286E+01 SP= 0.00E+00 SK= 0.00E+00
   3226 T=   292. E= -.69931563E+03 F= -.70475288E+03 E0= -.70475288E+03  EK= 0.54373E+01 SP= 0.00E+00 SK= 0.00E+00
   3227 T=   285. E= -.69927859E+03 F= -.70458814E+03 E0= -.70458814E+03  EK= 0.53095E+01 SP= 0.00E+00 SK= 0.00E+00
   3228 T=   279. E= -.69926965E+03 F= -.70446181E+03 E0= -.70446181E+03  EK= 0.51922E+01 SP= 0.00E+00 SK= 0.00E+00
   3229 T=   277. E= -.69925251E+03 F= -.70441770E+03 E0= -.70441770E+03  EK= 0.51652E+01 SP= 0.00E+00 SK= 0.00E+00
   3230 T=   277. E= -.69925202E+03 F= -.70440718E+03 E0= -.70440718E+03  EK= 0.51552E+01 SP= 0.00E+00 SK= 0.00E+00
   3231 T=   284. E= -.69916610E+03 F= -.70445344E+03 E0= -.70445344E+03  EK= 0.52873E+01 SP= 0.00E+00 SK= 0.00E+00
   3232 T=   290. E= -.69910181E+03 F= -.70449658E+03 E0= -.70449658E+03  EK= 0.53948E+01 SP= 0.00E+00 SK= 0.00E+00
   3233 T=   289. E= -.69914411E+03 F= -.70452770E+03 E0= -.70452770E+03  EK= 0.53836E+01 SP= 0.00E+00 SK= 0.00E+00
   3234 T=   296. E= -.69907815E+03 F= -.70458438E+03 E0= -.70458438E+03  EK= 0.55062E+01 SP= 0.00E+00 SK= 0.00E+00
   3235 T=   304. E= -.69900467E+03 F= -.70467247E+03 E0= -.70467247E+03  EK= 0.56678E+01 SP= 0.00E+00 SK= 0.00E+00
   3236 T=   308. E= -.69903157E+03 F= -.70475692E+03 E0= -.70475692E+03  EK= 0.57254E+01 SP= 0.00E+00 SK= 0.00E+00
   3237 T=   304. E= -.69909502E+03 F= -.70475739E+03 E0= -.70475739E+03  EK= 0.56624E+01 SP= 0.00E+00 SK= 0.00E+00
   3238 T=   294. E= -.69914732E+03 F= -.70461470E+03 E0= -.70461470E+03  EK= 0.54674E+01 SP= 0.00E+00 SK= 0.00E+00
   3239 T=   282. E= -.69918681E+03 F= -.70442865E+03 E0= -.70442865E+03  EK= 0.52418E+01 SP= 0.00E+00 SK= 0.00E+00
   3240 T=   273. E= -.69921800E+03 F= -.70429336E+03 E0= -.70429336E+03  EK= 0.50754E+01 SP= 0.00E+00 SK= 0.00E+00
   3241 T=   275. E= -.69918634E+03 F= -.70430715E+03 E0= -.70430715E+03  EK= 0.51208E+01 SP= 0.00E+00 SK= 0.00E+00
   3242 T=   282. E= -.69912500E+03 F= -.70437764E+03 E0= -.70437764E+03  EK= 0.52526E+01 SP= 0.00E+00 SK= 0.00E+00
   3243 T=   288. E= -.69910901E+03 F= -.70446750E+03 E0= -.70446750E+03  EK= 0.53585E+01 SP= 0.00E+00 SK= 0.00E+00
   3244 T=   290. E= -.69911370E+03 F= -.70451698E+03 E0= -.70451698E+03  EK= 0.54033E+01 SP= 0.00E+00 SK= 0.00E+00
   3245 T=   290. E= -.69913225E+03 F= -.70453903E+03 E0= -.70453903E+03  EK= 0.54068E+01 SP= 0.00E+00 SK= 0.00E+00
   3246 T=   290. E= -.69911171E+03 F= -.70451172E+03 E0= -.70451172E+03  EK= 0.54000E+01 SP= 0.00E+00 SK= 0.00E+00
   3247 T=   290. E= -.69909344E+03 F= -.70448445E+03 E0= -.70448445E+03  EK= 0.53910E+01 SP= 0.00E+00 SK= 0.00E+00
   3248 T=   287. E= -.69911332E+03 F= -.70444866E+03 E0= -.70444866E+03  EK= 0.53353E+01 SP= 0.00E+00 SK= 0.00E+00
   3249 T=   284. E= -.69914431E+03 F= -.70442846E+03 E0= -.70442846E+03  EK= 0.52842E+01 SP= 0.00E+00 SK= 0.00E+00
   3250 T=   286. E= -.69913658E+03 F= -.70446248E+03 E0= -.70446248E+03  EK= 0.53259E+01 SP= 0.00E+00 SK= 0.00E+00
   3251 T=   290. E= -.69918422E+03 F= -.70457784E+03 E0= -.70457784E+03  EK= 0.53936E+01 SP= 0.00E+00 SK= 0.00E+00
   3252 T=   290. E= -.69930309E+03 F= -.70469663E+03 E0= -.70469663E+03  EK= 0.53935E+01 SP= 0.00E+00 SK= 0.00E+00
   3253 T=   290. E= -.69933896E+03 F= -.70474520E+03 E0= -.70474520E+03  EK= 0.54062E+01 SP= 0.00E+00 SK= 0.00E+00
   3254 T=   288. E= -.69934111E+03 F= -.70469322E+03 E0= -.70469322E+03  EK= 0.53521E+01 SP= 0.00E+00 SK= 0.00E+00
   3255 T=   286. E= -.69926566E+03 F= -.70459436E+03 E0= -.70459436E+03  EK= 0.53287E+01 SP= 0.00E+00 SK= 0.00E+00
   3256 T=   286. E= -.69916793E+03 F= -.70448403E+03 E0= -.70448403E+03  EK= 0.53161E+01 SP= 0.00E+00 SK= 0.00E+00
   3257 T=   284. E= -.69911317E+03 F= -.70439618E+03 E0= -.70439618E+03  EK= 0.52830E+01 SP= 0.00E+00 SK= 0.00E+00
   3258 T=   282. E= -.69909165E+03 F= -.70434341E+03 E0= -.70434341E+03  EK= 0.52518E+01 SP= 0.00E+00 SK= 0.00E+00
   3259 T=   285. E= -.69904980E+03 F= -.70435639E+03 E0= -.70435639E+03  EK= 0.53066E+01 SP= 0.00E+00 SK= 0.00E+00
   3260 T=   290. E= -.69899371E+03 F= -.70439857E+03 E0= -.70439857E+03  EK= 0.54049E+01 SP= 0.00E+00 SK= 0.00E+00
   3261 T=   288. E= -.69906718E+03 F= -.70441962E+03 E0= -.70441962E+03  EK= 0.53524E+01 SP= 0.00E+00 SK= 0.00E+00
   3262 T=   287. E= -.69907906E+03 F= -.70441748E+03 E0= -.70441748E+03  EK= 0.53384E+01 SP= 0.00E+00 SK= 0.00E+00
   3263 T=   289. E= -.69907753E+03 F= -.70446351E+03 E0= -.70446351E+03  EK= 0.53860E+01 SP= 0.00E+00 SK= 0.00E+00
   3264 T=   293. E= -.69913497E+03 F= -.70458753E+03 E0= -.70458753E+03  EK= 0.54526E+01 SP= 0.00E+00 SK= 0.00E+00
   3265 T=   306. E= -.69912169E+03 F= -.70481082E+03 E0= -.70481082E+03  EK= 0.56891E+01 SP= 0.00E+00 SK= 0.00E+00
   3266 T=   316. E= -.69912724E+03 F= -.70500821E+03 E0= -.70500821E+03  EK= 0.58810E+01 SP= 0.00E+00 SK= 0.00E+00
   3267 T=   320. E= -.69914291E+03 F= -.70509698E+03 E0= -.70509698E+03  EK= 0.59541E+01 SP= 0.00E+00 SK= 0.00E+00
   3268 T=   318. E= -.69915984E+03 F= -.70508619E+03 E0= -.70508619E+03  EK= 0.59263E+01 SP= 0.00E+00 SK= 0.00E+00
   3269 T=   308. E= -.69927288E+03 F= -.70501300E+03 E0= -.70501300E+03  EK= 0.57401E+01 SP= 0.00E+00 SK= 0.00E+00
   3270 T=   305. E= -.69933397E+03 F= -.70500567E+03 E0= -.70500567E+03  EK= 0.56717E+01 SP= 0.00E+00 SK= 0.00E+00
   3271 T=   311. E= -.69932569E+03 F= -.70511837E+03 E0= -.70511837E+03  EK= 0.57927E+01 SP= 0.00E+00 SK= 0.00E+00
   3272 T=   317. E= -.69934690E+03 F= -.70523829E+03 E0= -.70523829E+03  EK= 0.58914E+01 SP= 0.00E+00 SK= 0.00E+00
   3273 T=   315. E= -.69940729E+03 F= -.70526252E+03 E0= -.70526252E+03  EK= 0.58552E+01 SP= 0.00E+00 SK= 0.00E+00
   3274 T=   305. E= -.69943482E+03 F= -.70510353E+03 E0= -.70510353E+03  EK= 0.56687E+01 SP= 0.00E+00 SK= 0.00E+00
   3275 T=   288. E= -.69944882E+03 F= -.70481809E+03 E0= -.70481809E+03  EK= 0.53693E+01 SP= 0.00E+00 SK= 0.00E+00
   3276 T=   270. E= -.69951932E+03 F= -.70454207E+03 E0= -.70454207E+03  EK= 0.50227E+01 SP= 0.00E+00 SK= 0.00E+00
   3277 T=   260. E= -.69954834E+03 F= -.70439704E+03 E0= -.70439704E+03  EK= 0.48487E+01 SP= 0.00E+00 SK= 0.00E+00
   3278 T=   265. E= -.69953127E+03 F= -.70446016E+03 E0= -.70446016E+03  EK= 0.49289E+01 SP= 0.00E+00 SK= 0.00E+00
   3279 T=   274. E= -.69954055E+03 F= -.70464934E+03 E0= -.70464934E+03  EK= 0.51088E+01 SP= 0.00E+00 SK= 0.00E+00
   3280 T=   284. E= -.69958340E+03 F= -.70486922E+03 E0= -.70486922E+03  EK= 0.52858E+01 SP= 0.00E+00 SK= 0.00E+00
   3281 T=   289. E= -.69961259E+03 F= -.70498716E+03 E0= -.70498716E+03  EK= 0.53746E+01 SP= 0.00E+00 SK= 0.00E+00
   3282 T=   286. E= -.69963852E+03 F= -.70496989E+03 E0= -.70496989E+03  EK= 0.53314E+01 SP= 0.00E+00 SK= 0.00E+00
   3283 T=   280. E= -.69964356E+03 F= -.70484792E+03 E0= -.70484792E+03  EK= 0.52044E+01 SP= 0.00E+00 SK= 0.00E+00
   3284 T=   273. E= -.69956912E+03 F= -.70465056E+03 E0= -.70465056E+03  EK= 0.50814E+01 SP= 0.00E+00 SK= 0.00E+00
   3285 T=   265. E= -.69953306E+03 F= -.70447229E+03 E0= -.70447229E+03  EK= 0.49392E+01 SP= 0.00E+00 SK= 0.00E+00
   3286 T=   265. E= -.69950771E+03 F= -.70443267E+03 E0= -.70443267E+03  EK= 0.49250E+01 SP= 0.00E+00 SK= 0.00E+00
   3287 T=   270. E= -.69950890E+03 F= -.70453076E+03 E0= -.70453076E+03  EK= 0.50219E+01 SP= 0.00E+00 SK= 0.00E+00
   3288 T=   275. E= -.69956508E+03 F= -.70468652E+03 E0= -.70468652E+03  EK= 0.51214E+01 SP= 0.00E+00 SK= 0.00E+00
   3289 T=   280. E= -.69956268E+03 F= -.70477307E+03 E0= -.70477307E+03  EK= 0.52104E+01 SP= 0.00E+00 SK= 0.00E+00
   3290 T=   279. E= -.69959425E+03 F= -.70479325E+03 E0= -.70479325E+03  EK= 0.51990E+01 SP= 0.00E+00 SK= 0.00E+00
   3291 T=   277. E= -.69961238E+03 F= -.70476613E+03 E0= -.70476613E+03  EK= 0.51537E+01 SP= 0.00E+00 SK= 0.00E+00
   3292 T=   272. E= -.69962429E+03 F= -.70468997E+03 E0= -.70468997E+03  EK= 0.50657E+01 SP= 0.00E+00 SK= 0.00E+00
   3293 T=   266. E= -.69968354E+03 F= -.70464177E+03 E0= -.70464177E+03  EK= 0.49582E+01 SP= 0.00E+00 SK= 0.00E+00
   3294 T=   265. E= -.69971714E+03 F= -.70465094E+03 E0= -.70465094E+03  EK= 0.49338E+01 SP= 0.00E+00 SK= 0.00E+00
   3295 T=   271. E= -.69970790E+03 F= -.70475125E+03 E0= -.70475125E+03  EK= 0.50434E+01 SP= 0.00E+00 SK= 0.00E+00
   3296 T=   279. E= -.69967606E+03 F= -.70486418E+03 E0= -.70486418E+03  EK= 0.51881E+01 SP= 0.00E+00 SK= 0.00E+00
   3297 T=   281. E= -.69967844E+03 F= -.70491700E+03 E0= -.70491700E+03  EK= 0.52386E+01 SP= 0.00E+00 SK= 0.00E+00
   3298 T=   276. E= -.69972492E+03 F= -.70486891E+03 E0= -.70486891E+03  EK= 0.51440E+01 SP= 0.00E+00 SK= 0.00E+00
   3299 T=   270. E= -.69979146E+03 F= -.70481589E+03 E0= -.70481589E+03  EK= 0.50244E+01 SP= 0.00E+00 SK= 0.00E+00
   3300 T=   269. E= -.69983499E+03 F= -.70485119E+03 E0= -.70485119E+03  EK= 0.50162E+01 SP= 0.00E+00 SK= 0.00E+00
   3301 T=   273. E= -.69989822E+03 F= -.70497366E+03 E0= -.70497366E+03  EK= 0.50754E+01 SP= 0.00E+00 SK= 0.00E+00
   3302 T=   275. E= -.69999476E+03 F= -.70511847E+03 E0= -.70511847E+03  EK= 0.51237E+01 SP= 0.00E+00 SK= 0.00E+00
   3303 T=   272. E= -.70012640E+03 F= -.70519064E+03 E0= -.70519064E+03  EK= 0.50642E+01 SP= 0.00E+00 SK= 0.00E+00
   3304 T=   267. E= -.70018611E+03 F= -.70516103E+03 E0= -.70516103E+03  EK= 0.49749E+01 SP= 0.00E+00 SK= 0.00E+00
   3305 T=   263. E= -.70014793E+03 F= -.70505067E+03 E0= -.70505067E+03  EK= 0.49027E+01 SP= 0.00E+00 SK= 0.00E+00
   3306 T=   258. E= -.70012084E+03 F= -.70491970E+03 E0= -.70491970E+03  EK= 0.47989E+01 SP= 0.00E+00 SK= 0.00E+00
   3307 T=   255. E= -.70010091E+03 F= -.70485113E+03 E0= -.70485113E+03  EK= 0.47502E+01 SP= 0.00E+00 SK= 0.00E+00
   3308 T=   256. E= -.70012732E+03 F= -.70488711E+03 E0= -.70488711E+03  EK= 0.47598E+01 SP= 0.00E+00 SK= 0.00E+00
   3309 T=   258. E= -.70020890E+03 F= -.70502008E+03 E0= -.70502008E+03  EK= 0.48112E+01 SP= 0.00E+00 SK= 0.00E+00
   3310 T=   264. E= -.70029720E+03 F= -.70521570E+03 E0= -.70521570E+03  EK= 0.49185E+01 SP= 0.00E+00 SK= 0.00E+00
   3311 T=   273. E= -.70031631E+03 F= -.70539741E+03 E0= -.70539741E+03  EK= 0.50811E+01 SP= 0.00E+00 SK= 0.00E+00
   3312 T=   281. E= -.70027573E+03 F= -.70550036E+03 E0= -.70550036E+03  EK= 0.52246E+01 SP= 0.00E+00 SK= 0.00E+00
   3313 T=   279. E= -.70031785E+03 F= -.70550465E+03 E0= -.70550465E+03  EK= 0.51868E+01 SP= 0.00E+00 SK= 0.00E+00
   3314 T=   269. E= -.70037172E+03 F= -.70537469E+03 E0= -.70537469E+03  EK= 0.50030E+01 SP= 0.00E+00 SK= 0.00E+00
   3315 T=   262. E= -.70034343E+03 F= -.70521336E+03 E0= -.70521336E+03  EK= 0.48699E+01 SP= 0.00E+00 SK= 0.00E+00
   3316 T=   262. E= -.70024567E+03 F= -.70512319E+03 E0= -.70512319E+03  EK= 0.48775E+01 SP= 0.00E+00 SK= 0.00E+00
   3317 T=   265. E= -.70018999E+03 F= -.70512295E+03 E0= -.70512295E+03  EK= 0.49330E+01 SP= 0.00E+00 SK= 0.00E+00
   3318 T=   268. E= -.70020766E+03 F= -.70520226E+03 E0= -.70520226E+03  EK= 0.49946E+01 SP= 0.00E+00 SK= 0.00E+00
   3319 T=   271. E= -.70023230E+03 F= -.70527217E+03 E0= -.70527217E+03  EK= 0.50399E+01 SP= 0.00E+00 SK= 0.00E+00
   3320 T=   269. E= -.70027108E+03 F= -.70527326E+03 E0= -.70527326E+03  EK= 0.50022E+01 SP= 0.00E+00 SK= 0.00E+00
   3321 T=   257. E= -.70037725E+03 F= -.70515502E+03 E0= -.70515502E+03  EK= 0.47778E+01 SP= 0.00E+00 SK= 0.00E+00
   3322 T=   244. E= -.70044928E+03 F= -.70499805E+03 E0= -.70499805E+03  EK= 0.45488E+01 SP= 0.00E+00 SK= 0.00E+00
   3323 T=   237. E= -.70048111E+03 F= -.70489099E+03 E0= -.70489099E+03  EK= 0.44099E+01 SP= 0.00E+00 SK= 0.00E+00
   3324 T=   230. E= -.70055739E+03 F= -.70484188E+03 E0= -.70484188E+03  EK= 0.42845E+01 SP= 0.00E+00 SK= 0.00E+00
   3325 T=   227. E= -.70057741E+03 F= -.70479678E+03 E0= -.70479678E+03  EK= 0.42194E+01 SP= 0.00E+00 SK= 0.00E+00
   3326 T=   222. E= -.70060388E+03 F= -.70473044E+03 E0= -.70473044E+03  EK= 0.41266E+01 SP= 0.00E+00 SK= 0.00E+00
   3327 T=   219. E= -.70059881E+03 F= -.70467670E+03 E0= -.70467670E+03  EK= 0.40779E+01 SP= 0.00E+00 SK= 0.00E+00
   3328 T=   218. E= -.70063622E+03 F= -.70469687E+03 E0= -.70469687E+03  EK= 0.40606E+01 SP= 0.00E+00 SK= 0.00E+00
   3329 T=   217. E= -.70071435E+03 F= -.70476207E+03 E0= -.70476207E+03  EK= 0.40477E+01 SP= 0.00E+00 SK= 0.00E+00
   3330 T=   225. E= -.70071502E+03 F= -.70490908E+03 E0= -.70490908E+03  EK= 0.41941E+01 SP= 0.00E+00 SK= 0.00E+00
   3331 T=   238. E= -.70065829E+03 F= -.70509615E+03 E0= -.70509615E+03  EK= 0.44379E+01 SP= 0.00E+00 SK= 0.00E+00
   3332 T=   248. E= -.70065804E+03 F= -.70527546E+03 E0= -.70527546E+03  EK= 0.46174E+01 SP= 0.00E+00 SK= 0.00E+00
   3333 T=   251. E= -.70072216E+03 F= -.70540243E+03 E0= -.70540243E+03  EK= 0.46803E+01 SP= 0.00E+00 SK= 0.00E+00
   3334 T=   256. E= -.70071897E+03 F= -.70548782E+03 E0= -.70548782E+03  EK= 0.47688E+01 SP= 0.00E+00 SK= 0.00E+00
   3335 T=   257. E= -.70071478E+03 F= -.70549714E+03 E0= -.70549714E+03  EK= 0.47824E+01 SP= 0.00E+00 SK= 0.00E+00
   3336 T=   254. E= -.70069866E+03 F= -.70542293E+03 E0= -.70542293E+03  EK= 0.47243E+01 SP= 0.00E+00 SK= 0.00E+00
   3337 T=   247. E= -.70075601E+03 F= -.70534897E+03 E0= -.70534897E+03  EK= 0.45930E+01 SP= 0.00E+00 SK= 0.00E+00
   3338 T=   242. E= -.70082141E+03 F= -.70533254E+03 E0= -.70533254E+03  EK= 0.45111E+01 SP= 0.00E+00 SK= 0.00E+00
   3339 T=   242. E= -.70086718E+03 F= -.70537777E+03 E0= -.70537777E+03  EK= 0.45106E+01 SP= 0.00E+00 SK= 0.00E+00
   3340 T=   245. E= -.70090405E+03 F= -.70545995E+03 E0= -.70545995E+03  EK= 0.45559E+01 SP= 0.00E+00 SK= 0.00E+00
   3341 T=   249. E= -.70087034E+03 F= -.70551012E+03 E0= -.70551012E+03  EK= 0.46398E+01 SP= 0.00E+00 SK= 0.00E+00
   3342 T=   249. E= -.70088696E+03 F= -.70552066E+03 E0= -.70552066E+03  EK= 0.46337E+01 SP= 0.00E+00 SK= 0.00E+00
   3343 T=   248. E= -.70086085E+03 F= -.70547660E+03 E0= -.70547660E+03  EK= 0.46157E+01 SP= 0.00E+00 SK= 0.00E+00
   3344 T=   248. E= -.70079387E+03 F= -.70540715E+03 E0= -.70540715E+03  EK= 0.46133E+01 SP= 0.00E+00 SK= 0.00E+00
   3345 T=   241. E= -.70083116E+03 F= -.70531826E+03 E0= -.70531826E+03  EK= 0.44871E+01 SP= 0.00E+00 SK= 0.00E+00
   3346 T=   241. E= -.70075589E+03 F= -.70524409E+03 E0= -.70524409E+03  EK= 0.44882E+01 SP= 0.00E+00 SK= 0.00E+00
   3347 T=   243. E= -.70068190E+03 F= -.70521401E+03 E0= -.70521401E+03  EK= 0.45321E+01 SP= 0.00E+00 SK= 0.00E+00
   3348 T=   240. E= -.70072614E+03 F= -.70519247E+03 E0= -.70519247E+03  EK= 0.44663E+01 SP= 0.00E+00 SK= 0.00E+00
   3349 T=   241. E= -.70070298E+03 F= -.70519074E+03 E0= -.70519074E+03  EK= 0.44878E+01 SP= 0.00E+00 SK= 0.00E+00
   3350 T=   246. E= -.70062396E+03 F= -.70520737E+03 E0= -.70520737E+03  EK= 0.45834E+01 SP= 0.00E+00 SK= 0.00E+00
   3351 T=   249. E= -.70059166E+03 F= -.70522958E+03 E0= -.70522958E+03  EK= 0.46379E+01 SP= 0.00E+00 SK= 0.00E+00
   3352 T=   245. E= -.70061941E+03 F= -.70517383E+03 E0= -.70517383E+03  EK= 0.45544E+01 SP= 0.00E+00 SK= 0.00E+00
   3353 T=   239. E= -.70060830E+03 F= -.70504801E+03 E0= -.70504801E+03  EK= 0.44397E+01 SP= 0.00E+00 SK= 0.00E+00
   3354 T=   234. E= -.70056034E+03 F= -.70491140E+03 E0= -.70491140E+03  EK= 0.43511E+01 SP= 0.00E+00 SK= 0.00E+00
   3355 T=   230. E= -.70053426E+03 F= -.70482165E+03 E0= -.70482165E+03  EK= 0.42874E+01 SP= 0.00E+00 SK= 0.00E+00
   3356 T=   229. E= -.70052882E+03 F= -.70478843E+03 E0= -.70478843E+03  EK= 0.42596E+01 SP= 0.00E+00 SK= 0.00E+00
   3357 T=   231. E= -.70050559E+03 F= -.70481207E+03 E0= -.70481207E+03  EK= 0.43065E+01 SP= 0.00E+00 SK= 0.00E+00
   3358 T=   237. E= -.70045039E+03 F= -.70486080E+03 E0= -.70486080E+03  EK= 0.44104E+01 SP= 0.00E+00 SK= 0.00E+00
   3359 T=   244. E= -.70037424E+03 F= -.70492374E+03 E0= -.70492374E+03  EK= 0.45495E+01 SP= 0.00E+00 SK= 0.00E+00
   3360 T=   247. E= -.70031341E+03 F= -.70491256E+03 E0= -.70491256E+03  EK= 0.45991E+01 SP= 0.00E+00 SK= 0.00E+00
   3361 T=   246. E= -.70029641E+03 F= -.70487559E+03 E0= -.70487559E+03  EK= 0.45792E+01 SP= 0.00E+00 SK= 0.00E+00
   3362 T=   247. E= -.70024927E+03 F= -.70484309E+03 E0= -.70484309E+03  EK= 0.45938E+01 SP= 0.00E+00 SK= 0.00E+00
   3363 T=   245. E= -.70025884E+03 F= -.70481549E+03 E0= -.70481549E+03  EK= 0.45567E+01 SP= 0.00E+00 SK= 0.00E+00
   3364 T=   241. E= -.70032024E+03 F= -.70481414E+03 E0= -.70481414E+03  EK= 0.44939E+01 SP= 0.00E+00 SK= 0.00E+00
   3365 T=   243. E= -.70034351E+03 F= -.70486418E+03 E0= -.70486418E+03  EK= 0.45207E+01 SP= 0.00E+00 SK= 0.00E+00
   3366 T=   242. E= -.70035984E+03 F= -.70487082E+03 E0= -.70487082E+03  EK= 0.45110E+01 SP= 0.00E+00 SK= 0.00E+00
   3367 T=   239. E= -.70039327E+03 F= -.70484492E+03 E0= -.70484492E+03  EK= 0.44517E+01 SP= 0.00E+00 SK= 0.00E+00
   3368 T=   235. E= -.70043545E+03 F= -.70481378E+03 E0= -.70481378E+03  EK= 0.43783E+01 SP= 0.00E+00 SK= 0.00E+00
   3369 T=   234. E= -.70044635E+03 F= -.70480198E+03 E0= -.70480198E+03  EK= 0.43556E+01 SP= 0.00E+00 SK= 0.00E+00
   3370 T=   237. E= -.70042432E+03 F= -.70482764E+03 E0= -.70482764E+03  EK= 0.44033E+01 SP= 0.00E+00 SK= 0.00E+00
   3371 T=   243. E= -.70037408E+03 F= -.70489460E+03 E0= -.70489460E+03  EK= 0.45205E+01 SP= 0.00E+00 SK= 0.00E+00
   3372 T=   249. E= -.70035369E+03 F= -.70498161E+03 E0= -.70498161E+03  EK= 0.46279E+01 SP= 0.00E+00 SK= 0.00E+00
   3373 T=   250. E= -.70036781E+03 F= -.70502741E+03 E0= -.70502741E+03  EK= 0.46596E+01 SP= 0.00E+00 SK= 0.00E+00
   3374 T=   249. E= -.70041853E+03 F= -.70504993E+03 E0= -.70504993E+03  EK= 0.46314E+01 SP= 0.00E+00 SK= 0.00E+00
   3375 T=   243. E= -.70054509E+03 F= -.70507543E+03 E0= -.70507543E+03  EK= 0.45303E+01 SP= 0.00E+00 SK= 0.00E+00
   3376 T=   244. E= -.70061322E+03 F= -.70515653E+03 E0= -.70515653E+03  EK= 0.45433E+01 SP= 0.00E+00 SK= 0.00E+00
   3377 T=   255. E= -.70054033E+03 F= -.70528455E+03 E0= -.70528455E+03  EK= 0.47442E+01 SP= 0.00E+00 SK= 0.00E+00
   3378 T=   262. E= -.70054391E+03 F= -.70541464E+03 E0= -.70541464E+03  EK= 0.48707E+01 SP= 0.00E+00 SK= 0.00E+00
   3379 T=   263. E= -.70060131E+03 F= -.70549018E+03 E0= -.70549018E+03  EK= 0.48889E+01 SP= 0.00E+00 SK= 0.00E+00
   3380 T=   266. E= -.70055625E+03 F= -.70550838E+03 E0= -.70550838E+03  EK= 0.49521E+01 SP= 0.00E+00 SK= 0.00E+00
   3381 T=   270. E= -.70049113E+03 F= -.70551720E+03 E0= -.70551720E+03  EK= 0.50261E+01 SP= 0.00E+00 SK= 0.00E+00
   3382 T=   271. E= -.70046330E+03 F= -.70550223E+03 E0= -.70550223E+03  EK= 0.50389E+01 SP= 0.00E+00 SK= 0.00E+00
   3383 T=   275. E= -.70036141E+03 F= -.70547914E+03 E0= -.70547914E+03  EK= 0.51177E+01 SP= 0.00E+00 SK= 0.00E+00
   3384 T=   273. E= -.70030802E+03 F= -.70539541E+03 E0= -.70539541E+03  EK= 0.50874E+01 SP= 0.00E+00 SK= 0.00E+00
   3385 T=   268. E= -.70033010E+03 F= -.70532363E+03 E0= -.70532363E+03  EK= 0.49935E+01 SP= 0.00E+00 SK= 0.00E+00
   3386 T=   263. E= -.70042348E+03 F= -.70531172E+03 E0= -.70531172E+03  EK= 0.48882E+01 SP= 0.00E+00 SK= 0.00E+00
   3387 T=   260. E= -.70055089E+03 F= -.70539275E+03 E0= -.70539275E+03  EK= 0.48419E+01 SP= 0.00E+00 SK= 0.00E+00
   3388 T=   261. E= -.70059795E+03 F= -.70544778E+03 E0= -.70544778E+03  EK= 0.48498E+01 SP= 0.00E+00 SK= 0.00E+00
   3389 T=   260. E= -.70056659E+03 F= -.70541469E+03 E0= -.70541469E+03  EK= 0.48481E+01 SP= 0.00E+00 SK= 0.00E+00
   3390 T=   255. E= -.70059088E+03 F= -.70534347E+03 E0= -.70534347E+03  EK= 0.47526E+01 SP= 0.00E+00 SK= 0.00E+00
   3391 T=   249. E= -.70067733E+03 F= -.70530921E+03 E0= -.70530921E+03  EK= 0.46319E+01 SP= 0.00E+00 SK= 0.00E+00
   3392 T=   249. E= -.70072118E+03 F= -.70536228E+03 E0= -.70536228E+03  EK= 0.46411E+01 SP= 0.00E+00 SK= 0.00E+00
   3393 T=   257. E= -.70071918E+03 F= -.70549386E+03 E0= -.70549386E+03  EK= 0.47747E+01 SP= 0.00E+00 SK= 0.00E+00
   3394 T=   263. E= -.70068008E+03 F= -.70557260E+03 E0= -.70557260E+03  EK= 0.48925E+01 SP= 0.00E+00 SK= 0.00E+00
   3395 T=   265. E= -.70061233E+03 F= -.70555061E+03 E0= -.70555061E+03  EK= 0.49383E+01 SP= 0.00E+00 SK= 0.00E+00
   3396 T=   258. E= -.70066400E+03 F= -.70545986E+03 E0= -.70545986E+03  EK= 0.47959E+01 SP= 0.00E+00 SK= 0.00E+00
   3397 T=   249. E= -.70069175E+03 F= -.70532926E+03 E0= -.70532926E+03  EK= 0.46375E+01 SP= 0.00E+00 SK= 0.00E+00
   3398 T=   249. E= -.70059997E+03 F= -.70524313E+03 E0= -.70524313E+03  EK= 0.46432E+01 SP= 0.00E+00 SK= 0.00E+00
   3399 T=   254. E= -.70049316E+03 F= -.70522396E+03 E0= -.70522396E+03  EK= 0.47308E+01 SP= 0.00E+00 SK= 0.00E+00
   3400 T=   254. E= -.70050949E+03 F= -.70524565E+03 E0= -.70524565E+03  EK= 0.47362E+01 SP= 0.00E+00 SK= 0.00E+00
   3401 T=   249. E= -.70060105E+03 F= -.70523369E+03 E0= -.70523369E+03  EK= 0.46326E+01 SP= 0.00E+00 SK= 0.00E+00
   3402 T=   245. E= -.70062130E+03 F= -.70518594E+03 E0= -.70518594E+03  EK= 0.45646E+01 SP= 0.00E+00 SK= 0.00E+00
   3403 T=   236. E= -.70069275E+03 F= -.70509174E+03 E0= -.70509174E+03  EK= 0.43990E+01 SP= 0.00E+00 SK= 0.00E+00
   3404 T=   232. E= -.70066309E+03 F= -.70498952E+03 E0= -.70498952E+03  EK= 0.43264E+01 SP= 0.00E+00 SK= 0.00E+00
   3405 T=   230. E= -.70062586E+03 F= -.70490496E+03 E0= -.70490496E+03  EK= 0.42791E+01 SP= 0.00E+00 SK= 0.00E+00
   3406 T=   227. E= -.70063342E+03 F= -.70486729E+03 E0= -.70486729E+03  EK= 0.42339E+01 SP= 0.00E+00 SK= 0.00E+00
   3407 T=   228. E= -.70064353E+03 F= -.70489429E+03 E0= -.70489429E+03  EK= 0.42508E+01 SP= 0.00E+00 SK= 0.00E+00
   3408 T=   236. E= -.70060263E+03 F= -.70499538E+03 E0= -.70499538E+03  EK= 0.43928E+01 SP= 0.00E+00 SK= 0.00E+00
   3409 T=   250. E= -.70051891E+03 F= -.70516666E+03 E0= -.70516666E+03  EK= 0.46478E+01 SP= 0.00E+00 SK= 0.00E+00
   3410 T=   255. E= -.70054900E+03 F= -.70529501E+03 E0= -.70529501E+03  EK= 0.47460E+01 SP= 0.00E+00 SK= 0.00E+00
   3411 T=   258. E= -.70054610E+03 F= -.70533921E+03 E0= -.70533921E+03  EK= 0.47931E+01 SP= 0.00E+00 SK= 0.00E+00
   3412 T=   256. E= -.70051957E+03 F= -.70528672E+03 E0= -.70528672E+03  EK= 0.47672E+01 SP= 0.00E+00 SK= 0.00E+00
   3413 T=   251. E= -.70053056E+03 F= -.70520567E+03 E0= -.70520567E+03  EK= 0.46751E+01 SP= 0.00E+00 SK= 0.00E+00
   3414 T=   247. E= -.70054505E+03 F= -.70515091E+03 E0= -.70515091E+03  EK= 0.46059E+01 SP= 0.00E+00 SK= 0.00E+00
   3415 T=   245. E= -.70058330E+03 F= -.70513502E+03 E0= -.70513502E+03  EK= 0.45517E+01 SP= 0.00E+00 SK= 0.00E+00
   3416 T=   243. E= -.70064872E+03 F= -.70516911E+03 E0= -.70516911E+03  EK= 0.45204E+01 SP= 0.00E+00 SK= 0.00E+00
   3417 T=   244. E= -.70067483E+03 F= -.70521694E+03 E0= -.70521694E+03  EK= 0.45421E+01 SP= 0.00E+00 SK= 0.00E+00
   3418 T=   248. E= -.70066518E+03 F= -.70527314E+03 E0= -.70527314E+03  EK= 0.46080E+01 SP= 0.00E+00 SK= 0.00E+00
   3419 T=   255. E= -.70059076E+03 F= -.70533754E+03 E0= -.70533754E+03  EK= 0.47468E+01 SP= 0.00E+00 SK= 0.00E+00
   3420 T=   258. E= -.70055597E+03 F= -.70535315E+03 E0= -.70535315E+03  EK= 0.47972E+01 SP= 0.00E+00 SK= 0.00E+00
   3421 T=   256. E= -.70054602E+03 F= -.70530940E+03 E0= -.70530940E+03  EK= 0.47634E+01 SP= 0.00E+00 SK= 0.00E+00
   3422 T=   249. E= -.70055167E+03 F= -.70518908E+03 E0= -.70518908E+03  EK= 0.46374E+01 SP= 0.00E+00 SK= 0.00E+00
   3423 T=   242. E= -.70055510E+03 F= -.70506272E+03 E0= -.70506272E+03  EK= 0.45076E+01 SP= 0.00E+00 SK= 0.00E+00
   3424 T=   242. E= -.70047163E+03 F= -.70496972E+03 E0= -.70496972E+03  EK= 0.44981E+01 SP= 0.00E+00 SK= 0.00E+00
   3425 T=   243. E= -.70044701E+03 F= -.70497514E+03 E0= -.70497514E+03  EK= 0.45281E+01 SP= 0.00E+00 SK= 0.00E+00
   3426 T=   250. E= -.70040944E+03 F= -.70506086E+03 E0= -.70506086E+03  EK= 0.46514E+01 SP= 0.00E+00 SK= 0.00E+00
   3427 T=   259. E= -.70036099E+03 F= -.70517848E+03 E0= -.70517848E+03  EK= 0.48175E+01 SP= 0.00E+00 SK= 0.00E+00
   3428 T=   258. E= -.70045850E+03 F= -.70526402E+03 E0= -.70526402E+03  EK= 0.48055E+01 SP= 0.00E+00 SK= 0.00E+00
   3429 T=   253. E= -.70058071E+03 F= -.70528259E+03 E0= -.70528259E+03  EK= 0.47019E+01 SP= 0.00E+00 SK= 0.00E+00
   3430 T=   244. E= -.70064697E+03 F= -.70519348E+03 E0= -.70519348E+03  EK= 0.45465E+01 SP= 0.00E+00 SK= 0.00E+00
   3431 T=   236. E= -.70066794E+03 F= -.70505920E+03 E0= -.70505920E+03  EK= 0.43913E+01 SP= 0.00E+00 SK= 0.00E+00
   3432 T=   231. E= -.70067445E+03 F= -.70497269E+03 E0= -.70497269E+03  EK= 0.42982E+01 SP= 0.00E+00 SK= 0.00E+00
   3433 T=   231. E= -.70069329E+03 F= -.70498583E+03 E0= -.70498583E+03  EK= 0.42925E+01 SP= 0.00E+00 SK= 0.00E+00
   3434 T=   237. E= -.70065886E+03 F= -.70507005E+03 E0= -.70507005E+03  EK= 0.44112E+01 SP= 0.00E+00 SK= 0.00E+00
   3435 T=   242. E= -.70063381E+03 F= -.70514490E+03 E0= -.70514490E+03  EK= 0.45111E+01 SP= 0.00E+00 SK= 0.00E+00
   3436 T=   244. E= -.70064055E+03 F= -.70517650E+03 E0= -.70517650E+03  EK= 0.45360E+01 SP= 0.00E+00 SK= 0.00E+00
   3437 T=   243. E= -.70064432E+03 F= -.70516318E+03 E0= -.70516318E+03  EK= 0.45189E+01 SP= 0.00E+00 SK= 0.00E+00
   3438 T=   240. E= -.70066779E+03 F= -.70513989E+03 E0= -.70513989E+03  EK= 0.44721E+01 SP= 0.00E+00 SK= 0.00E+00
   3439 T=   242. E= -.70066373E+03 F= -.70516869E+03 E0= -.70516869E+03  EK= 0.45050E+01 SP= 0.00E+00 SK= 0.00E+00
   3440 T=   247. E= -.70064731E+03 F= -.70523813E+03 E0= -.70523813E+03  EK= 0.45908E+01 SP= 0.00E+00 SK= 0.00E+00
   3441 T=   249. E= -.70066106E+03 F= -.70529882E+03 E0= -.70529882E+03  EK= 0.46378E+01 SP= 0.00E+00 SK= 0.00E+00
   3442 T=   250. E= -.70068427E+03 F= -.70534101E+03 E0= -.70534101E+03  EK= 0.46567E+01 SP= 0.00E+00 SK= 0.00E+00
   3443 T=   253. E= -.70062444E+03 F= -.70533524E+03 E0= -.70533524E+03  EK= 0.47108E+01 SP= 0.00E+00 SK= 0.00E+00
   3444 T=   256. E= -.70052909E+03 F= -.70529479E+03 E0= -.70529479E+03  EK= 0.47657E+01 SP= 0.00E+00 SK= 0.00E+00
   3445 T=   253. E= -.70052086E+03 F= -.70523096E+03 E0= -.70523096E+03  EK= 0.47101E+01 SP= 0.00E+00 SK= 0.00E+00
   3446 T=   248. E= -.70058166E+03 F= -.70520256E+03 E0= -.70520256E+03  EK= 0.46209E+01 SP= 0.00E+00 SK= 0.00E+00
   3447 T=   245. E= -.70060465E+03 F= -.70516035E+03 E0= -.70516035E+03  EK= 0.45557E+01 SP= 0.00E+00 SK= 0.00E+00
   3448 T=   247. E= -.70060342E+03 F= -.70519252E+03 E0= -.70519252E+03  EK= 0.45891E+01 SP= 0.00E+00 SK= 0.00E+00
   3449 T=   243. E= -.70073588E+03 F= -.70526005E+03 E0= -.70526005E+03  EK= 0.45242E+01 SP= 0.00E+00 SK= 0.00E+00
   3450 T=   241. E= -.70083190E+03 F= -.70532597E+03 E0= -.70532597E+03  EK= 0.44941E+01 SP= 0.00E+00 SK= 0.00E+00
   3451 T=   246. E= -.70076619E+03 F= -.70534922E+03 E0= -.70534922E+03  EK= 0.45830E+01 SP= 0.00E+00 SK= 0.00E+00
   3452 T=   246. E= -.70073737E+03 F= -.70530716E+03 E0= -.70530716E+03  EK= 0.45698E+01 SP= 0.00E+00 SK= 0.00E+00
   3453 T=   241. E= -.70077203E+03 F= -.70526028E+03 E0= -.70526028E+03  EK= 0.44883E+01 SP= 0.00E+00 SK= 0.00E+00
   3454 T=   243. E= -.70075897E+03 F= -.70527963E+03 E0= -.70527963E+03  EK= 0.45207E+01 SP= 0.00E+00 SK= 0.00E+00
   3455 T=   252. E= -.70072941E+03 F= -.70541558E+03 E0= -.70541558E+03  EK= 0.46862E+01 SP= 0.00E+00 SK= 0.00E+00
   3456 T=   262. E= -.70068472E+03 F= -.70556525E+03 E0= -.70556525E+03  EK= 0.48805E+01 SP= 0.00E+00 SK= 0.00E+00
   3457 T=   265. E= -.70068334E+03 F= -.70560755E+03 E0= -.70560755E+03  EK= 0.49242E+01 SP= 0.00E+00 SK= 0.00E+00
   3458 T=   262. E= -.70067527E+03 F= -.70555935E+03 E0= -.70555935E+03  EK= 0.48841E+01 SP= 0.00E+00 SK= 0.00E+00
   3459 T=   258. E= -.70062342E+03 F= -.70541868E+03 E0= -.70541868E+03  EK= 0.47953E+01 SP= 0.00E+00 SK= 0.00E+00
   3460 T=   256. E= -.70055464E+03 F= -.70531398E+03 E0= -.70531398E+03  EK= 0.47593E+01 SP= 0.00E+00 SK= 0.00E+00
   3461 T=   251. E= -.70057208E+03 F= -.70524624E+03 E0= -.70524624E+03  EK= 0.46742E+01 SP= 0.00E+00 SK= 0.00E+00
   3462 T=   250. E= -.70061029E+03 F= -.70525532E+03 E0= -.70525532E+03  EK= 0.46450E+01 SP= 0.00E+00 SK= 0.00E+00
   3463 T=   250. E= -.70064650E+03 F= -.70529756E+03 E0= -.70529756E+03  EK= 0.46511E+01 SP= 0.00E+00 SK= 0.00E+00
   3464 T=   256. E= -.70062234E+03 F= -.70538494E+03 E0= -.70538494E+03  EK= 0.47626E+01 SP= 0.00E+00 SK= 0.00E+00
   3465 T=   262. E= -.70059616E+03 F= -.70547794E+03 E0= -.70547794E+03  EK= 0.48818E+01 SP= 0.00E+00 SK= 0.00E+00
   3466 T=   261. E= -.70063061E+03 F= -.70549486E+03 E0= -.70549486E+03  EK= 0.48643E+01 SP= 0.00E+00 SK= 0.00E+00
   3467 T=   256. E= -.70065687E+03 F= -.70541695E+03 E0= -.70541695E+03  EK= 0.47601E+01 SP= 0.00E+00 SK= 0.00E+00
   3468 T=   244. E= -.70068609E+03 F= -.70523328E+03 E0= -.70523328E+03  EK= 0.45472E+01 SP= 0.00E+00 SK= 0.00E+00
   3469 T=   239. E= -.70064040E+03 F= -.70508281E+03 E0= -.70508281E+03  EK= 0.44424E+01 SP= 0.00E+00 SK= 0.00E+00
   3470 T=   246. E= -.70052044E+03 F= -.70509327E+03 E0= -.70509327E+03  EK= 0.45728E+01 SP= 0.00E+00 SK= 0.00E+00
   3471 T=   263. E= -.70044592E+03 F= -.70533872E+03 E0= -.70533872E+03  EK= 0.48928E+01 SP= 0.00E+00 SK= 0.00E+00
   3472 T=   278. E= -.70050673E+03 F= -.70567224E+03 E0= -.70567224E+03  EK= 0.51655E+01 SP= 0.00E+00 SK= 0.00E+00
   3473 T=   290. E= -.70053965E+03 F= -.70593375E+03 E0= -.70593375E+03  EK= 0.53941E+01 SP= 0.00E+00 SK= 0.00E+00
   3474 T=   296. E= -.70050006E+03 F= -.70600222E+03 E0= -.70600222E+03  EK= 0.55022E+01 SP= 0.00E+00 SK= 0.00E+00
   3475 T=   289. E= -.70045022E+03 F= -.70583796E+03 E0= -.70583796E+03  EK= 0.53877E+01 SP= 0.00E+00 SK= 0.00E+00
   3476 T=   278. E= -.70034805E+03 F= -.70551479E+03 E0= -.70551479E+03  EK= 0.51667E+01 SP= 0.00E+00 SK= 0.00E+00
   3477 T=   261. E= -.70031226E+03 F= -.70516354E+03 E0= -.70516354E+03  EK= 0.48513E+01 SP= 0.00E+00 SK= 0.00E+00
   3478 T=   251. E= -.70030939E+03 F= -.70497245E+03 E0= -.70497245E+03  EK= 0.46631E+01 SP= 0.00E+00 SK= 0.00E+00
   3479 T=   256. E= -.70023481E+03 F= -.70499069E+03 E0= -.70499069E+03  EK= 0.47559E+01 SP= 0.00E+00 SK= 0.00E+00
   3480 T=   267. E= -.70017901E+03 F= -.70514083E+03 E0= -.70514083E+03  EK= 0.49618E+01 SP= 0.00E+00 SK= 0.00E+00
   3481 T=   274. E= -.70017381E+03 F= -.70528214E+03 E0= -.70528214E+03  EK= 0.51083E+01 SP= 0.00E+00 SK= 0.00E+00
   3482 T=   272. E= -.70022054E+03 F= -.70527755E+03 E0= -.70527755E+03  EK= 0.50570E+01 SP= 0.00E+00 SK= 0.00E+00
   3483 T=   263. E= -.70021302E+03 F= -.70511605E+03 E0= -.70511605E+03  EK= 0.49030E+01 SP= 0.00E+00 SK= 0.00E+00
   3484 T=   253. E= -.70018912E+03 F= -.70489593E+03 E0= -.70489593E+03  EK= 0.47068E+01 SP= 0.00E+00 SK= 0.00E+00
   3485 T=   242. E= -.70023587E+03 F= -.70474842E+03 E0= -.70474842E+03  EK= 0.45126E+01 SP= 0.00E+00 SK= 0.00E+00
   3486 T=   238. E= -.70027478E+03 F= -.70470342E+03 E0= -.70470342E+03  EK= 0.44286E+01 SP= 0.00E+00 SK= 0.00E+00
   3487 T=   248. E= -.70026722E+03 F= -.70488598E+03 E0= -.70488598E+03  EK= 0.46188E+01 SP= 0.00E+00 SK= 0.00E+00
   3488 T=   265. E= -.70023553E+03 F= -.70516440E+03 E0= -.70516440E+03  EK= 0.49289E+01 SP= 0.00E+00 SK= 0.00E+00
   3489 T=   277. E= -.70024604E+03 F= -.70540003E+03 E0= -.70540003E+03  EK= 0.51540E+01 SP= 0.00E+00 SK= 0.00E+00
   3490 T=   282. E= -.70026074E+03 F= -.70550987E+03 E0= -.70550987E+03  EK= 0.52491E+01 SP= 0.00E+00 SK= 0.00E+00
   3491 T=   281. E= -.70024392E+03 F= -.70546587E+03 E0= -.70546587E+03  EK= 0.52220E+01 SP= 0.00E+00 SK= 0.00E+00
   3492 T=   274. E= -.70019841E+03 F= -.70529306E+03 E0= -.70529306E+03  EK= 0.50947E+01 SP= 0.00E+00 SK= 0.00E+00
   3493 T=   266. E= -.70013967E+03 F= -.70509591E+03 E0= -.70509591E+03  EK= 0.49562E+01 SP= 0.00E+00 SK= 0.00E+00
   3494 T=   264. E= -.70004698E+03 F= -.70495340E+03 E0= -.70495340E+03  EK= 0.49064E+01 SP= 0.00E+00 SK= 0.00E+00
   3495 T=   265. E= -.69997658E+03 F= -.70490994E+03 E0= -.70490994E+03  EK= 0.49334E+01 SP= 0.00E+00 SK= 0.00E+00
   3496 T=   266. E= -.69997696E+03 F= -.70493437E+03 E0= -.70493437E+03  EK= 0.49574E+01 SP= 0.00E+00 SK= 0.00E+00
   3497 T=   273. E= -.69988369E+03 F= -.70495996E+03 E0= -.70495996E+03  EK= 0.50763E+01 SP= 0.00E+00 SK= 0.00E+00
   3498 T=   277. E= -.69976894E+03 F= -.70492185E+03 E0= -.70492185E+03  EK= 0.51529E+01 SP= 0.00E+00 SK= 0.00E+00
   3499 T=   271. E= -.69973254E+03 F= -.70478570E+03 E0= -.70478570E+03  EK= 0.50532E+01 SP= 0.00E+00 SK= 0.00E+00
   3500 T=   266. E= -.69969715E+03 F= -.70465397E+03 E0= -.70465397E+03  EK= 0.49568E+01 SP= 0.00E+00 SK= 0.00E+00
   3501 T=   261. E= -.69971111E+03 F= -.70457384E+03 E0= -.70457384E+03  EK= 0.48627E+01 SP= 0.00E+00 SK= 0.00E+00
   3502 T=   264. E= -.69968678E+03 F= -.70459938E+03 E0= -.70459938E+03  EK= 0.49126E+01 SP= 0.00E+00 SK= 0.00E+00
   3503 T=   275. E= -.69962832E+03 F= -.70474881E+03 E0= -.70474881E+03  EK= 0.51205E+01 SP= 0.00E+00 SK= 0.00E+00
   3504 T=   281. E= -.69972494E+03 F= -.70496022E+03 E0= -.70496022E+03  EK= 0.52353E+01 SP= 0.00E+00 SK= 0.00E+00
   3505 T=   284. E= -.69985855E+03 F= -.70513550E+03 E0= -.70513550E+03  EK= 0.52770E+01 SP= 0.00E+00 SK= 0.00E+00
   3506 T=   280. E= -.69996690E+03 F= -.70518307E+03 E0= -.70518307E+03  EK= 0.52162E+01 SP= 0.00E+00 SK= 0.00E+00
   3507 T=   275. E= -.70002863E+03 F= -.70514291E+03 E0= -.70514291E+03  EK= 0.51143E+01 SP= 0.00E+00 SK= 0.00E+00
   3508 T=   270. E= -.70001842E+03 F= -.70504404E+03 E0= -.70504404E+03  EK= 0.50256E+01 SP= 0.00E+00 SK= 0.00E+00
   3509 T=   269. E= -.69997296E+03 F= -.70498542E+03 E0= -.70498542E+03  EK= 0.50125E+01 SP= 0.00E+00 SK= 0.00E+00
   3510 T=   275. E= -.69990741E+03 F= -.70502480E+03 E0= -.70502480E+03  EK= 0.51174E+01 SP= 0.00E+00 SK= 0.00E+00
   3511 T=   281. E= -.69983762E+03 F= -.70507217E+03 E0= -.70507217E+03  EK= 0.52345E+01 SP= 0.00E+00 SK= 0.00E+00
   3512 T=   281. E= -.69985720E+03 F= -.70508466E+03 E0= -.70508466E+03  EK= 0.52275E+01 SP= 0.00E+00 SK= 0.00E+00
   3513 T=   278. E= -.69985683E+03 F= -.70503637E+03 E0= -.70503637E+03  EK= 0.51795E+01 SP= 0.00E+00 SK= 0.00E+00
   3514 T=   280. E= -.69974579E+03 F= -.70494917E+03 E0= -.70494917E+03  EK= 0.52034E+01 SP= 0.00E+00 SK= 0.00E+00
   3515 T=   276. E= -.69970763E+03 F= -.70485293E+03 E0= -.70485293E+03  EK= 0.51453E+01 SP= 0.00E+00 SK= 0.00E+00
   3516 T=   272. E= -.69972852E+03 F= -.70478856E+03 E0= -.70478856E+03  EK= 0.50600E+01 SP= 0.00E+00 SK= 0.00E+00
   3517 T=   276. E= -.69970304E+03 F= -.70483950E+03 E0= -.70483950E+03  EK= 0.51365E+01 SP= 0.00E+00 SK= 0.00E+00
   3518 T=   286. E= -.69965823E+03 F= -.70498845E+03 E0= -.70498845E+03  EK= 0.53302E+01 SP= 0.00E+00 SK= 0.00E+00
   3519 T=   298. E= -.69960074E+03 F= -.70514444E+03 E0= -.70514444E+03  EK= 0.55437E+01 SP= 0.00E+00 SK= 0.00E+00
   3520 T=   297. E= -.69962258E+03 F= -.70515408E+03 E0= -.70515408E+03  EK= 0.55315E+01 SP= 0.00E+00 SK= 0.00E+00
   3521 T=   285. E= -.69964178E+03 F= -.70495103E+03 E0= -.70495103E+03  EK= 0.53092E+01 SP= 0.00E+00 SK= 0.00E+00
   3522 T=   273. E= -.69958075E+03 F= -.70467059E+03 E0= -.70467059E+03  EK= 0.50898E+01 SP= 0.00E+00 SK= 0.00E+00
   3523 T=   266. E= -.69951455E+03 F= -.70447458E+03 E0= -.70447458E+03  EK= 0.49600E+01 SP= 0.00E+00 SK= 0.00E+00
   3524 T=   271. E= -.69945547E+03 F= -.70449167E+03 E0= -.70449167E+03  EK= 0.50362E+01 SP= 0.00E+00 SK= 0.00E+00
   3525 T=   287. E= -.69936240E+03 F= -.70470615E+03 E0= -.70470615E+03  EK= 0.53437E+01 SP= 0.00E+00 SK= 0.00E+00
   3526 T=   302. E= -.69934649E+03 F= -.70496034E+03 E0= -.70496034E+03  EK= 0.56138E+01 SP= 0.00E+00 SK= 0.00E+00
   3527 T=   302. E= -.69944127E+03 F= -.70505518E+03 E0= -.70505518E+03  EK= 0.56139E+01 SP= 0.00E+00 SK= 0.00E+00
   3528 T=   293. E= -.69950085E+03 F= -.70496087E+03 E0= -.70496087E+03  EK= 0.54600E+01 SP= 0.00E+00 SK= 0.00E+00
   3529 T=   278. E= -.69950693E+03 F= -.70467609E+03 E0= -.70467609E+03  EK= 0.51692E+01 SP= 0.00E+00 SK= 0.00E+00
   3530 T=   265. E= -.69944979E+03 F= -.70438508E+03 E0= -.70438508E+03  EK= 0.49353E+01 SP= 0.00E+00 SK= 0.00E+00
   3531 T=   262. E= -.69931450E+03 F= -.70419785E+03 E0= -.70419785E+03  EK= 0.48833E+01 SP= 0.00E+00 SK= 0.00E+00
   3532 T=   270. E= -.69922564E+03 F= -.70424216E+03 E0= -.70424216E+03  EK= 0.50165E+01 SP= 0.00E+00 SK= 0.00E+00
   3533 T=   280. E= -.69924925E+03 F= -.70446654E+03 E0= -.70446654E+03  EK= 0.52173E+01 SP= 0.00E+00 SK= 0.00E+00
   3534 T=   297. E= -.69923582E+03 F= -.70476594E+03 E0= -.70476594E+03  EK= 0.55301E+01 SP= 0.00E+00 SK= 0.00E+00
   3535 T=   311. E= -.69916672E+03 F= -.70495959E+03 E0= -.70495959E+03  EK= 0.57929E+01 SP= 0.00E+00 SK= 0.00E+00
   3536 T=   313. E= -.69911091E+03 F= -.70493286E+03 E0= -.70493286E+03  EK= 0.58220E+01 SP= 0.00E+00 SK= 0.00E+00
   3537 T=   305. E= -.69903593E+03 F= -.70470591E+03 E0= -.70470591E+03  EK= 0.56700E+01 SP= 0.00E+00 SK= 0.00E+00
   3538 T=   291. E= -.69901048E+03 F= -.70442752E+03 E0= -.70442752E+03  EK= 0.54170E+01 SP= 0.00E+00 SK= 0.00E+00
   3539 T=   281. E= -.69903956E+03 F= -.70427136E+03 E0= -.70427136E+03  EK= 0.52318E+01 SP= 0.00E+00 SK= 0.00E+00
   3540 T=   283. E= -.69907192E+03 F= -.70434506E+03 E0= -.70434506E+03  EK= 0.52731E+01 SP= 0.00E+00 SK= 0.00E+00
   3541 T=   299. E= -.69904095E+03 F= -.70461119E+03 E0= -.70461119E+03  EK= 0.55702E+01 SP= 0.00E+00 SK= 0.00E+00
   3542 T=   315. E= -.69903245E+03 F= -.70489727E+03 E0= -.70489727E+03  EK= 0.58648E+01 SP= 0.00E+00 SK= 0.00E+00
   3543 T=   320. E= -.69906373E+03 F= -.70502471E+03 E0= -.70502471E+03  EK= 0.59610E+01 SP= 0.00E+00 SK= 0.00E+00
   3544 T=   315. E= -.69907724E+03 F= -.70494464E+03 E0= -.70494464E+03  EK= 0.58674E+01 SP= 0.00E+00 SK= 0.00E+00
   3545 T=   304. E= -.69901138E+03 F= -.70467746E+03 E0= -.70467746E+03  EK= 0.56661E+01 SP= 0.00E+00 SK= 0.00E+00
   3546 T=   294. E= -.69891573E+03 F= -.70439126E+03 E0= -.70439126E+03  EK= 0.54755E+01 SP= 0.00E+00 SK= 0.00E+00
   3547 T=   282. E= -.69898278E+03 F= -.70423684E+03 E0= -.70423684E+03  EK= 0.52541E+01 SP= 0.00E+00 SK= 0.00E+00
   3548 T=   276. E= -.69911664E+03 F= -.70425132E+03 E0= -.70425132E+03  EK= 0.51347E+01 SP= 0.00E+00 SK= 0.00E+00
   3549 T=   281. E= -.69916428E+03 F= -.70439814E+03 E0= -.70439814E+03  EK= 0.52339E+01 SP= 0.00E+00 SK= 0.00E+00
   3550 T=   291. E= -.69914425E+03 F= -.70456744E+03 E0= -.70456744E+03  EK= 0.54232E+01 SP= 0.00E+00 SK= 0.00E+00
   3551 T=   294. E= -.69919036E+03 F= -.70466724E+03 E0= -.70466724E+03  EK= 0.54769E+01 SP= 0.00E+00 SK= 0.00E+00
   3552 T=   291. E= -.69922488E+03 F= -.70464973E+03 E0= -.70464973E+03  EK= 0.54248E+01 SP= 0.00E+00 SK= 0.00E+00
   3553 T=   287. E= -.69920501E+03 F= -.70454061E+03 E0= -.70454061E+03  EK= 0.53356E+01 SP= 0.00E+00 SK= 0.00E+00
   3554 T=   284. E= -.69910810E+03 F= -.70440128E+03 E0= -.70440128E+03  EK= 0.52932E+01 SP= 0.00E+00 SK= 0.00E+00
   3555 T=   285. E= -.69903062E+03 F= -.70433063E+03 E0= -.70433063E+03  EK= 0.53000E+01 SP= 0.00E+00 SK= 0.00E+00
   3556 T=   282. E= -.69911174E+03 F= -.70435888E+03 E0= -.70435888E+03  EK= 0.52471E+01 SP= 0.00E+00 SK= 0.00E+00
   3557 T=   284. E= -.69919412E+03 F= -.70447559E+03 E0= -.70447559E+03  EK= 0.52815E+01 SP= 0.00E+00 SK= 0.00E+00
   3558 T=   291. E= -.69915585E+03 F= -.70457797E+03 E0= -.70457797E+03  EK= 0.54221E+01 SP= 0.00E+00 SK= 0.00E+00
   3559 T=   290. E= -.69916239E+03 F= -.70455365E+03 E0= -.70455365E+03  EK= 0.53913E+01 SP= 0.00E+00 SK= 0.00E+00
   3560 T=   280. E= -.69922540E+03 F= -.70443470E+03 E0= -.70443470E+03  EK= 0.52093E+01 SP= 0.00E+00 SK= 0.00E+00
   3561 T=   273. E= -.69920452E+03 F= -.70429093E+03 E0= -.70429093E+03  EK= 0.50864E+01 SP= 0.00E+00 SK= 0.00E+00
   3562 T=   267. E= -.69921291E+03 F= -.70418067E+03 E0= -.70418067E+03  EK= 0.49678E+01 SP= 0.00E+00 SK= 0.00E+00
   3563 T=   265. E= -.69916644E+03 F= -.70409759E+03 E0= -.70409759E+03  EK= 0.49311E+01 SP= 0.00E+00 SK= 0.00E+00
   3564 T=   264. E= -.69913440E+03 F= -.70404431E+03 E0= -.70404431E+03  EK= 0.49099E+01 SP= 0.00E+00 SK= 0.00E+00
   3565 T=   260. E= -.69919548E+03 F= -.70403951E+03 E0= -.70403951E+03  EK= 0.48440E+01 SP= 0.00E+00 SK= 0.00E+00
   3566 T=   265. E= -.69913913E+03 F= -.70407293E+03 E0= -.70407293E+03  EK= 0.49338E+01 SP= 0.00E+00 SK= 0.00E+00
   3567 T=   274. E= -.69905790E+03 F= -.70416304E+03 E0= -.70416304E+03  EK= 0.51051E+01 SP= 0.00E+00 SK= 0.00E+00
   3568 T=   278. E= -.69903699E+03 F= -.70420509E+03 E0= -.70420509E+03  EK= 0.51681E+01 SP= 0.00E+00 SK= 0.00E+00
   3569 T=   279. E= -.69901373E+03 F= -.70420308E+03 E0= -.70420308E+03  EK= 0.51893E+01 SP= 0.00E+00 SK= 0.00E+00
   3570 T=   277. E= -.69903635E+03 F= -.70418330E+03 E0= -.70418330E+03  EK= 0.51470E+01 SP= 0.00E+00 SK= 0.00E+00
   3571 T=   271. E= -.69909887E+03 F= -.70415234E+03 E0= -.70415234E+03  EK= 0.50535E+01 SP= 0.00E+00 SK= 0.00E+00
   3572 T=   272. E= -.69909925E+03 F= -.70416159E+03 E0= -.70416159E+03  EK= 0.50623E+01 SP= 0.00E+00 SK= 0.00E+00
   3573 T=   279. E= -.69903292E+03 F= -.70421996E+03 E0= -.70421996E+03  EK= 0.51870E+01 SP= 0.00E+00 SK= 0.00E+00
   3574 T=   286. E= -.69897074E+03 F= -.70429816E+03 E0= -.70429816E+03  EK= 0.53274E+01 SP= 0.00E+00 SK= 0.00E+00
   3575 T=   290. E= -.69891161E+03 F= -.70431796E+03 E0= -.70431796E+03  EK= 0.54063E+01 SP= 0.00E+00 SK= 0.00E+00
   3576 T=   293. E= -.69881680E+03 F= -.70426364E+03 E0= -.70426364E+03  EK= 0.54468E+01 SP= 0.00E+00 SK= 0.00E+00
   3577 T=   287. E= -.69882220E+03 F= -.70417273E+03 E0= -.70417273E+03  EK= 0.53505E+01 SP= 0.00E+00 SK= 0.00E+00
   3578 T=   281. E= -.69882696E+03 F= -.70406317E+03 E0= -.70406317E+03  EK= 0.52362E+01 SP= 0.00E+00 SK= 0.00E+00
   3579 T=   278. E= -.69879185E+03 F= -.70396315E+03 E0= -.70396315E+03  EK= 0.51713E+01 SP= 0.00E+00 SK= 0.00E+00
   3580 T=   281. E= -.69870792E+03 F= -.70393205E+03 E0= -.70393205E+03  EK= 0.52241E+01 SP= 0.00E+00 SK= 0.00E+00
   3581 T=   284. E= -.69869673E+03 F= -.70398186E+03 E0= -.70398186E+03  EK= 0.52851E+01 SP= 0.00E+00 SK= 0.00E+00
   3582 T=   288. E= -.69872773E+03 F= -.70409553E+03 E0= -.70409553E+03  EK= 0.53678E+01 SP= 0.00E+00 SK= 0.00E+00
   3583 T=   298. E= -.69868261E+03 F= -.70422332E+03 E0= -.70422332E+03  EK= 0.55407E+01 SP= 0.00E+00 SK= 0.00E+00
   3584 T=   300. E= -.69871627E+03 F= -.70429845E+03 E0= -.70429845E+03  EK= 0.55822E+01 SP= 0.00E+00 SK= 0.00E+00
   3585 T=   291. E= -.69888004E+03 F= -.70429790E+03 E0= -.70429790E+03  EK= 0.54179E+01 SP= 0.00E+00 SK= 0.00E+00
   3586 T=   290. E= -.69888051E+03 F= -.70428374E+03 E0= -.70428374E+03  EK= 0.54032E+01 SP= 0.00E+00 SK= 0.00E+00
   3587 T=   292. E= -.69886668E+03 F= -.70430534E+03 E0= -.70430534E+03  EK= 0.54387E+01 SP= 0.00E+00 SK= 0.00E+00
   3588 T=   293. E= -.69887440E+03 F= -.70433723E+03 E0= -.70433723E+03  EK= 0.54628E+01 SP= 0.00E+00 SK= 0.00E+00
   3589 T=   299. E= -.69880692E+03 F= -.70436993E+03 E0= -.70436993E+03  EK= 0.55630E+01 SP= 0.00E+00 SK= 0.00E+00
   3590 T=   301. E= -.69881108E+03 F= -.70442121E+03 E0= -.70442121E+03  EK= 0.56101E+01 SP= 0.00E+00 SK= 0.00E+00
   3591 T=   301. E= -.69884501E+03 F= -.70445174E+03 E0= -.70445174E+03  EK= 0.56067E+01 SP= 0.00E+00 SK= 0.00E+00
   3592 T=   301. E= -.69884836E+03 F= -.70445420E+03 E0= -.70445420E+03  EK= 0.56058E+01 SP= 0.00E+00 SK= 0.00E+00
   3593 T=   301. E= -.69883260E+03 F= -.70442660E+03 E0= -.70442660E+03  EK= 0.55940E+01 SP= 0.00E+00 SK= 0.00E+00
   3594 T=   295. E= -.69887421E+03 F= -.70436187E+03 E0= -.70436187E+03  EK= 0.54877E+01 SP= 0.00E+00 SK= 0.00E+00
   3595 T=   285. E= -.69891998E+03 F= -.70422500E+03 E0= -.70422500E+03  EK= 0.53050E+01 SP= 0.00E+00 SK= 0.00E+00
   3596 T=   275. E= -.69893568E+03 F= -.70405274E+03 E0= -.70405274E+03  EK= 0.51171E+01 SP= 0.00E+00 SK= 0.00E+00
   3597 T=   266. E= -.69894499E+03 F= -.70389778E+03 E0= -.70389778E+03  EK= 0.49528E+01 SP= 0.00E+00 SK= 0.00E+00
   3598 T=   261. E= -.69897128E+03 F= -.70383446E+03 E0= -.70383446E+03  EK= 0.48632E+01 SP= 0.00E+00 SK= 0.00E+00
   3599 T=   261. E= -.69903848E+03 F= -.70390000E+03 E0= -.70390000E+03  EK= 0.48615E+01 SP= 0.00E+00 SK= 0.00E+00
   3600 T=   267. E= -.69908049E+03 F= -.70404954E+03 E0= -.70404954E+03  EK= 0.49691E+01 SP= 0.00E+00 SK= 0.00E+00
   3601 T=   273. E= -.69912193E+03 F= -.70420735E+03 E0= -.70420735E+03  EK= 0.50854E+01 SP= 0.00E+00 SK= 0.00E+00
   3602 T=   277. E= -.69916484E+03 F= -.70432965E+03 E0= -.70432965E+03  EK= 0.51648E+01 SP= 0.00E+00 SK= 0.00E+00
   3603 T=   282. E= -.69914708E+03 F= -.70438761E+03 E0= -.70438761E+03  EK= 0.52405E+01 SP= 0.00E+00 SK= 0.00E+00
   3604 T=   282. E= -.69915427E+03 F= -.70440798E+03 E0= -.70440798E+03  EK= 0.52537E+01 SP= 0.00E+00 SK= 0.00E+00
   3605 T=   284. E= -.69915617E+03 F= -.70444317E+03 E0= -.70444317E+03  EK= 0.52870E+01 SP= 0.00E+00 SK= 0.00E+00
   3606 T=   290. E= -.69914366E+03 F= -.70453780E+03 E0= -.70453780E+03  EK= 0.53941E+01 SP= 0.00E+00 SK= 0.00E+00
   3607 T=   295. E= -.69919599E+03 F= -.70468839E+03 E0= -.70468839E+03  EK= 0.54924E+01 SP= 0.00E+00 SK= 0.00E+00
   3608 T=   299. E= -.69928738E+03 F= -.70485112E+03 E0= -.70485112E+03  EK= 0.55637E+01 SP= 0.00E+00 SK= 0.00E+00
   3609 T=   302. E= -.69935827E+03 F= -.70498405E+03 E0= -.70498405E+03  EK= 0.56258E+01 SP= 0.00E+00 SK= 0.00E+00
   3610 T=   305. E= -.69943140E+03 F= -.70510789E+03 E0= -.70510789E+03  EK= 0.56765E+01 SP= 0.00E+00 SK= 0.00E+00
   3611 T=   308. E= -.69945437E+03 F= -.70519574E+03 E0= -.70519574E+03  EK= 0.57414E+01 SP= 0.00E+00 SK= 0.00E+00
   3612 T=   308. E= -.69946689E+03 F= -.70519213E+03 E0= -.70519213E+03  EK= 0.57252E+01 SP= 0.00E+00 SK= 0.00E+00
   3613 T=   297. E= -.69958697E+03 F= -.70510859E+03 E0= -.70510859E+03  EK= 0.55216E+01 SP= 0.00E+00 SK= 0.00E+00
   3614 T=   288. E= -.69961747E+03 F= -.70497117E+03 E0= -.70497117E+03  EK= 0.53537E+01 SP= 0.00E+00 SK= 0.00E+00
   3615 T=   280. E= -.69964484E+03 F= -.70485369E+03 E0= -.70485369E+03  EK= 0.52089E+01 SP= 0.00E+00 SK= 0.00E+00
   3616 T=   275. E= -.69970087E+03 F= -.70481556E+03 E0= -.70481556E+03  EK= 0.51147E+01 SP= 0.00E+00 SK= 0.00E+00
   3617 T=   278. E= -.69970743E+03 F= -.70487747E+03 E0= -.70487747E+03  EK= 0.51700E+01 SP= 0.00E+00 SK= 0.00E+00
   3618 T=   283. E= -.69971946E+03 F= -.70498433E+03 E0= -.70498433E+03  EK= 0.52649E+01 SP= 0.00E+00 SK= 0.00E+00
   3619 T=   291. E= -.69966466E+03 F= -.70509035E+03 E0= -.70509035E+03  EK= 0.54257E+01 SP= 0.00E+00 SK= 0.00E+00
   3620 T=   295. E= -.69964300E+03 F= -.70512797E+03 E0= -.70512797E+03  EK= 0.54850E+01 SP= 0.00E+00 SK= 0.00E+00
   3621 T=   289. E= -.69972134E+03 F= -.70510605E+03 E0= -.70510605E+03  EK= 0.53847E+01 SP= 0.00E+00 SK= 0.00E+00
   3622 T=   281. E= -.69981400E+03 F= -.70504372E+03 E0= -.70504372E+03  EK= 0.52297E+01 SP= 0.00E+00 SK= 0.00E+00
   3623 T=   276. E= -.69980401E+03 F= -.70494529E+03 E0= -.70494529E+03  EK= 0.51413E+01 SP= 0.00E+00 SK= 0.00E+00
   3624 T=   276. E= -.69975692E+03 F= -.70489004E+03 E0= -.70489004E+03  EK= 0.51331E+01 SP= 0.00E+00 SK= 0.00E+00
   3625 T=   276. E= -.69978262E+03 F= -.70491920E+03 E0= -.70491920E+03  EK= 0.51366E+01 SP= 0.00E+00 SK= 0.00E+00
   3626 T=   284. E= -.69973793E+03 F= -.70501921E+03 E0= -.70501921E+03  EK= 0.52813E+01 SP= 0.00E+00 SK= 0.00E+00
   3627 T=   296. E= -.69963488E+03 F= -.70514558E+03 E0= -.70514558E+03  EK= 0.55107E+01 SP= 0.00E+00 SK= 0.00E+00
   3628 T=   298. E= -.69967635E+03 F= -.70522266E+03 E0= -.70522266E+03  EK= 0.55463E+01 SP= 0.00E+00 SK= 0.00E+00
   3629 T=   293. E= -.69975663E+03 F= -.70520287E+03 E0= -.70520287E+03  EK= 0.54462E+01 SP= 0.00E+00 SK= 0.00E+00
   3630 T=   287. E= -.69978032E+03 F= -.70511777E+03 E0= -.70511777E+03  EK= 0.53374E+01 SP= 0.00E+00 SK= 0.00E+00
   3631 T=   279. E= -.69982388E+03 F= -.70501980E+03 E0= -.70501980E+03  EK= 0.51959E+01 SP= 0.00E+00 SK= 0.00E+00
   3632 T=   272. E= -.69990208E+03 F= -.70495911E+03 E0= -.70495911E+03  EK= 0.50570E+01 SP= 0.00E+00 SK= 0.00E+00
   3633 T=   267. E= -.69996923E+03 F= -.70494003E+03 E0= -.70494003E+03  EK= 0.49708E+01 SP= 0.00E+00 SK= 0.00E+00
   3634 T=   269. E= -.69995914E+03 F= -.70497278E+03 E0= -.70497278E+03  EK= 0.50136E+01 SP= 0.00E+00 SK= 0.00E+00
   3635 T=   269. E= -.70001990E+03 F= -.70503034E+03 E0= -.70503034E+03  EK= 0.50104E+01 SP= 0.00E+00 SK= 0.00E+00
   3636 T=   273. E= -.70004020E+03 F= -.70512056E+03 E0= -.70512056E+03  EK= 0.50804E+01 SP= 0.00E+00 SK= 0.00E+00
   3637 T=   275. E= -.70007369E+03 F= -.70518883E+03 E0= -.70518883E+03  EK= 0.51151E+01 SP= 0.00E+00 SK= 0.00E+00
   3638 T=   272. E= -.70011974E+03 F= -.70518968E+03 E0= -.70518968E+03  EK= 0.50699E+01 SP= 0.00E+00 SK= 0.00E+00
   3639 T=   268. E= -.70015523E+03 F= -.70514729E+03 E0= -.70514729E+03  EK= 0.49921E+01 SP= 0.00E+00 SK= 0.00E+00
   3640 T=   264. E= -.70014549E+03 F= -.70505796E+03 E0= -.70505796E+03  EK= 0.49125E+01 SP= 0.00E+00 SK= 0.00E+00
   3641 T=   266. E= -.69998766E+03 F= -.70493813E+03 E0= -.70493813E+03  EK= 0.49505E+01 SP= 0.00E+00 SK= 0.00E+00
   3642 T=   266. E= -.69990536E+03 F= -.70486306E+03 E0= -.70486306E+03  EK= 0.49577E+01 SP= 0.00E+00 SK= 0.00E+00
   3643 T=   267. E= -.69988679E+03 F= -.70486554E+03 E0= -.70486554E+03  EK= 0.49787E+01 SP= 0.00E+00 SK= 0.00E+00
   3644 T=   275. E= -.69978395E+03 F= -.70490689E+03 E0= -.70490689E+03  EK= 0.51229E+01 SP= 0.00E+00 SK= 0.00E+00
   3645 T=   274. E= -.69980502E+03 F= -.70491015E+03 E0= -.70491015E+03  EK= 0.51051E+01 SP= 0.00E+00 SK= 0.00E+00
   3646 T=   271. E= -.69982475E+03 F= -.70486527E+03 E0= -.70486527E+03  EK= 0.50405E+01 SP= 0.00E+00 SK= 0.00E+00
   3647 T=   268. E= -.69975289E+03 F= -.70474355E+03 E0= -.70474355E+03  EK= 0.49907E+01 SP= 0.00E+00 SK= 0.00E+00
   3648 T=   258. E= -.69975810E+03 F= -.70456407E+03 E0= -.70456407E+03  EK= 0.48060E+01 SP= 0.00E+00 SK= 0.00E+00
   3649 T=   247. E= -.69982233E+03 F= -.70441131E+03 E0= -.70441131E+03  EK= 0.45890E+01 SP= 0.00E+00 SK= 0.00E+00
   3650 T=   244. E= -.69982613E+03 F= -.70436246E+03 E0= -.70436246E+03  EK= 0.45363E+01 SP= 0.00E+00 SK= 0.00E+00
   3651 T=   246. E= -.69982944E+03 F= -.70440322E+03 E0= -.70440322E+03  EK= 0.45738E+01 SP= 0.00E+00 SK= 0.00E+00
   3652 T=   249. E= -.69989113E+03 F= -.70452307E+03 E0= -.70452307E+03  EK= 0.46319E+01 SP= 0.00E+00 SK= 0.00E+00
   3653 T=   259. E= -.69988379E+03 F= -.70470057E+03 E0= -.70470057E+03  EK= 0.48168E+01 SP= 0.00E+00 SK= 0.00E+00
   3654 T=   267. E= -.69984038E+03 F= -.70481487E+03 E0= -.70481487E+03  EK= 0.49745E+01 SP= 0.00E+00 SK= 0.00E+00
   3655 T=   271. E= -.69978466E+03 F= -.70483107E+03 E0= -.70483107E+03  EK= 0.50464E+01 SP= 0.00E+00 SK= 0.00E+00
   3656 T=   271. E= -.69972461E+03 F= -.70476559E+03 E0= -.70476559E+03  EK= 0.50410E+01 SP= 0.00E+00 SK= 0.00E+00
   3657 T=   268. E= -.69968836E+03 F= -.70467443E+03 E0= -.70467443E+03  EK= 0.49861E+01 SP= 0.00E+00 SK= 0.00E+00
   3658 T=   268. E= -.69963372E+03 F= -.70461612E+03 E0= -.70461612E+03  EK= 0.49824E+01 SP= 0.00E+00 SK= 0.00E+00
   3659 T=   265. E= -.69968191E+03 F= -.70460918E+03 E0= -.70460918E+03  EK= 0.49273E+01 SP= 0.00E+00 SK= 0.00E+00
   3660 T=   269. E= -.69971221E+03 F= -.70471444E+03 E0= -.70471444E+03  EK= 0.50022E+01 SP= 0.00E+00 SK= 0.00E+00
   3661 T=   280. E= -.69967218E+03 F= -.70488927E+03 E0= -.70488927E+03  EK= 0.52171E+01 SP= 0.00E+00 SK= 0.00E+00
   3662 T=   285. E= -.69974690E+03 F= -.70504573E+03 E0= -.70504573E+03  EK= 0.52988E+01 SP= 0.00E+00 SK= 0.00E+00
   3663 T=   287. E= -.69974788E+03 F= -.70508910E+03 E0= -.70508910E+03  EK= 0.53412E+01 SP= 0.00E+00 SK= 0.00E+00
   3664 T=   287. E= -.69969902E+03 F= -.70503928E+03 E0= -.70503928E+03  EK= 0.53403E+01 SP= 0.00E+00 SK= 0.00E+00
   3665 T=   281. E= -.69966920E+03 F= -.70490316E+03 E0= -.70490316E+03  EK= 0.52340E+01 SP= 0.00E+00 SK= 0.00E+00
   3666 T=   276. E= -.69962497E+03 F= -.70475488E+03 E0= -.70475488E+03  EK= 0.51299E+01 SP= 0.00E+00 SK= 0.00E+00
   3667 T=   267. E= -.69971833E+03 F= -.70468886E+03 E0= -.70468886E+03  EK= 0.49705E+01 SP= 0.00E+00 SK= 0.00E+00
   3668 T=   264. E= -.69981852E+03 F= -.70472782E+03 E0= -.70472782E+03  EK= 0.49093E+01 SP= 0.00E+00 SK= 0.00E+00
   3669 T=   267. E= -.69984148E+03 F= -.70481444E+03 E0= -.70481444E+03  EK= 0.49730E+01 SP= 0.00E+00 SK= 0.00E+00
   3670 T=   267. E= -.69989768E+03 F= -.70486572E+03 E0= -.70486572E+03  EK= 0.49680E+01 SP= 0.00E+00 SK= 0.00E+00
   3671 T=   268. E= -.69988702E+03 F= -.70487612E+03 E0= -.70487612E+03  EK= 0.49891E+01 SP= 0.00E+00 SK= 0.00E+00
   3672 T=   272. E= -.69978430E+03 F= -.70484025E+03 E0= -.70484025E+03  EK= 0.50559E+01 SP= 0.00E+00 SK= 0.00E+00
   3673 T=   275. E= -.69969684E+03 F= -.70481374E+03 E0= -.70481374E+03  EK= 0.51169E+01 SP= 0.00E+00 SK= 0.00E+00
   3674 T=   273. E= -.69968762E+03 F= -.70476918E+03 E0= -.70476918E+03  EK= 0.50816E+01 SP= 0.00E+00 SK= 0.00E+00
   3675 T=   270. E= -.69973986E+03 F= -.70476327E+03 E0= -.70476327E+03  EK= 0.50234E+01 SP= 0.00E+00 SK= 0.00E+00
   3676 T=   270. E= -.69976497E+03 F= -.70478180E+03 E0= -.70478180E+03  EK= 0.50168E+01 SP= 0.00E+00 SK= 0.00E+00
   3677 T=   270. E= -.69977319E+03 F= -.70480262E+03 E0= -.70480262E+03  EK= 0.50294E+01 SP= 0.00E+00 SK= 0.00E+00
   3678 T=   274. E= -.69969694E+03 F= -.70480016E+03 E0= -.70480016E+03  EK= 0.51032E+01 SP= 0.00E+00 SK= 0.00E+00
   3679 T=   271. E= -.69972740E+03 F= -.70477504E+03 E0= -.70477504E+03  EK= 0.50476E+01 SP= 0.00E+00 SK= 0.00E+00
   3680 T=   264. E= -.69986022E+03 F= -.70477562E+03 E0= -.70477562E+03  EK= 0.49154E+01 SP= 0.00E+00 SK= 0.00E+00
   3681 T=   269. E= -.69981725E+03 F= -.70482253E+03 E0= -.70482253E+03  EK= 0.50053E+01 SP= 0.00E+00 SK= 0.00E+00
   3682 T=   275. E= -.69976944E+03 F= -.70488786E+03 E0= -.70488786E+03  EK= 0.51184E+01 SP= 0.00E+00 SK= 0.00E+00
   3683 T=   275. E= -.69981416E+03 F= -.70494114E+03 E0= -.70494114E+03  EK= 0.51270E+01 SP= 0.00E+00 SK= 0.00E+00
   3684 T=   272. E= -.69987441E+03 F= -.70493949E+03 E0= -.70493949E+03  EK= 0.50651E+01 SP= 0.00E+00 SK= 0.00E+00
   3685 T=   261. E= -.69996376E+03 F= -.70482282E+03 E0= -.70482282E+03  EK= 0.48591E+01 SP= 0.00E+00 SK= 0.00E+00
   3686 T=   253. E= -.69997769E+03 F= -.70468359E+03 E0= -.70468359E+03  EK= 0.47059E+01 SP= 0.00E+00 SK= 0.00E+00
   3687 T=   247. E= -.70000568E+03 F= -.70459512E+03 E0= -.70459512E+03  EK= 0.45894E+01 SP= 0.00E+00 SK= 0.00E+00
   3688 T=   247. E= -.70000075E+03 F= -.70459521E+03 E0= -.70459521E+03  EK= 0.45945E+01 SP= 0.00E+00 SK= 0.00E+00
   3689 T=   255. E= -.69991267E+03 F= -.70465674E+03 E0= -.70465674E+03  EK= 0.47441E+01 SP= 0.00E+00 SK= 0.00E+00
   3690 T=   261. E= -.69989855E+03 F= -.70476210E+03 E0= -.70476210E+03  EK= 0.48636E+01 SP= 0.00E+00 SK= 0.00E+00
   3691 T=   261. E= -.69997108E+03 F= -.70482684E+03 E0= -.70482684E+03  EK= 0.48558E+01 SP= 0.00E+00 SK= 0.00E+00
   3692 T=   256. E= -.70004541E+03 F= -.70480689E+03 E0= -.70480689E+03  EK= 0.47615E+01 SP= 0.00E+00 SK= 0.00E+00
   3693 T=   249. E= -.70009011E+03 F= -.70473155E+03 E0= -.70473155E+03  EK= 0.46414E+01 SP= 0.00E+00 SK= 0.00E+00
   3694 T=   246. E= -.70005426E+03 F= -.70463927E+03 E0= -.70463927E+03  EK= 0.45850E+01 SP= 0.00E+00 SK= 0.00E+00
       N       E                     dE             d eps       ncg     rms          rms(c)
DAV:   1    -0.412751656586E+02    0.65526E+03   -0.52452E+04 12766   0.460E+02
DAV:   2    -0.691444599150E+03   -0.65017E+03   -0.63728E+03 14566   0.145E+02
DAV:   3    -0.715213638724E+03   -0.23769E+02   -0.23711E+02 14788   0.310E+01
DAV:   4    -0.715571404556E+03   -0.35777E+00   -0.35753E+00 14564   0.373E+00    0.364E+01
DAV:   5    -0.695725555647E+03    0.19846E+02   -0.48576E+01 14644   0.162E+01    0.187E+01
DAV:   6    -0.695337551582E+03    0.38800E+00   -0.15361E+01 13812   0.913E+00    0.834E+00
DAV:   7    -0.696278461996E+03   -0.94091E+00   -0.34162E+00 13556   0.515E+00    0.216E+00
DAV:   8    -0.696339145502E+03   -0.60684E-01   -0.47160E-01 14196   0.185E+00    0.107E+00
DAV:   9    -0.696347639956E+03   -0.84945E-02   -0.11464E-01 13940   0.845E-01    0.511E-01
DAV:  10    -0.696344569426E+03    0.30705E-02   -0.14487E-02 16220   0.433E-01    0.182E-01
DAV:  11    -0.696343659259E+03    0.91017E-03   -0.91116E-03 14100   0.277E-01    0.116E-01
DAV:  12    -0.696342877475E+03    0.78178E-03   -0.12045E-03 14548   0.139E-01    0.552E-02
DAV:  13    -0.696342319871E+03    0.55760E-03   -0.71010E-04 13324   0.139E-01    0.365E-02
DAV:  14    -0.696342187109E+03    0.13276E-03   -0.50495E-04 14388   0.941E-02    0.374E-02
DAV:  15    -0.696342154623E+03    0.32486E-04   -0.28609E-04 13068   0.491E-02
   3695 T=   247. E= -.70005029E+03 F= -.70465102E+03 E0= -.70465102E+03  EK= 0.46007E+01 SP= 0.00E+00 SK= 0.00E+00
   3696 T=   248. E= -.69998696E+03 F= -.70460270E+03 E0= -.70460270E+03  EK= 0.46157E+01 SP= 0.00E+00 SK= 0.00E+00
   3697 T=   251. E= -.69999032E+03 F= -.70466607E+03 E0= -.70466607E+03  EK= 0.46758E+01 SP= 0.00E+00 SK= 0.00E+00
   3698 T=   260. E= -.69993436E+03 F= -.70476648E+03 E0= -.70476648E+03  EK= 0.48321E+01 SP= 0.00E+00 SK= 0.00E+00
   3699 T=   268. E= -.69985557E+03 F= -.70484180E+03 E0= -.70484180E+03  EK= 0.49862E+01 SP= 0.00E+00 SK= 0.00E+00
   3700 T=   267. E= -.69984022E+03 F= -.70480549E+03 E0= -.70480549E+03  EK= 0.49653E+01 SP= 0.00E+00 SK= 0.00E+00
   3701 T=   260. E= -.69985638E+03 F= -.70469830E+03 E0= -.70469830E+03  EK= 0.48419E+01 SP= 0.00E+00 SK= 0.00E+00
   3702 T=   257. E= -.69982509E+03 F= -.70461800E+03 E0= -.70461800E+03  EK= 0.47929E+01 SP= 0.00E+00 SK= 0.00E+00
   3703 T=   261. E= -.69975230E+03 F= -.70461470E+03 E0= -.70461470E+03  EK= 0.48624E+01 SP= 0.00E+00 SK= 0.00E+00
   3704 T=   269. E= -.69967415E+03 F= -.70468224E+03 E0= -.70468224E+03  EK= 0.50081E+01 SP= 0.00E+00 SK= 0.00E+00
   3705 T=   277. E= -.69961831E+03 F= -.70477129E+03 E0= -.70477129E+03  EK= 0.51530E+01 SP= 0.00E+00 SK= 0.00E+00
   3706 T=   282. E= -.69958316E+03 F= -.70482606E+03 E0= -.70482606E+03  EK= 0.52429E+01 SP= 0.00E+00 SK= 0.00E+00
   3707 T=   283. E= -.69953149E+03 F= -.70479347E+03 E0= -.70479347E+03  EK= 0.52620E+01 SP= 0.00E+00 SK= 0.00E+00
   3708 T=   278. E= -.69950366E+03 F= -.70468303E+03 E0= -.70468303E+03  EK= 0.51794E+01 SP= 0.00E+00 SK= 0.00E+00
   3709 T=   271. E= -.69953068E+03 F= -.70457106E+03 E0= -.70457106E+03  EK= 0.50404E+01 SP= 0.00E+00 SK= 0.00E+00
   3710 T=   272. E= -.69953118E+03 F= -.70459491E+03 E0= -.70459491E+03  EK= 0.50637E+01 SP= 0.00E+00 SK= 0.00E+00
   3711 T=   278. E= -.69953966E+03 F= -.70470516E+03 E0= -.70470516E+03  EK= 0.51655E+01 SP= 0.00E+00 SK= 0.00E+00
   3712 T=   287. E= -.69953381E+03 F= -.70487488E+03 E0= -.70487488E+03  EK= 0.53411E+01 SP= 0.00E+00 SK= 0.00E+00
   3713 T=   297. E= -.69949942E+03 F= -.70503481E+03 E0= -.70503481E+03  EK= 0.55354E+01 SP= 0.00E+00 SK= 0.00E+00
   3714 T=   300. E= -.69948411E+03 F= -.70507192E+03 E0= -.70507192E+03  EK= 0.55878E+01 SP= 0.00E+00 SK= 0.00E+00
   3715 T=   295. E= -.69948508E+03 F= -.70498426E+03 E0= -.70498426E+03  EK= 0.54992E+01 SP= 0.00E+00 SK= 0.00E+00
   3716 T=   286. E= -.69950649E+03 F= -.70482674E+03 E0= -.70482674E+03  EK= 0.53203E+01 SP= 0.00E+00 SK= 0.00E+00
   3717 T=   276. E= -.69952368E+03 F= -.70466581E+03 E0= -.70466581E+03  EK= 0.51421E+01 SP= 0.00E+00 SK= 0.00E+00
   3718 T=   270. E= -.69959341E+03 F= -.70461490E+03 E0= -.70461490E+03  EK= 0.50215E+01 SP= 0.00E+00 SK= 0.00E+00
   3719 T=   272. E= -.69963267E+03 F= -.70469110E+03 E0= -.70469110E+03  EK= 0.50584E+01 SP= 0.00E+00 SK= 0.00E+00
   3720 T=   277. E= -.69966064E+03 F= -.70482521E+03 E0= -.70482521E+03  EK= 0.51646E+01 SP= 0.00E+00 SK= 0.00E+00
   3721 T=   286. E= -.69966596E+03 F= -.70498690E+03 E0= -.70498690E+03  EK= 0.53209E+01 SP= 0.00E+00 SK= 0.00E+00
   3722 T=   288. E= -.69967855E+03 F= -.70504017E+03 E0= -.70504017E+03  EK= 0.53616E+01 SP= 0.00E+00 SK= 0.00E+00
   3723 T=   279. E= -.69974997E+03 F= -.70495060E+03 E0= -.70495060E+03  EK= 0.52006E+01 SP= 0.00E+00 SK= 0.00E+00
   3724 T=   275. E= -.69967527E+03 F= -.70479364E+03 E0= -.70479364E+03  EK= 0.51184E+01 SP= 0.00E+00 SK= 0.00E+00
   3725 T=   275. E= -.69957678E+03 F= -.70469324E+03 E0= -.70469324E+03  EK= 0.51165E+01 SP= 0.00E+00 SK= 0.00E+00
   3726 T=   273. E= -.69958614E+03 F= -.70466061E+03 E0= -.70466061E+03  EK= 0.50745E+01 SP= 0.00E+00 SK= 0.00E+00
   3727 T=   272. E= -.69955935E+03 F= -.70461688E+03 E0= -.70461688E+03  EK= 0.50575E+01 SP= 0.00E+00 SK= 0.00E+00
   3728 T=   272. E= -.69952364E+03 F= -.70459086E+03 E0= -.70459086E+03  EK= 0.50672E+01 SP= 0.00E+00 SK= 0.00E+00
   3729 T=   271. E= -.69947853E+03 F= -.70452260E+03 E0= -.70452260E+03  EK= 0.50441E+01 SP= 0.00E+00 SK= 0.00E+00
   3730 T=   272. E= -.69939459E+03 F= -.70446623E+03 E0= -.70446623E+03  EK= 0.50716E+01 SP= 0.00E+00 SK= 0.00E+00
   3731 T=   275. E= -.69931883E+03 F= -.70444423E+03 E0= -.70444423E+03  EK= 0.51254E+01 SP= 0.00E+00 SK= 0.00E+00
   3732 T=   278. E= -.69922922E+03 F= -.70441125E+03 E0= -.70441125E+03  EK= 0.51820E+01 SP= 0.00E+00 SK= 0.00E+00
   3733 T=   275. E= -.69923280E+03 F= -.70434963E+03 E0= -.70434963E+03  EK= 0.51168E+01 SP= 0.00E+00 SK= 0.00E+00
   3734 T=   265. E= -.69929815E+03 F= -.70423511E+03 E0= -.70423511E+03  EK= 0.49370E+01 SP= 0.00E+00 SK= 0.00E+00
       N       E                     dE             d eps       ncg     rms          rms(c)
DAV:   1    -0.581559102913E+03    0.11478E+03   -0.16473E+04 12190   0.279E+02
DAV:   2    -0.697574517662E+03   -0.11602E+03   -0.11557E+03 14116   0.638E+01
DAV:   3    -0.699442284597E+03   -0.18678E+01   -0.18672E+01 14580   0.893E+00
DAV:   4    -0.699476708613E+03   -0.34424E-01   -0.34421E-01 14220   0.118E+00    0.216E+01
DAV:   5    -0.695920668407E+03    0.35560E+01   -0.66821E+00 13996   0.725E+00    0.123E+01
DAV:   6    -0.695664508433E+03    0.25616E+00   -0.75763E+00 14660   0.708E+00    0.284E+00
DAV:   7    -0.695791291323E+03   -0.12678E+00   -0.12572E+00 13828   0.286E+00    0.132E+00
DAV:   8    -0.695789471021E+03    0.18203E-02   -0.11735E-01 14084   0.848E-01    0.617E-01
DAV:   9    -0.695785451018E+03    0.40200E-02   -0.27666E-02 13996   0.527E-01    0.278E-01
DAV:  10    -0.695783375138E+03    0.20759E-02   -0.70266E-03 14100   0.289E-01    0.926E-02
DAV:  11    -0.695782885626E+03    0.48951E-03   -0.30827E-03 14708   0.152E-01    0.697E-02
DAV:  12    -0.695782458993E+03    0.42663E-03   -0.45277E-04 13332   0.767E-02    0.308E-02
DAV:  13    -0.695782149305E+03    0.30969E-03   -0.26507E-04 11580   0.851E-02    0.287E-02
DAV:  14    -0.695782105812E+03    0.43493E-04   -0.23692E-04 11684   0.534E-02
   3735 T=   258. E= -.69930317E+03 F= -.70409738E+03 E0= -.70409738E+03  EK= 0.47942E+01 SP= 0.00E+00 SK= 0.00E+00
   3736 T=   254. E= -.69925988E+03 F= -.70398673E+03 E0= -.70398673E+03  EK= 0.47269E+01 SP= 0.00E+00 SK= 0.00E+00
   3737 T=   253. E= -.69925743E+03 F= -.70397249E+03 E0= -.70397249E+03  EK= 0.47151E+01 SP= 0.00E+00 SK= 0.00E+00
   3738 T=   261. E= -.69916820E+03 F= -.70402204E+03 E0= -.70402204E+03  EK= 0.48538E+01 SP= 0.00E+00 SK= 0.00E+00
   3739 T=   272. E= -.69905709E+03 F= -.70412378E+03 E0= -.70412378E+03  EK= 0.50667E+01 SP= 0.00E+00 SK= 0.00E+00
   3740 T=   279. E= -.69903076E+03 F= -.70422768E+03 E0= -.70422768E+03  EK= 0.51969E+01 SP= 0.00E+00 SK= 0.00E+00
   3741 T=   287. E= -.69893577E+03 F= -.70427587E+03 E0= -.70427587E+03  EK= 0.53401E+01 SP= 0.00E+00 SK= 0.00E+00
   3742 T=   294. E= -.69879307E+03 F= -.70425796E+03 E0= -.70425796E+03  EK= 0.54649E+01 SP= 0.00E+00 SK= 0.00E+00
   3743 T=   292. E= -.69871987E+03 F= -.70415989E+03 E0= -.70415989E+03  EK= 0.54400E+01 SP= 0.00E+00 SK= 0.00E+00
   3744 T=   289. E= -.69870119E+03 F= -.70408060E+03 E0= -.70408060E+03  EK= 0.53794E+01 SP= 0.00E+00 SK= 0.00E+00
       N       E                     dE             d eps       ncg     rms          rms(c)
DAV:   1    -0.690238599236E+03    0.55436E+01   -0.21739E+03 12190   0.105E+02
DAV:   2    -0.696526548750E+03   -0.62879E+01   -0.62860E+01 14324   0.160E+01
DAV:   3    -0.696591961895E+03   -0.65413E-01   -0.65409E-01 14628   0.172E+00
DAV:   4    -0.696593410526E+03   -0.14486E-02   -0.14486E-02 14396   0.244E-01    0.902E+00
DAV:   5    -0.695844567137E+03    0.74884E+00   -0.13201E+00 15612   0.367E+00    0.503E+00
DAV:   6    -0.695756867649E+03    0.87699E-01   -0.13030E+00 14684   0.319E+00    0.136E+00
DAV:   7    -0.695771216794E+03   -0.14349E-01   -0.26615E-01 14140   0.146E+00    0.584E-01
DAV:   8    -0.695767531847E+03    0.36849E-02   -0.27931E-02 14124   0.459E-01    0.283E-01
DAV:   9    -0.695765135022E+03    0.23968E-02   -0.88398E-03 14036   0.277E-01    0.149E-01
DAV:  10    -0.695763579445E+03    0.15556E-02   -0.23966E-03 16260   0.218E-01    0.509E-02
DAV:  11    -0.695763190095E+03    0.38935E-03   -0.13765E-03 14508   0.120E-01    0.519E-02
DAV:  12    -0.695762881763E+03    0.30833E-03   -0.36074E-04 12508   0.749E-02    0.240E-02
DAV:  13    -0.695762723637E+03    0.15813E-03   -0.13204E-04 10148   0.807E-02    0.275E-02
DAV:  14    -0.695762711686E+03    0.11951E-04   -0.24918E-04 11660   0.472E-02
   3745 T=   285. E= -.69876838E+03 F= -.70408205E+03 E0= -.70408205E+03  EK= 0.53137E+01 SP= 0.00E+00 SK= 0.00E+00
   3746 T=   286. E= -.69881951E+03 F= -.70413534E+03 E0= -.70413534E+03  EK= 0.53158E+01 SP= 0.00E+00 SK= 0.00E+00
   3747 T=   293. E= -.69881986E+03 F= -.70426809E+03 E0= -.70426809E+03  EK= 0.54482E+01 SP= 0.00E+00 SK= 0.00E+00
   3748 T=   303. E= -.69874871E+03 F= -.70438525E+03 E0= -.70438525E+03  EK= 0.56365E+01 SP= 0.00E+00 SK= 0.00E+00
   3749 T=   305. E= -.69874995E+03 F= -.70443519E+03 E0= -.70443519E+03  EK= 0.56852E+01 SP= 0.00E+00 SK= 0.00E+00
   3750 T=   302. E= -.69876953E+03 F= -.70439589E+03 E0= -.70439589E+03  EK= 0.56264E+01 SP= 0.00E+00 SK= 0.00E+00
   3751 T=   300. E= -.69870465E+03 F= -.70428313E+03 E0= -.70428313E+03  EK= 0.55785E+01 SP= 0.00E+00 SK= 0.00E+00
   3752 T=   288. E= -.69876337E+03 F= -.70412540E+03 E0= -.70412540E+03  EK= 0.53620E+01 SP= 0.00E+00 SK= 0.00E+00
   3753 T=   281. E= -.69882642E+03 F= -.70406339E+03 E0= -.70406339E+03  EK= 0.52370E+01 SP= 0.00E+00 SK= 0.00E+00
   3754 T=   288. E= -.69881793E+03 F= -.70417875E+03 E0= -.70417875E+03  EK= 0.53608E+01 SP= 0.00E+00 SK= 0.00E+00
       N       E                     dE             d eps       ncg     rms          rms(c)
DAV:   1    -0.690369761579E+03    0.53930E+01   -0.23633E+03 12190   0.109E+02
DAV:   2    -0.697017318691E+03   -0.66476E+01   -0.66458E+01 14404   0.166E+01
DAV:   3    -0.697081577128E+03   -0.64258E-01   -0.64254E-01 14628   0.172E+00
DAV:   4    -0.697082941680E+03   -0.13646E-02   -0.13645E-02 14420   0.242E-01    0.946E+00
DAV:   5    -0.696166492214E+03    0.91645E+00   -0.16922E+00 15244   0.414E+00    0.519E+00
DAV:   6    -0.696051258538E+03    0.11523E+00   -0.14587E+00 14700   0.341E+00    0.152E+00
DAV:   7    -0.696060078986E+03   -0.88204E-02   -0.31350E-01 14044   0.160E+00    0.627E-01
DAV:   8    -0.696053307443E+03    0.67715E-02   -0.29534E-02 14492   0.494E-01    0.326E-01
DAV:   9    -0.696048143558E+03    0.51639E-02   -0.13854E-02 13932   0.369E-01    0.175E-01
DAV:  10    -0.696045583983E+03    0.25596E-02   -0.34199E-03 16396   0.264E-01    0.702E-02
DAV:  11    -0.696044595891E+03    0.98809E-03   -0.23143E-03 14180   0.185E-01    0.666E-02
DAV:  12    -0.696043996380E+03    0.59951E-03   -0.76219E-04 15092   0.134E-01    0.333E-02
DAV:  13    -0.696043751590E+03    0.24479E-03   -0.34511E-04 12732   0.101E-01    0.335E-02
DAV:  14    -0.696043719426E+03    0.32164E-04   -0.32889E-04 13324   0.638E-02
   3755 T=   298. E= -.69882973E+03 F= -.70437510E+03 E0= -.70437510E+03  EK= 0.55454E+01 SP= 0.00E+00 SK= 0.00E+00
   3756 T=   308. E= -.69882434E+03 F= -.70455731E+03 E0= -.70455731E+03  EK= 0.57330E+01 SP= 0.00E+00 SK= 0.00E+00
   3757 T=   310. E= -.69878717E+03 F= -.70455305E+03 E0= -.70455305E+03  EK= 0.57659E+01 SP= 0.00E+00 SK= 0.00E+00
   3758 T=   300. E= -.69879730E+03 F= -.70437808E+03 E0= -.70437808E+03  EK= 0.55808E+01 SP= 0.00E+00 SK= 0.00E+00
   3759 T=   284. E= -.69885509E+03 F= -.70414916E+03 E0= -.70414916E+03  EK= 0.52941E+01 SP= 0.00E+00 SK= 0.00E+00
   3760 T=   275. E= -.69884932E+03 F= -.70396549E+03 E0= -.70396549E+03  EK= 0.51162E+01 SP= 0.00E+00 SK= 0.00E+00
   3761 T=   266. E= -.69893288E+03 F= -.70388654E+03 E0= -.70388654E+03  EK= 0.49537E+01 SP= 0.00E+00 SK= 0.00E+00
   3762 T=   263. E= -.69902987E+03 F= -.70392100E+03 E0= -.70392100E+03  EK= 0.48911E+01 SP= 0.00E+00 SK= 0.00E+00
   3763 T=   275. E= -.69892716E+03 F= -.70404634E+03 E0= -.70404634E+03  EK= 0.51192E+01 SP= 0.00E+00 SK= 0.00E+00
   3764 T=   282. E= -.69891529E+03 F= -.70416217E+03 E0= -.70416217E+03  EK= 0.52469E+01 SP= 0.00E+00 SK= 0.00E+00
       N       E                     dE             d eps       ncg     rms          rms(c)
DAV:   1    -0.689516206205E+03    0.65275E+01   -0.23768E+03 12190   0.109E+02
DAV:   2    -0.696619710347E+03   -0.71035E+01   -0.71016E+01 14452   0.170E+01
DAV:   3    -0.696689680069E+03   -0.69970E-01   -0.69965E-01 14636   0.180E+00
DAV:   4    -0.696691215700E+03   -0.15356E-02   -0.15356E-02 14468   0.253E-01    0.913E+00
DAV:   5    -0.695885837888E+03    0.80538E+00   -0.14443E+00 15132   0.370E+00    0.504E+00
DAV:   6    -0.695801340691E+03    0.84497E-01   -0.13931E+00 14676   0.312E+00    0.137E+00
DAV:   7    -0.695816958801E+03   -0.15618E-01   -0.26275E-01 14100   0.145E+00    0.590E-01
DAV:   8    -0.695813968100E+03    0.29907E-02   -0.26971E-02 14020   0.444E-01    0.303E-01
DAV:   9    -0.695811347410E+03    0.26207E-02   -0.94021E-03 13908   0.298E-01    0.152E-01
DAV:  10    -0.695809748975E+03    0.15984E-02   -0.23580E-03 15852   0.204E-01    0.518E-02
DAV:  11    -0.695809377913E+03    0.37106E-03   -0.13085E-03 14484   0.109E-01    0.482E-02
DAV:  12    -0.695809026035E+03    0.35188E-03   -0.25119E-04 10972   0.794E-02    0.202E-02
DAV:  13    -0.695808878837E+03    0.14720E-03   -0.23218E-04 11036   0.816E-02    0.292E-02
DAV:  14    -0.695808855825E+03    0.23012E-04   -0.24864E-04 11676   0.538E-02
   3765 T=   276. E= -.69899800E+03 F= -.70413438E+03 E0= -.70413438E+03  EK= 0.51364E+01 SP= 0.00E+00 SK= 0.00E+00
   3766 T=   264. E= -.69907022E+03 F= -.70397748E+03 E0= -.70397748E+03  EK= 0.49073E+01 SP= 0.00E+00 SK= 0.00E+00
   3767 T=   250. E= -.69912846E+03 F= -.70377635E+03 E0= -.70377635E+03  EK= 0.46479E+01 SP= 0.00E+00 SK= 0.00E+00
   3768 T=   243. E= -.69915014E+03 F= -.70367588E+03 E0= -.70367588E+03  EK= 0.45257E+01 SP= 0.00E+00 SK= 0.00E+00
   3769 T=   251. E= -.69914855E+03 F= -.70382189E+03 E0= -.70382189E+03  EK= 0.46733E+01 SP= 0.00E+00 SK= 0.00E+00
   3770 T=   265. E= -.69918355E+03 F= -.70412115E+03 E0= -.70412115E+03  EK= 0.49376E+01 SP= 0.00E+00 SK= 0.00E+00
   3771 T=   280. E= -.69923812E+03 F= -.70444161E+03 E0= -.70444161E+03  EK= 0.52035E+01 SP= 0.00E+00 SK= 0.00E+00
   3772 T=   287. E= -.69926616E+03 F= -.70459922E+03 E0= -.70459922E+03  EK= 0.53331E+01 SP= 0.00E+00 SK= 0.00E+00
   3773 T=   282. E= -.69928258E+03 F= -.70454022E+03 E0= -.70454022E+03  EK= 0.52576E+01 SP= 0.00E+00 SK= 0.00E+00
   3774 T=   271. E= -.69927252E+03 F= -.70431114E+03 E0= -.70431114E+03  EK= 0.50386E+01 SP= 0.00E+00 SK= 0.00E+00
       N       E                     dE             d eps       ncg     rms          rms(c)
DAV:   1    -0.690752275988E+03    0.50566E+01   -0.20851E+03 12190   0.103E+02
DAV:   2    -0.696587948052E+03   -0.58357E+01   -0.58339E+01 14468   0.155E+01
DAV:   3    -0.696647129461E+03   -0.59181E-01   -0.59178E-01 14636   0.164E+00
DAV:   4    -0.696648408188E+03   -0.12787E-02   -0.12787E-02 14476   0.232E-01    0.890E+00
DAV:   5    -0.695871902165E+03    0.77651E+00   -0.15323E+00 14660   0.369E+00    0.488E+00
DAV:   6    -0.695788021983E+03    0.83880E-01   -0.12042E+00 14740   0.304E+00    0.145E+00
DAV:   7    -0.695798396998E+03   -0.10375E-01   -0.26262E-01 14204   0.154E+00    0.572E-01
DAV:   8    -0.695793298971E+03    0.50980E-02   -0.30405E-02 14244   0.490E-01    0.301E-01
DAV:   9    -0.695788267759E+03    0.50312E-02   -0.95803E-03 14036   0.333E-01    0.139E-01
DAV:  10    -0.695785742642E+03    0.25251E-02   -0.24322E-03 16044   0.263E-01    0.769E-02
DAV:  11    -0.695784622307E+03    0.11203E-02   -0.32195E-03 14340   0.244E-01    0.806E-02
DAV:  12    -0.695783988902E+03    0.63340E-03   -0.14967E-03 14660   0.174E-01    0.384E-02
DAV:  13    -0.695783821782E+03    0.16712E-03   -0.56701E-04 14316   0.989E-02    0.474E-02
DAV:  14    -0.695783746239E+03    0.75543E-04   -0.27256E-04 12060   0.694E-02
   3775 T=   261. E= -.69925732E+03 F= -.70411465E+03 E0= -.70411465E+03  EK= 0.48573E+01 SP= 0.00E+00 SK= 0.00E+00
   3776 T=   259. E= -.69924293E+03 F= -.70406458E+03 E0= -.70406458E+03  EK= 0.48216E+01 SP= 0.00E+00 SK= 0.00E+00
   3777 T=   268. E= -.69928320E+03 F= -.70427287E+03 E0= -.70427287E+03  EK= 0.49897E+01 SP= 0.00E+00 SK= 0.00E+00
   3778 T=   290. E= -.69921159E+03 F= -.70461049E+03 E0= -.70461049E+03  EK= 0.53989E+01 SP= 0.00E+00 SK= 0.00E+00
   3779 T=   304. E= -.69915395E+03 F= -.70480550E+03 E0= -.70480550E+03  EK= 0.56516E+01 SP= 0.00E+00 SK= 0.00E+00
   3780 T=   297. E= -.69920528E+03 F= -.70473330E+03 E0= -.70473330E+03  EK= 0.55280E+01 SP= 0.00E+00 SK= 0.00E+00
   3781 T=   288. E= -.69914750E+03 F= -.70451023E+03 E0= -.70451023E+03  EK= 0.53627E+01 SP= 0.00E+00 SK= 0.00E+00
   3782 T=   276. E= -.69913353E+03 F= -.70427826E+03 E0= -.70427826E+03  EK= 0.51447E+01 SP= 0.00E+00 SK= 0.00E+00
   3783 T=   266. E= -.69923245E+03 F= -.70419181E+03 E0= -.70419181E+03  EK= 0.49594E+01 SP= 0.00E+00 SK= 0.00E+00
   3784 T=   272. E= -.69921316E+03 F= -.70426691E+03 E0= -.70426691E+03  EK= 0.50538E+01 SP= 0.00E+00 SK= 0.00E+00
       N       E                     dE             d eps       ncg     rms          rms(c)
DAV:   1    -0.691069287672E+03    0.47145E+01   -0.21961E+03 12190   0.106E+02
DAV:   2    -0.697098092776E+03   -0.60288E+01   -0.60270E+01 14492   0.158E+01
DAV:   3    -0.697157267954E+03   -0.59175E-01   -0.59170E-01 14644   0.164E+00
DAV:   4    -0.697158561472E+03   -0.12935E-02   -0.12935E-02 14412   0.234E-01    0.943E+00
DAV:   5    -0.696284006467E+03    0.87456E+00   -0.16755E+00 15180   0.374E+00    0.516E+00
DAV:   6    -0.696193782236E+03    0.90224E-01   -0.13076E+00 14676   0.290E+00    0.147E+00
DAV:   7    -0.696212905655E+03   -0.19123E-01   -0.24985E-01 14060   0.139E+00    0.577E-01
DAV:   8    -0.696209390476E+03    0.35152E-02   -0.23173E-02 14004   0.438E-01    0.290E-01
DAV:   9    -0.696206843803E+03    0.25467E-02   -0.10232E-02 13604   0.274E-01    0.144E-01
DAV:  10    -0.696205568837E+03    0.12750E-02   -0.21010E-03 16100   0.188E-01    0.497E-02
DAV:  11    -0.696205207386E+03    0.36145E-03   -0.11184E-03 14236   0.101E-01    0.448E-02
DAV:  12    -0.696204871375E+03    0.33601E-03   -0.19173E-04 10620   0.787E-02    0.173E-02
DAV:  13    -0.696204762828E+03    0.10855E-03   -0.26961E-04 11924   0.737E-02    0.286E-02
DAV:  14    -0.696204743322E+03    0.19506E-04   -0.17859E-04 10412   0.448E-02
   3785 T=   287. E= -.69917929E+03 F= -.70451363E+03 E0= -.70451363E+03  EK= 0.53343E+01 SP= 0.00E+00 SK= 0.00E+00
   3786 T=   302. E= -.69917048E+03 F= -.70479106E+03 E0= -.70479106E+03  EK= 0.56206E+01 SP= 0.00E+00 SK= 0.00E+00
   3787 T=   312. E= -.69916632E+03 F= -.70497703E+03 E0= -.70497703E+03  EK= 0.58107E+01 SP= 0.00E+00 SK= 0.00E+00
   3788 T=   311. E= -.69914750E+03 F= -.70493509E+03 E0= -.70493509E+03  EK= 0.57876E+01 SP= 0.00E+00 SK= 0.00E+00
   3789 T=   301. E= -.69915348E+03 F= -.70474696E+03 E0= -.70474696E+03  EK= 0.55935E+01 SP= 0.00E+00 SK= 0.00E+00
   3790 T=   285. E= -.69921228E+03 F= -.70451077E+03 E0= -.70451077E+03  EK= 0.52985E+01 SP= 0.00E+00 SK= 0.00E+00
       N       E                     dE             d eps       ncg     rms          rms(c)
DAV:   1    -0.693640930372E+03    0.25638E+01   -0.11011E+03 12192   0.751E+01
DAV:   2    -0.696679325081E+03   -0.30384E+01   -0.30376E+01 14652   0.114E+01
DAV:   3    -0.696707772311E+03   -0.28447E-01   -0.28445E-01 14716   0.113E+00
DAV:   4    -0.696708408466E+03   -0.63616E-03   -0.63613E-03 14572   0.162E-01    0.709E+00
DAV:   5    -0.696070955495E+03    0.63745E+00   -0.12745E+00 15340   0.351E+00    0.367E+00
DAV:   6    -0.695992785825E+03    0.78170E-01   -0.81253E-01 14564   0.237E+00    0.128E+00
DAV:   7    -0.695995123607E+03   -0.23378E-02   -0.18700E-01 14516   0.130E+00    0.501E-01
DAV:   8    -0.695991413910E+03    0.37097E-02   -0.25013E-02 15212   0.514E-01    0.238E-01
DAV:   9    -0.695988511350E+03    0.29026E-02   -0.75622E-03 13852   0.251E-01    0.120E-01
DAV:  10    -0.695987517220E+03    0.99413E-03   -0.18946E-03 15332   0.168E-01    0.511E-02
DAV:  11    -0.695987038418E+03    0.47880E-03   -0.81062E-04 14044   0.110E-01    0.400E-02
DAV:  12    -0.695986728583E+03    0.30984E-03   -0.16063E-04 10316   0.866E-02    0.213E-02
DAV:  13    -0.695986577813E+03    0.15077E-03   -0.24840E-04 11372   0.945E-02    0.168E-02
DAV:  14    -0.695986582362E+03   -0.45491E-05   -0.25521E-04 11940   0.436E-02
   3791 T=   273. E= -.69921629E+03 F= -.70429707E+03 E0= -.70429707E+03  EK= 0.50808E+01 SP= 0.00E+00 SK= 0.00E+00
   3792 T=   275. E= -.69916390E+03 F= -.70427698E+03 E0= -.70427698E+03  EK= 0.51131E+01 SP= 0.00E+00 SK= 0.00E+00
   3793 T=   283. E= -.69909580E+03 F= -.70436304E+03 E0= -.70436304E+03  EK= 0.52672E+01 SP= 0.00E+00 SK= 0.00E+00
   3794 T=   289. E= -.69905065E+03 F= -.70442544E+03 E0= -.70442544E+03  EK= 0.53748E+01 SP= 0.00E+00 SK= 0.00E+00
   3795 T=   284. E= -.69905808E+03 F= -.70433919E+03 E0= -.70433919E+03  EK= 0.52811E+01 SP= 0.00E+00 SK= 0.00E+00
   3796 T=   272. E= -.69907945E+03 F= -.70414674E+03 E0= -.70414674E+03  EK= 0.50673E+01 SP= 0.00E+00 SK= 0.00E+00
   3797 T=   264. E= -.69902079E+03 F= -.70392755E+03 E0= -.70392755E+03  EK= 0.49068E+01 SP= 0.00E+00 SK= 0.00E+00
   3798 T=   257. E= -.69898092E+03 F= -.70376799E+03 E0= -.70376799E+03  EK= 0.47871E+01 SP= 0.00E+00 SK= 0.00E+00
   3799 T=   256. E= -.69896137E+03 F= -.70373518E+03 E0= -.70373518E+03  EK= 0.47738E+01 SP= 0.00E+00 SK= 0.00E+00
   3800 T=   261. E= -.69899527E+03 F= -.70384953E+03 E0= -.70384953E+03  EK= 0.48543E+01 SP= 0.00E+00 SK= 0.00E+00
       N       E                     dE             d eps       ncg     rms          rms(c)
DAV:   1    -0.691221676388E+03    0.47649E+01   -0.19339E+03 12190   0.995E+01
DAV:   2    -0.696557435027E+03   -0.53358E+01   -0.53344E+01 14412   0.148E+01
DAV:   3    -0.696611258530E+03   -0.53824E-01   -0.53820E-01 14620   0.156E+00
DAV:   4    -0.696612450874E+03   -0.11923E-02   -0.11923E-02 14404   0.223E-01    0.894E+00
DAV:   5    -0.695830140005E+03    0.78231E+00   -0.14404E+00 15396   0.377E+00    0.490E+00
DAV:   6    -0.695724568061E+03    0.10557E+00   -0.12080E+00 14724   0.315E+00    0.142E+00
DAV:   7    -0.695736948702E+03   -0.12381E-01   -0.27191E-01 14140   0.139E+00    0.610E-01
DAV:   8    -0.695730712861E+03    0.62358E-02   -0.23068E-02 14284   0.465E-01    0.279E-01
DAV:   9    -0.695726981687E+03    0.37312E-02   -0.84815E-03 14012   0.304E-01    0.135E-01
DAV:  10    -0.695725035365E+03    0.19463E-02   -0.28115E-03 15652   0.231E-01    0.544E-02
DAV:  11    -0.695724452881E+03    0.58248E-03   -0.15142E-03 14516   0.141E-01    0.537E-02
DAV:  12    -0.695724033771E+03    0.41911E-03   -0.43069E-04 13044   0.102E-01    0.275E-02
DAV:  13    -0.695723883631E+03    0.15014E-03   -0.20088E-04 10420   0.948E-02    0.334E-02
DAV:  14    -0.695723875265E+03    0.83663E-05   -0.42687E-04 14548   0.584E-02
   3801 T=   264. E= -.69911478E+03 F= -.70403317E+03 E0= -.70403317E+03  EK= 0.49184E+01 SP= 0.00E+00 SK= 0.00E+00
   3802 T=   267. E= -.69918070E+03 F= -.70414218E+03 E0= -.70414218E+03  EK= 0.49615E+01 SP= 0.00E+00 SK= 0.00E+00
   3803 T=   269. E= -.69914682E+03 F= -.70416064E+03 E0= -.70416064E+03  EK= 0.50138E+01 SP= 0.00E+00 SK= 0.00E+00
   3804 T=   268. E= -.69911695E+03 F= -.70410105E+03 E0= -.70410105E+03  EK= 0.49841E+01 SP= 0.00E+00 SK= 0.00E+00
   3805 T=   260. E= -.69917375E+03 F= -.70401120E+03 E0= -.70401120E+03  EK= 0.48374E+01 SP= 0.00E+00 SK= 0.00E+00
   3806 T=   259. E= -.69913663E+03 F= -.70396524E+03 E0= -.70396524E+03  EK= 0.48286E+01 SP= 0.00E+00 SK= 0.00E+00
   3807 T=   259. E= -.69913673E+03 F= -.70395668E+03 E0= -.70395668E+03  EK= 0.48199E+01 SP= 0.00E+00 SK= 0.00E+00
   3808 T=   255. E= -.69924962E+03 F= -.70400374E+03 E0= -.70400374E+03  EK= 0.47541E+01 SP= 0.00E+00 SK= 0.00E+00
   3809 T=   257. E= -.69929869E+03 F= -.70407507E+03 E0= -.70407507E+03  EK= 0.47764E+01 SP= 0.00E+00 SK= 0.00E+00
   3810 T=   259. E= -.69936948E+03 F= -.70418200E+03 E0= -.70418200E+03  EK= 0.48125E+01 SP= 0.00E+00 SK= 0.00E+00
       N       E                     dE             d eps       ncg     rms          rms(c)
DAV:   1    -0.690838330188E+03    0.48856E+01   -0.21476E+03 12190   0.104E+02
DAV:   2    -0.696837829841E+03   -0.59995E+01   -0.59979E+01 14340   0.157E+01
DAV:   3    -0.696898496021E+03   -0.60666E-01   -0.60662E-01 14644   0.166E+00
DAV:   4    -0.696899830490E+03   -0.13345E-02   -0.13344E-02 14460   0.236E-01    0.891E+00
DAV:   5    -0.696054626444E+03    0.84520E+00   -0.15703E+00 15196   0.395E+00    0.482E+00
DAV:   6    -0.695959552422E+03    0.95074E-01   -0.12797E+00 14716   0.301E+00    0.145E+00
DAV:   7    -0.695974574183E+03   -0.15022E-01   -0.25996E-01 14124   0.148E+00    0.574E-01
DAV:   8    -0.695970933280E+03    0.36409E-02   -0.27197E-02 14108   0.509E-01    0.277E-01
DAV:   9    -0.695968814101E+03    0.21192E-02   -0.11383E-02 13772   0.284E-01    0.162E-01
DAV:  10    -0.695967522522E+03    0.12916E-02   -0.30342E-03 17100   0.221E-01    0.486E-02
DAV:  11    -0.695967167921E+03    0.35460E-03   -0.10739E-03 13940   0.106E-01    0.446E-02
DAV:  12    -0.695966841287E+03    0.32663E-03   -0.17537E-04 10572   0.837E-02    0.194E-02
DAV:  13    -0.695966719769E+03    0.12152E-03   -0.28038E-04 12044   0.832E-02    0.240E-02
DAV:  14    -0.695966713332E+03    0.64374E-05   -0.21459E-04 11460   0.438E-02
   3811 T=   262. E= -.69940250E+03 F= -.70427225E+03 E0= -.70427225E+03  EK= 0.48697E+01 SP= 0.00E+00 SK= 0.00E+00
   3812 T=   264. E= -.69941133E+03 F= -.70432945E+03 E0= -.70432945E+03  EK= 0.49181E+01 SP= 0.00E+00 SK= 0.00E+00
   3813 T=   270. E= -.69933768E+03 F= -.70436700E+03 E0= -.70436700E+03  EK= 0.50293E+01 SP= 0.00E+00 SK= 0.00E+00
   3814 T=   276. E= -.69921559E+03 F= -.70436079E+03 E0= -.70436079E+03  EK= 0.51452E+01 SP= 0.00E+00 SK= 0.00E+00
   3815 T=   274. E= -.69920268E+03 F= -.70431099E+03 E0= -.70431099E+03  EK= 0.51083E+01 SP= 0.00E+00 SK= 0.00E+00
   3816 T=   275. E= -.69915341E+03 F= -.70427086E+03 E0= -.70427086E+03  EK= 0.51175E+01 SP= 0.00E+00 SK= 0.00E+00
   3817 T=   281. E= -.69902268E+03 F= -.70424856E+03 E0= -.70424856E+03  EK= 0.52259E+01 SP= 0.00E+00 SK= 0.00E+00
   3818 T=   284. E= -.69893514E+03 F= -.70422993E+03 E0= -.70422993E+03  EK= 0.52948E+01 SP= 0.00E+00 SK= 0.00E+00
   3819 T=   281. E= -.69899796E+03 F= -.70422657E+03 E0= -.70422657E+03  EK= 0.52286E+01 SP= 0.00E+00 SK= 0.00E+00
   3820 T=   276. E= -.69908835E+03 F= -.70422417E+03 E0= -.70422417E+03  EK= 0.51358E+01 SP= 0.00E+00 SK= 0.00E+00
       N       E                     dE             d eps       ncg     rms          rms(c)
DAV:   1    -0.689525211551E+03    0.64415E+01   -0.26225E+03 12190   0.115E+02
DAV:   2    -0.696948691191E+03   -0.74235E+01   -0.74211E+01 14492   0.175E+01
DAV:   3    -0.697023971572E+03   -0.75280E-01   -0.75275E-01 14628   0.184E+00
DAV:   4    -0.697025648603E+03   -0.16770E-02   -0.16770E-02 14484   0.261E-01    0.923E+00
DAV:   5    -0.696089785483E+03    0.93586E+00   -0.16794E+00 15076   0.383E+00    0.502E+00
DAV:   6    -0.695966991731E+03    0.12279E+00   -0.13807E+00 14660   0.306E+00    0.146E+00
DAV:   7    -0.695977852972E+03   -0.10861E-01   -0.27994E-01 14156   0.159E+00    0.585E-01
DAV:   8    -0.695974061771E+03    0.37912E-02   -0.31042E-02 14236   0.481E-01    0.321E-01
DAV:   9    -0.695970802035E+03    0.32597E-02   -0.14831E-02 13692   0.323E-01    0.188E-01
DAV:  10    -0.695968959505E+03    0.18425E-02   -0.31134E-03 16940   0.241E-01    0.671E-02
DAV:  11    -0.695968516780E+03    0.44273E-03   -0.21753E-03 14324   0.144E-01    0.582E-02
DAV:  12    -0.695968124199E+03    0.39258E-03   -0.28783E-04 11876   0.870E-02    0.252E-02
DAV:  13    -0.695967932205E+03    0.19199E-03   -0.32074E-04 12676   0.933E-02    0.294E-02
DAV:  14    -0.695967901922E+03    0.30283E-04   -0.22731E-04 10924   0.572E-02
   3821 T=   276. E= -.69912394E+03 F= -.70426218E+03 E0= -.70426218E+03  EK= 0.51382E+01 SP= 0.00E+00 SK= 0.00E+00
   3822 T=   281. E= -.69912842E+03 F= -.70435591E+03 E0= -.70435591E+03  EK= 0.52275E+01 SP= 0.00E+00 SK= 0.00E+00
   3823 T=   285. E= -.69909598E+03 F= -.70440563E+03 E0= -.70440563E+03  EK= 0.53096E+01 SP= 0.00E+00 SK= 0.00E+00
   3824 T=   286. E= -.69904526E+03 F= -.70436449E+03 E0= -.70436449E+03  EK= 0.53192E+01 SP= 0.00E+00 SK= 0.00E+00
   3825 T=   287. E= -.69891145E+03 F= -.70426098E+03 E0= -.70426098E+03  EK= 0.53495E+01 SP= 0.00E+00 SK= 0.00E+00
   3826 T=   291. E= -.69876832E+03 F= -.70418145E+03 E0= -.70418145E+03  EK= 0.54131E+01 SP= 0.00E+00 SK= 0.00E+00
   3827 T=   292. E= -.69871631E+03 F= -.70414528E+03 E0= -.70414528E+03  EK= 0.54290E+01 SP= 0.00E+00 SK= 0.00E+00
   3828 T=   291. E= -.69872357E+03 F= -.70414360E+03 E0= -.70414360E+03  EK= 0.54200E+01 SP= 0.00E+00 SK= 0.00E+00
   3829 T=   292. E= -.69877820E+03 F= -.70421018E+03 E0= -.70421018E+03  EK= 0.54320E+01 SP= 0.00E+00 SK= 0.00E+00
   3830 T=   293. E= -.69887174E+03 F= -.70431778E+03 E0= -.70431778E+03  EK= 0.54460E+01 SP= 0.00E+00 SK= 0.00E+00
       N       E                     dE             d eps       ncg     rms          rms(c)
DAV:   1    -0.689701754980E+03    0.62662E+01   -0.26276E+03 12190   0.115E+02
DAV:   2    -0.697058888414E+03   -0.73571E+01   -0.73550E+01 14348   0.175E+01
DAV:   3    -0.697133266439E+03   -0.74378E-01   -0.74373E-01 14604   0.184E+00
DAV:   4    -0.697134916939E+03   -0.16505E-02   -0.16504E-02 14420   0.261E-01    0.946E+00
DAV:   5    -0.696210092079E+03    0.92482E+00   -0.16098E+00 14900   0.380E+00    0.520E+00
DAV:   6    -0.696088035595E+03    0.12206E+00   -0.14679E+00 14644   0.310E+00    0.144E+00
DAV:   7    -0.696100916668E+03   -0.12881E-01   -0.26021E-01 14004   0.148E+00    0.580E-01
DAV:   8    -0.696098613728E+03    0.23029E-02   -0.29260E-02 14060   0.459E-01    0.284E-01
DAV:   9    -0.696096571982E+03    0.20417E-02   -0.81319E-03 13924   0.255E-01    0.142E-01
DAV:  10    -0.696095358533E+03    0.12134E-02   -0.18604E-03 15740   0.191E-01    0.472E-02
DAV:  11    -0.696095088581E+03    0.26995E-03   -0.11436E-03 14476   0.103E-01    0.436E-02
DAV:  12    -0.696094837255E+03    0.25133E-03   -0.15518E-04  9940   0.607E-02    0.177E-02
DAV:  13    -0.696094694073E+03    0.14318E-03   -0.18528E-04 10732   0.797E-02    0.250E-02
DAV:  14    -0.696094677585E+03    0.16488E-04   -0.22060E-04 11548   0.523E-02
   3831 T=   294. E= -.69895086E+03 F= -.70441611E+03 E0= -.70441611E+03  EK= 0.54652E+01 SP= 0.00E+00 SK= 0.00E+00
   3832 T=   294. E= -.69886783E+03 F= -.70433957E+03 E0= -.70433957E+03  EK= 0.54717E+01 SP= 0.00E+00 SK= 0.00E+00
   3833 T=   289. E= -.69881485E+03 F= -.70419384E+03 E0= -.70419384E+03  EK= 0.53790E+01 SP= 0.00E+00 SK= 0.00E+00
   3834 T=   280. E= -.69877560E+03 F= -.70399642E+03 E0= -.70399642E+03  EK= 0.52208E+01 SP= 0.00E+00 SK= 0.00E+00
   3835 T=   274. E= -.69875565E+03 F= -.70384760E+03 E0= -.70384760E+03  EK= 0.50920E+01 SP= 0.00E+00 SK= 0.00E+00
   3836 T=   272. E= -.69876556E+03 F= -.70383287E+03 E0= -.70383287E+03  EK= 0.50673E+01 SP= 0.00E+00 SK= 0.00E+00
   3837 T=   277. E= -.69880329E+03 F= -.70395188E+03 E0= -.70395188E+03  EK= 0.51486E+01 SP= 0.00E+00 SK= 0.00E+00
   3838 T=   284. E= -.69881777E+03 F= -.70409836E+03 E0= -.70409836E+03  EK= 0.52806E+01 SP= 0.00E+00 SK= 0.00E+00
   3839 T=   289. E= -.69880258E+03 F= -.70418133E+03 E0= -.70418133E+03  EK= 0.53787E+01 SP= 0.00E+00 SK= 0.00E+00
   3840 T=   290. E= -.69877502E+03 F= -.70416402E+03 E0= -.70416402E+03  EK= 0.53890E+01 SP= 0.00E+00 SK= 0.00E+00
       N       E                     dE             d eps       ncg     rms          rms(c)
DAV:   1    -0.690834297173E+03    0.52604E+01   -0.21238E+03 12190   0.104E+02
DAV:   2    -0.696509426153E+03   -0.56751E+01   -0.56739E+01 14244   0.153E+01
DAV:   3    -0.696568067645E+03   -0.58641E-01   -0.58639E-01 14628   0.164E+00
DAV:   4    -0.696569380204E+03   -0.13126E-02   -0.13125E-02 14404   0.234E-01    0.921E+00
DAV:   5    -0.695801257207E+03    0.76812E+00   -0.13912E+00 15108   0.382E+00    0.509E+00
DAV:   6    -0.695730585159E+03    0.70672E-01   -0.13743E+00 14772   0.323E+00    0.140E+00
DAV:   7    -0.695744131204E+03   -0.13546E-01   -0.25152E-01 14028   0.139E+00    0.568E-01
DAV:   8    -0.695741330833E+03    0.28004E-02   -0.25979E-02 13692   0.431E-01    0.254E-01
DAV:   9    -0.695739327466E+03    0.20034E-02   -0.64976E-03 14068   0.261E-01    0.136E-01
DAV:  10    -0.695738016721E+03    0.13107E-02   -0.23901E-03 14940   0.195E-01    0.457E-02
DAV:  11    -0.695737775112E+03    0.24161E-03   -0.94777E-04 14764   0.957E-02    0.421E-02
DAV:  12    -0.695737604687E+03    0.17043E-03   -0.19195E-04  9628   0.475E-02    0.229E-02
DAV:  13    -0.695737446890E+03    0.15780E-03   -0.17831E-04 10636   0.725E-02    0.251E-02
DAV:  14    -0.695737436207E+03    0.10683E-04   -0.14256E-04 10388   0.353E-02
   3841 T=   281. E= -.69880875E+03 F= -.70404579E+03 E0= -.70404579E+03  EK= 0.52370E+01 SP= 0.00E+00 SK= 0.00E+00
   3842 T=   272. E= -.69883988E+03 F= -.70389704E+03 E0= -.70389704E+03  EK= 0.50572E+01 SP= 0.00E+00 SK= 0.00E+00
   3843 T=   276. E= -.69873685E+03 F= -.70386619E+03 E0= -.70386619E+03  EK= 0.51293E+01 SP= 0.00E+00 SK= 0.00E+00
   3844 T=   282. E= -.69867606E+03 F= -.70392860E+03 E0= -.70392860E+03  EK= 0.52525E+01 SP= 0.00E+00 SK= 0.00E+00
   3845 T=   284. E= -.69877144E+03 F= -.70405078E+03 E0= -.70405078E+03  EK= 0.52793E+01 SP= 0.00E+00 SK= 0.00E+00
   3846 T=   287. E= -.69883906E+03 F= -.70417289E+03 E0= -.70417289E+03  EK= 0.53338E+01 SP= 0.00E+00 SK= 0.00E+00
   3847 T=   289. E= -.69885868E+03 F= -.70423260E+03 E0= -.70423260E+03  EK= 0.53739E+01 SP= 0.00E+00 SK= 0.00E+00
   3848 T=   290. E= -.69887694E+03 F= -.70427661E+03 E0= -.70427661E+03  EK= 0.53997E+01 SP= 0.00E+00 SK= 0.00E+00
   3849 T=   289. E= -.69892270E+03 F= -.70430735E+03 E0= -.70430735E+03  EK= 0.53846E+01 SP= 0.00E+00 SK= 0.00E+00
   3850 T=   286. E= -.69902966E+03 F= -.70435839E+03 E0= -.70435839E+03  EK= 0.53287E+01 SP= 0.00E+00 SK= 0.00E+00
   3851 T=   287. E= -.69909984E+03 F= -.70443441E+03 E0= -.70443441E+03  EK= 0.53346E+01 SP= 0.00E+00 SK= 0.00E+00
   3852 T=   289. E= -.69908975E+03 F= -.70447804E+03 E0= -.70447804E+03  EK= 0.53883E+01 SP= 0.00E+00 SK= 0.00E+00
   3853 T=   298. E= -.69898076E+03 F= -.70453517E+03 E0= -.70453517E+03  EK= 0.55544E+01 SP= 0.00E+00 SK= 0.00E+00
   3854 T=   306. E= -.69885372E+03 F= -.70454779E+03 E0= -.70454779E+03  EK= 0.56941E+01 SP= 0.00E+00 SK= 0.00E+00
       N       E                     dE             d eps       ncg     rms          rms(c)
DAV:   1    -0.685842200719E+03    0.98952E+01   -0.38933E+03 12190   0.140E+02
DAV:   2    -0.697148936280E+03   -0.11307E+02   -0.11303E+02 14204   0.215E+01
DAV:   3    -0.697266815826E+03   -0.11788E+00   -0.11787E+00 14644   0.234E+00
DAV:   4    -0.697269358419E+03   -0.25426E-02   -0.25425E-02 14364   0.328E-01    0.114E+01
DAV:   5    -0.696291487482E+03    0.97787E+00   -0.15296E+00 14076   0.365E+00    0.653E+00
DAV:   6    -0.696184311057E+03    0.10718E+00   -0.21146E+00 14668   0.386E+00    0.136E+00
DAV:   7    -0.696199157160E+03   -0.14846E-01   -0.39426E-01 13972   0.167E+00    0.661E-01
DAV:   8    -0.696194077631E+03    0.50795E-02   -0.31872E-02 14308   0.466E-01    0.338E-01
DAV:   9    -0.696190214872E+03    0.38628E-02   -0.12516E-02 13956   0.364E-01    0.176E-01
DAV:  10    -0.696188142419E+03    0.20725E-02   -0.33629E-03 15956   0.243E-01    0.773E-02
DAV:  11    -0.696187458175E+03    0.68424E-03   -0.24662E-03 14428   0.163E-01    0.667E-02
DAV:  12    -0.696186804742E+03    0.65343E-03   -0.52696E-04 13580   0.122E-01    0.280E-02
DAV:  13    -0.696186543619E+03    0.26112E-03   -0.47081E-04 13300   0.118E-01    0.397E-02
DAV:  14    -0.696186515024E+03    0.28594E-04   -0.47124E-04 14564   0.666E-02
   3855 T=   297. E= -.69896188E+03 F= -.70448448E+03 E0= -.70448448E+03  EK= 0.55226E+01 SP= 0.00E+00 SK= 0.00E+00
   3856 T=   278. E= -.69921516E+03 F= -.70439772E+03 E0= -.70439772E+03  EK= 0.51826E+01 SP= 0.00E+00 SK= 0.00E+00
   3857 T=   267. E= -.69938819E+03 F= -.70435981E+03 E0= -.70435981E+03  EK= 0.49716E+01 SP= 0.00E+00 SK= 0.00E+00
   3858 T=   272. E= -.69939971E+03 F= -.70445954E+03 E0= -.70445954E+03  EK= 0.50598E+01 SP= 0.00E+00 SK= 0.00E+00
   3859 T=   282. E= -.69941639E+03 F= -.70465890E+03 E0= -.70465890E+03  EK= 0.52425E+01 SP= 0.00E+00 SK= 0.00E+00
   3860 T=   286. E= -.69954511E+03 F= -.70486976E+03 E0= -.70486976E+03  EK= 0.53246E+01 SP= 0.00E+00 SK= 0.00E+00
   3861 T=   282. E= -.69968494E+03 F= -.70493106E+03 E0= -.70493106E+03  EK= 0.52461E+01 SP= 0.00E+00 SK= 0.00E+00
   3862 T=   271. E= -.69979710E+03 F= -.70484014E+03 E0= -.70484014E+03  EK= 0.50430E+01 SP= 0.00E+00 SK= 0.00E+00
   3863 T=   258. E= -.69988641E+03 F= -.70468177E+03 E0= -.70468177E+03  EK= 0.47954E+01 SP= 0.00E+00 SK= 0.00E+00
   3864 T=   251. E= -.69992582E+03 F= -.70459770E+03 E0= -.70459770E+03  EK= 0.46719E+01 SP= 0.00E+00 SK= 0.00E+00
   3865 T=   252. E= -.69993705E+03 F= -.70462652E+03 E0= -.70462652E+03  EK= 0.46895E+01 SP= 0.00E+00 SK= 0.00E+00
   3866 T=   260. E= -.69991843E+03 F= -.70476134E+03 E0= -.70476134E+03  EK= 0.48429E+01 SP= 0.00E+00 SK= 0.00E+00
   3867 T=   271. E= -.69986933E+03 F= -.70491438E+03 E0= -.70491438E+03  EK= 0.50451E+01 SP= 0.00E+00 SK= 0.00E+00
   3868 T=   278. E= -.69984853E+03 F= -.70502093E+03 E0= -.70502093E+03  EK= 0.51724E+01 SP= 0.00E+00 SK= 0.00E+00
   3869 T=   279. E= -.69984093E+03 F= -.70503494E+03 E0= -.70503494E+03  EK= 0.51940E+01 SP= 0.00E+00 SK= 0.00E+00
   3870 T=   279. E= -.69982112E+03 F= -.70501619E+03 E0= -.70501619E+03  EK= 0.51951E+01 SP= 0.00E+00 SK= 0.00E+00
   3871 T=   274. E= -.69986037E+03 F= -.70495381E+03 E0= -.70495381E+03  EK= 0.50934E+01 SP= 0.00E+00 SK= 0.00E+00
   3872 T=   268. E= -.69990287E+03 F= -.70488804E+03 E0= -.70488804E+03  EK= 0.49852E+01 SP= 0.00E+00 SK= 0.00E+00
   3873 T=   267. E= -.69990599E+03 F= -.70487514E+03 E0= -.70487514E+03  EK= 0.49691E+01 SP= 0.00E+00 SK= 0.00E+00
   3874 T=   270. E= -.69997243E+03 F= -.70499550E+03 E0= -.70499550E+03  EK= 0.50231E+01 SP= 0.00E+00 SK= 0.00E+00
   3875 T=   273. E= -.70008655E+03 F= -.70517504E+03 E0= -.70517504E+03  EK= 0.50885E+01 SP= 0.00E+00 SK= 0.00E+00
   3876 T=   279. E= -.70013769E+03 F= -.70532963E+03 E0= -.70532963E+03  EK= 0.51919E+01 SP= 0.00E+00 SK= 0.00E+00
   3877 T=   279. E= -.70013536E+03 F= -.70533662E+03 E0= -.70533662E+03  EK= 0.52013E+01 SP= 0.00E+00 SK= 0.00E+00
   3878 T=   270. E= -.70016081E+03 F= -.70519291E+03 E0= -.70519291E+03  EK= 0.50321E+01 SP= 0.00E+00 SK= 0.00E+00
   3879 T=   260. E= -.70018925E+03 F= -.70503044E+03 E0= -.70503044E+03  EK= 0.48412E+01 SP= 0.00E+00 SK= 0.00E+00
   3880 T=   258. E= -.70018910E+03 F= -.70498276E+03 E0= -.70498276E+03  EK= 0.47937E+01 SP= 0.00E+00 SK= 0.00E+00
   3881 T=   262. E= -.70017300E+03 F= -.70504928E+03 E0= -.70504928E+03  EK= 0.48763E+01 SP= 0.00E+00 SK= 0.00E+00
   3882 T=   268. E= -.70021806E+03 F= -.70520381E+03 E0= -.70520381E+03  EK= 0.49858E+01 SP= 0.00E+00 SK= 0.00E+00
   3883 T=   268. E= -.70036727E+03 F= -.70535342E+03 E0= -.70535342E+03  EK= 0.49862E+01 SP= 0.00E+00 SK= 0.00E+00
   3884 T=   261. E= -.70055469E+03 F= -.70541553E+03 E0= -.70541553E+03  EK= 0.48608E+01 SP= 0.00E+00 SK= 0.00E+00
   3885 T=   254. E= -.70062722E+03 F= -.70536392E+03 E0= -.70536392E+03  EK= 0.47367E+01 SP= 0.00E+00 SK= 0.00E+00
   3886 T=   249. E= -.70063840E+03 F= -.70526739E+03 E0= -.70526739E+03  EK= 0.46290E+01 SP= 0.00E+00 SK= 0.00E+00
   3887 T=   244. E= -.70065410E+03 F= -.70519428E+03 E0= -.70519428E+03  EK= 0.45402E+01 SP= 0.00E+00 SK= 0.00E+00
   3888 T=   247. E= -.70058940E+03 F= -.70519620E+03 E0= -.70519620E+03  EK= 0.46068E+01 SP= 0.00E+00 SK= 0.00E+00
   3889 T=   253. E= -.70053430E+03 F= -.70524380E+03 E0= -.70524380E+03  EK= 0.47095E+01 SP= 0.00E+00 SK= 0.00E+00
   3890 T=   256. E= -.70054282E+03 F= -.70531020E+03 E0= -.70531020E+03  EK= 0.47674E+01 SP= 0.00E+00 SK= 0.00E+00
   3891 T=   262. E= -.70053869E+03 F= -.70541119E+03 E0= -.70541119E+03  EK= 0.48725E+01 SP= 0.00E+00 SK= 0.00E+00
   3892 T=   261. E= -.70054891E+03 F= -.70539899E+03 E0= -.70539899E+03  EK= 0.48501E+01 SP= 0.00E+00 SK= 0.00E+00
   3893 T=   254. E= -.70057698E+03 F= -.70530783E+03 E0= -.70530783E+03  EK= 0.47308E+01 SP= 0.00E+00 SK= 0.00E+00
   3894 T=   251. E= -.70051672E+03 F= -.70518374E+03 E0= -.70518374E+03  EK= 0.46670E+01 SP= 0.00E+00 SK= 0.00E+00
   3895 T=   253. E= -.70040044E+03 F= -.70510695E+03 E0= -.70510695E+03  EK= 0.47065E+01 SP= 0.00E+00 SK= 0.00E+00
   3896 T=   258. E= -.70031467E+03 F= -.70512143E+03 E0= -.70512143E+03  EK= 0.48068E+01 SP= 0.00E+00 SK= 0.00E+00
   3897 T=   268. E= -.70024725E+03 F= -.70523045E+03 E0= -.70523045E+03  EK= 0.49832E+01 SP= 0.00E+00 SK= 0.00E+00
   3898 T=   275. E= -.70023281E+03 F= -.70534848E+03 E0= -.70534848E+03  EK= 0.51157E+01 SP= 0.00E+00 SK= 0.00E+00
   3899 T=   275. E= -.70029300E+03 F= -.70541275E+03 E0= -.70541275E+03  EK= 0.51198E+01 SP= 0.00E+00 SK= 0.00E+00
   3900 T=   274. E= -.70029186E+03 F= -.70539327E+03 E0= -.70539327E+03  EK= 0.51014E+01 SP= 0.00E+00 SK= 0.00E+00
   3901 T=   271. E= -.70023928E+03 F= -.70527655E+03 E0= -.70527655E+03  EK= 0.50373E+01 SP= 0.00E+00 SK= 0.00E+00
   3902 T=   259. E= -.70031652E+03 F= -.70512898E+03 E0= -.70512898E+03  EK= 0.48125E+01 SP= 0.00E+00 SK= 0.00E+00
   3903 T=   254. E= -.70033970E+03 F= -.70506924E+03 E0= -.70506924E+03  EK= 0.47295E+01 SP= 0.00E+00 SK= 0.00E+00
   3904 T=   262. E= -.70023868E+03 F= -.70511858E+03 E0= -.70511858E+03  EK= 0.48799E+01 SP= 0.00E+00 SK= 0.00E+00
   3905 T=   270. E= -.70017026E+03 F= -.70520251E+03 E0= -.70520251E+03  EK= 0.50322E+01 SP= 0.00E+00 SK= 0.00E+00
   3906 T=   273. E= -.70013196E+03 F= -.70521601E+03 E0= -.70521601E+03  EK= 0.50840E+01 SP= 0.00E+00 SK= 0.00E+00
   3907 T=   269. E= -.70010604E+03 F= -.70510801E+03 E0= -.70510801E+03  EK= 0.50020E+01 SP= 0.00E+00 SK= 0.00E+00
   3908 T=   260. E= -.70006184E+03 F= -.70490351E+03 E0= -.70490351E+03  EK= 0.48417E+01 SP= 0.00E+00 SK= 0.00E+00
   3909 T=   251. E= -.70005870E+03 F= -.70473738E+03 E0= -.70473738E+03  EK= 0.46787E+01 SP= 0.00E+00 SK= 0.00E+00
   3910 T=   245. E= -.70007240E+03 F= -.70463260E+03 E0= -.70463260E+03  EK= 0.45602E+01 SP= 0.00E+00 SK= 0.00E+00
   3911 T=   247. E= -.70003157E+03 F= -.70462591E+03 E0= -.70462591E+03  EK= 0.45943E+01 SP= 0.00E+00 SK= 0.00E+00
   3912 T=   249. E= -.70004402E+03 F= -.70467913E+03 E0= -.70467913E+03  EK= 0.46351E+01 SP= 0.00E+00 SK= 0.00E+00
   3913 T=   254. E= -.69999343E+03 F= -.70472004E+03 E0= -.70472004E+03  EK= 0.47266E+01 SP= 0.00E+00 SK= 0.00E+00
   3914 T=   260. E= -.69988432E+03 F= -.70471701E+03 E0= -.70471701E+03  EK= 0.48327E+01 SP= 0.00E+00 SK= 0.00E+00
   3915 T=   256. E= -.69989323E+03 F= -.70465602E+03 E0= -.70465602E+03  EK= 0.47628E+01 SP= 0.00E+00 SK= 0.00E+00
   3916 T=   247. E= -.69995964E+03 F= -.70456007E+03 E0= -.70456007E+03  EK= 0.46004E+01 SP= 0.00E+00 SK= 0.00E+00
   3917 T=   240. E= -.70003129E+03 F= -.70449186E+03 E0= -.70449186E+03  EK= 0.44606E+01 SP= 0.00E+00 SK= 0.00E+00
   3918 T=   238. E= -.70005767E+03 F= -.70449205E+03 E0= -.70449205E+03  EK= 0.44344E+01 SP= 0.00E+00 SK= 0.00E+00
   3919 T=   246. E= -.70001264E+03 F= -.70459662E+03 E0= -.70459662E+03  EK= 0.45840E+01 SP= 0.00E+00 SK= 0.00E+00
   3920 T=   257. E= -.69990299E+03 F= -.70469098E+03 E0= -.70469098E+03  EK= 0.47880E+01 SP= 0.00E+00 SK= 0.00E+00
   3921 T=   260. E= -.69987664E+03 F= -.70471658E+03 E0= -.70471658E+03  EK= 0.48399E+01 SP= 0.00E+00 SK= 0.00E+00
   3922 T=   258. E= -.69986871E+03 F= -.70467238E+03 E0= -.70467238E+03  EK= 0.48037E+01 SP= 0.00E+00 SK= 0.00E+00
   3923 T=   260. E= -.69976342E+03 F= -.70460204E+03 E0= -.70460204E+03  EK= 0.48386E+01 SP= 0.00E+00 SK= 0.00E+00
   3924 T=   266. E= -.69965805E+03 F= -.70460339E+03 E0= -.70460339E+03  EK= 0.49453E+01 SP= 0.00E+00 SK= 0.00E+00
   3925 T=   271. E= -.69963756E+03 F= -.70467859E+03 E0= -.70467859E+03  EK= 0.50410E+01 SP= 0.00E+00 SK= 0.00E+00
   3926 T=   276. E= -.69968734E+03 F= -.70481753E+03 E0= -.70481753E+03  EK= 0.51302E+01 SP= 0.00E+00 SK= 0.00E+00
   3927 T=   281. E= -.69976557E+03 F= -.70499896E+03 E0= -.70499896E+03  EK= 0.52334E+01 SP= 0.00E+00 SK= 0.00E+00
   3928 T=   286. E= -.69981966E+03 F= -.70514848E+03 E0= -.70514848E+03  EK= 0.53288E+01 SP= 0.00E+00 SK= 0.00E+00
   3929 T=   292. E= -.69978615E+03 F= -.70521769E+03 E0= -.70521769E+03  EK= 0.54315E+01 SP= 0.00E+00 SK= 0.00E+00
   3930 T=   293. E= -.69977989E+03 F= -.70522867E+03 E0= -.70522867E+03  EK= 0.54488E+01 SP= 0.00E+00 SK= 0.00E+00
   3931 T=   292. E= -.69976814E+03 F= -.70519813E+03 E0= -.70519813E+03  EK= 0.54300E+01 SP= 0.00E+00 SK= 0.00E+00
   3932 T=   292. E= -.69968304E+03 F= -.70512668E+03 E0= -.70512668E+03  EK= 0.54436E+01 SP= 0.00E+00 SK= 0.00E+00
   3933 T=   290. E= -.69968758E+03 F= -.70508384E+03 E0= -.70508384E+03  EK= 0.53963E+01 SP= 0.00E+00 SK= 0.00E+00
   3934 T=   290. E= -.69973015E+03 F= -.70513545E+03 E0= -.70513545E+03  EK= 0.54053E+01 SP= 0.00E+00 SK= 0.00E+00
   3935 T=   300. E= -.69971159E+03 F= -.70529495E+03 E0= -.70529495E+03  EK= 0.55834E+01 SP= 0.00E+00 SK= 0.00E+00
   3936 T=   313. E= -.69961862E+03 F= -.70543938E+03 E0= -.70543938E+03  EK= 0.58208E+01 SP= 0.00E+00 SK= 0.00E+00
   3937 T=   315. E= -.69955361E+03 F= -.70541172E+03 E0= -.70541172E+03  EK= 0.58581E+01 SP= 0.00E+00 SK= 0.00E+00
   3938 T=   304. E= -.69951993E+03 F= -.70518143E+03 E0= -.70518143E+03  EK= 0.56615E+01 SP= 0.00E+00 SK= 0.00E+00
   3939 T=   287. E= -.69952580E+03 F= -.70487049E+03 E0= -.70487049E+03  EK= 0.53447E+01 SP= 0.00E+00 SK= 0.00E+00
   3940 T=   271. E= -.69957790E+03 F= -.70463007E+03 E0= -.70463007E+03  EK= 0.50522E+01 SP= 0.00E+00 SK= 0.00E+00
   3941 T=   268. E= -.69957530E+03 F= -.70455524E+03 E0= -.70455524E+03  EK= 0.49799E+01 SP= 0.00E+00 SK= 0.00E+00
   3942 T=   274. E= -.69952874E+03 F= -.70463382E+03 E0= -.70463382E+03  EK= 0.51051E+01 SP= 0.00E+00 SK= 0.00E+00
   3943 T=   274. E= -.69961349E+03 F= -.70470783E+03 E0= -.70470783E+03  EK= 0.50943E+01 SP= 0.00E+00 SK= 0.00E+00
   3944 T=   271. E= -.69968099E+03 F= -.70471769E+03 E0= -.70471769E+03  EK= 0.50367E+01 SP= 0.00E+00 SK= 0.00E+00
   3945 T=   267. E= -.69966006E+03 F= -.70462834E+03 E0= -.70462834E+03  EK= 0.49683E+01 SP= 0.00E+00 SK= 0.00E+00
   3946 T=   257. E= -.69968102E+03 F= -.70446222E+03 E0= -.70446222E+03  EK= 0.47812E+01 SP= 0.00E+00 SK= 0.00E+00
   3947 T=   250. E= -.69964961E+03 F= -.70431169E+03 E0= -.70431169E+03  EK= 0.46621E+01 SP= 0.00E+00 SK= 0.00E+00
   3948 T=   250. E= -.69963865E+03 F= -.70428600E+03 E0= -.70428600E+03  EK= 0.46474E+01 SP= 0.00E+00 SK= 0.00E+00
   3949 T=   256. E= -.69962559E+03 F= -.70438595E+03 E0= -.70438595E+03  EK= 0.47604E+01 SP= 0.00E+00 SK= 0.00E+00
   3950 T=   271. E= -.69950173E+03 F= -.70455206E+03 E0= -.70455206E+03  EK= 0.50503E+01 SP= 0.00E+00 SK= 0.00E+00
   3951 T=   283. E= -.69943253E+03 F= -.70469195E+03 E0= -.70469195E+03  EK= 0.52594E+01 SP= 0.00E+00 SK= 0.00E+00
   3952 T=   287. E= -.69936805E+03 F= -.70470188E+03 E0= -.70470188E+03  EK= 0.53338E+01 SP= 0.00E+00 SK= 0.00E+00
   3953 T=   289. E= -.69918648E+03 F= -.70455815E+03 E0= -.70455815E+03  EK= 0.53717E+01 SP= 0.00E+00 SK= 0.00E+00
   3954 T=   282. E= -.69907989E+03 F= -.70432639E+03 E0= -.70432639E+03  EK= 0.52465E+01 SP= 0.00E+00 SK= 0.00E+00
   3955 T=   269. E= -.69915184E+03 F= -.70415080E+03 E0= -.70415080E+03  EK= 0.49990E+01 SP= 0.00E+00 SK= 0.00E+00
   3956 T=   267. E= -.69918114E+03 F= -.70415235E+03 E0= -.70415235E+03  EK= 0.49712E+01 SP= 0.00E+00 SK= 0.00E+00
   3957 T=   272. E= -.69924267E+03 F= -.70430372E+03 E0= -.70430372E+03  EK= 0.50611E+01 SP= 0.00E+00 SK= 0.00E+00
   3958 T=   280. E= -.69926591E+03 F= -.70448671E+03 E0= -.70448671E+03  EK= 0.52208E+01 SP= 0.00E+00 SK= 0.00E+00
   3959 T=   289. E= -.69920643E+03 F= -.70459442E+03 E0= -.70459442E+03  EK= 0.53880E+01 SP= 0.00E+00 SK= 0.00E+00
   3960 T=   291. E= -.69917809E+03 F= -.70459754E+03 E0= -.70459754E+03  EK= 0.54195E+01 SP= 0.00E+00 SK= 0.00E+00
   3961 T=   286. E= -.69918437E+03 F= -.70451681E+03 E0= -.70451681E+03  EK= 0.53324E+01 SP= 0.00E+00 SK= 0.00E+00
   3962 T=   282. E= -.69923143E+03 F= -.70447358E+03 E0= -.70447358E+03  EK= 0.52421E+01 SP= 0.00E+00 SK= 0.00E+00
   3963 T=   277. E= -.69931862E+03 F= -.70448026E+03 E0= -.70448026E+03  EK= 0.51616E+01 SP= 0.00E+00 SK= 0.00E+00
   3964 T=   287. E= -.69927515E+03 F= -.70462045E+03 E0= -.70462045E+03  EK= 0.53453E+01 SP= 0.00E+00 SK= 0.00E+00
   3965 T=   306. E= -.69914832E+03 F= -.70485161E+03 E0= -.70485161E+03  EK= 0.57033E+01 SP= 0.00E+00 SK= 0.00E+00
   3966 T=   314. E= -.69918373E+03 F= -.70502730E+03 E0= -.70502730E+03  EK= 0.58436E+01 SP= 0.00E+00 SK= 0.00E+00
   3967 T=   316. E= -.69922203E+03 F= -.70510507E+03 E0= -.70510507E+03  EK= 0.58830E+01 SP= 0.00E+00 SK= 0.00E+00
   3968 T=   313. E= -.69923313E+03 F= -.70506680E+03 E0= -.70506680E+03  EK= 0.58337E+01 SP= 0.00E+00 SK= 0.00E+00
   3969 T=   310. E= -.69919051E+03 F= -.70496192E+03 E0= -.70496192E+03  EK= 0.57714E+01 SP= 0.00E+00 SK= 0.00E+00
   3970 T=   307. E= -.69914489E+03 F= -.70485693E+03 E0= -.70485693E+03  EK= 0.57120E+01 SP= 0.00E+00 SK= 0.00E+00
   3971 T=   309. E= -.69907326E+03 F= -.70482151E+03 E0= -.70482151E+03  EK= 0.57482E+01 SP= 0.00E+00 SK= 0.00E+00
   3972 T=   315. E= -.69897633E+03 F= -.70484034E+03 E0= -.70484034E+03  EK= 0.58640E+01 SP= 0.00E+00 SK= 0.00E+00
   3973 T=   318. E= -.69895796E+03 F= -.70488526E+03 E0= -.70488526E+03  EK= 0.59273E+01 SP= 0.00E+00 SK= 0.00E+00
   3974 T=   318. E= -.69901155E+03 F= -.70492631E+03 E0= -.70492631E+03  EK= 0.59148E+01 SP= 0.00E+00 SK= 0.00E+00
   3975 T=   317. E= -.69901943E+03 F= -.70491988E+03 E0= -.70491988E+03  EK= 0.59004E+01 SP= 0.00E+00 SK= 0.00E+00
   3976 T=   313. E= -.69902749E+03 F= -.70484679E+03 E0= -.70484679E+03  EK= 0.58193E+01 SP= 0.00E+00 SK= 0.00E+00
   3977 T=   301. E= -.69912346E+03 F= -.70473290E+03 E0= -.70473290E+03  EK= 0.56094E+01 SP= 0.00E+00 SK= 0.00E+00
   3978 T=   293. E= -.69919290E+03 F= -.70465571E+03 E0= -.70465571E+03  EK= 0.54628E+01 SP= 0.00E+00 SK= 0.00E+00
   3979 T=   296. E= -.69914356E+03 F= -.70465770E+03 E0= -.70465770E+03  EK= 0.55141E+01 SP= 0.00E+00 SK= 0.00E+00
   3980 T=   302. E= -.69910134E+03 F= -.70472361E+03 E0= -.70472361E+03  EK= 0.56223E+01 SP= 0.00E+00 SK= 0.00E+00
   3981 T=   303. E= -.69914146E+03 F= -.70477640E+03 E0= -.70477640E+03  EK= 0.56349E+01 SP= 0.00E+00 SK= 0.00E+00
   3982 T=   303. E= -.69917063E+03 F= -.70480220E+03 E0= -.70480220E+03  EK= 0.56316E+01 SP= 0.00E+00 SK= 0.00E+00
   3983 T=   305. E= -.69912948E+03 F= -.70479801E+03 E0= -.70479801E+03  EK= 0.56685E+01 SP= 0.00E+00 SK= 0.00E+00
   3984 T=   303. E= -.69912257E+03 F= -.70477087E+03 E0= -.70477087E+03  EK= 0.56483E+01 SP= 0.00E+00 SK= 0.00E+00
   3985 T=   302. E= -.69910785E+03 F= -.70473534E+03 E0= -.70473534E+03  EK= 0.56275E+01 SP= 0.00E+00 SK= 0.00E+00
   3986 T=   308. E= -.69903661E+03 F= -.70476264E+03 E0= -.70476264E+03  EK= 0.57260E+01 SP= 0.00E+00 SK= 0.00E+00
   3987 T=   312. E= -.69899783E+03 F= -.70480120E+03 E0= -.70480120E+03  EK= 0.58034E+01 SP= 0.00E+00 SK= 0.00E+00
   3988 T=   310. E= -.69907719E+03 F= -.70484988E+03 E0= -.70484988E+03  EK= 0.57727E+01 SP= 0.00E+00 SK= 0.00E+00
   3989 T=   304. E= -.69917915E+03 F= -.70484016E+03 E0= -.70484016E+03  EK= 0.56610E+01 SP= 0.00E+00 SK= 0.00E+00
   3990 T=   296. E= -.69926609E+03 F= -.70478240E+03 E0= -.70478240E+03  EK= 0.55163E+01 SP= 0.00E+00 SK= 0.00E+00
   3991 T=   290. E= -.69931377E+03 F= -.70470909E+03 E0= -.70470909E+03  EK= 0.53953E+01 SP= 0.00E+00 SK= 0.00E+00
   3992 T=   290. E= -.69923740E+03 F= -.70463389E+03 E0= -.70463389E+03  EK= 0.53965E+01 SP= 0.00E+00 SK= 0.00E+00
   3993 T=   290. E= -.69914455E+03 F= -.70454116E+03 E0= -.70454116E+03  EK= 0.53966E+01 SP= 0.00E+00 SK= 0.00E+00
   3994 T=   292. E= -.69911099E+03 F= -.70455173E+03 E0= -.70455173E+03  EK= 0.54407E+01 SP= 0.00E+00 SK= 0.00E+00
   3995 T=   297. E= -.69907482E+03 F= -.70459893E+03 E0= -.70459893E+03  EK= 0.55241E+01 SP= 0.00E+00 SK= 0.00E+00
   3996 T=   302. E= -.69903251E+03 F= -.70464734E+03 E0= -.70464734E+03  EK= 0.56148E+01 SP= 0.00E+00 SK= 0.00E+00
   3997 T=   304. E= -.69904239E+03 F= -.70470825E+03 E0= -.70470825E+03  EK= 0.56659E+01 SP= 0.00E+00 SK= 0.00E+00
   3998 T=   305. E= -.69905173E+03 F= -.70472502E+03 E0= -.70472502E+03  EK= 0.56733E+01 SP= 0.00E+00 SK= 0.00E+00
   3999 T=   305. E= -.69903405E+03 F= -.70470527E+03 E0= -.70470527E+03  EK= 0.56712E+01 SP= 0.00E+00 SK= 0.00E+00
   4000 T=   304. E= -.69898879E+03 F= -.70464727E+03 E0= -.70464727E+03  EK= 0.56585E+01 SP= 0.00E+00 SK= 0.00E+00
   4001 T=   307. E= -.69885661E+03 F= -.70457843E+03 E0= -.70457843E+03  EK= 0.57218E+01 SP= 0.00E+00 SK= 0.00E+00
   4002 T=   303. E= -.69883903E+03 F= -.70448131E+03 E0= -.70448131E+03  EK= 0.56423E+01 SP= 0.00E+00 SK= 0.00E+00
   4003 T=   298. E= -.69886792E+03 F= -.70441516E+03 E0= -.70441516E+03  EK= 0.55472E+01 SP= 0.00E+00 SK= 0.00E+00
   4004 T=   301. E= -.69880135E+03 F= -.70440042E+03 E0= -.70440042E+03  EK= 0.55991E+01 SP= 0.00E+00 SK= 0.00E+00
   4005 T=   300. E= -.69880279E+03 F= -.70439287E+03 E0= -.70439287E+03  EK= 0.55901E+01 SP= 0.00E+00 SK= 0.00E+00
   4006 T=   298. E= -.69883729E+03 F= -.70437818E+03 E0= -.70437818E+03  EK= 0.55409E+01 SP= 0.00E+00 SK= 0.00E+00
   4007 T=   298. E= -.69882179E+03 F= -.70436489E+03 E0= -.70436489E+03  EK= 0.55431E+01 SP= 0.00E+00 SK= 0.00E+00
   4008 T=   291. E= -.69892711E+03 F= -.70435049E+03 E0= -.70435049E+03  EK= 0.54234E+01 SP= 0.00E+00 SK= 0.00E+00
   4009 T=   282. E= -.69905291E+03 F= -.70430135E+03 E0= -.70430135E+03  EK= 0.52484E+01 SP= 0.00E+00 SK= 0.00E+00
   4010 T=   274. E= -.69910845E+03 F= -.70420765E+03 E0= -.70420765E+03  EK= 0.50992E+01 SP= 0.00E+00 SK= 0.00E+00
   4011 T=   268. E= -.69912018E+03 F= -.70411182E+03 E0= -.70411182E+03  EK= 0.49916E+01 SP= 0.00E+00 SK= 0.00E+00
   4012 T=   269. E= -.69903362E+03 F= -.70403819E+03 E0= -.70403819E+03  EK= 0.50046E+01 SP= 0.00E+00 SK= 0.00E+00
   4013 T=   275. E= -.69890352E+03 F= -.70402270E+03 E0= -.70402270E+03  EK= 0.51192E+01 SP= 0.00E+00 SK= 0.00E+00
   4014 T=   276. E= -.69889855E+03 F= -.70404171E+03 E0= -.70404171E+03  EK= 0.51432E+01 SP= 0.00E+00 SK= 0.00E+00
       N       E                     dE             d eps       ncg     rms          rms(c)
DAV:   1    -0.277624357109E+03    0.41856E+03   -0.37383E+04 12190   0.406E+02
DAV:   2    -0.694468784879E+03   -0.41684E+03   -0.41105E+03 13678   0.120E+02
DAV:   3    -0.705650292601E+03   -0.11182E+02   -0.11167E+02 14580   0.222E+01
DAV:   4    -0.705837557412E+03   -0.18726E+00   -0.18722E+00 14484   0.271E+00    0.311E+01
DAV:   5    -0.695377434658E+03    0.10460E+02   -0.22330E+01 14420   0.121E+01    0.172E+01
DAV:   6    -0.695306579891E+03    0.70855E-01   -0.13586E+01 13980   0.889E+00    0.587E+00
DAV:   7    -0.695782611158E+03   -0.47603E+00   -0.23360E+00 13788   0.415E+00    0.197E+00
DAV:   8    -0.695805200282E+03   -0.22589E-01   -0.24917E-01 14292   0.137E+00    0.877E-01
DAV:   9    -0.695801485744E+03    0.37145E-02   -0.68073E-02 14036   0.720E-01    0.316E-01
DAV:  10    -0.695799216489E+03    0.22693E-02   -0.11117E-02 14860   0.352E-01    0.144E-01
DAV:  11    -0.695798166142E+03    0.10503E-02   -0.56240E-03 14132   0.201E-01    0.101E-01
DAV:  12    -0.695797045040E+03    0.11211E-02   -0.73958E-04 14420   0.136E-01    0.406E-02
DAV:  13    -0.695796331014E+03    0.71403E-03   -0.90083E-04 13524   0.156E-01    0.492E-02
DAV:  14    -0.695796213909E+03    0.11711E-03   -0.77510E-04 14148   0.935E-02    0.259E-02
DAV:  15    -0.695796206116E+03    0.77924E-05   -0.14343E-04 10228   0.296E-02
   4015 T=   273. E= -.69895081E+03 F= -.70402658E+03 E0= -.70402658E+03  EK= 0.50758E+01 SP= 0.00E+00 SK= 0.00E+00
   4016 T=   270. E= -.69894733E+03 F= -.70397999E+03 E0= -.70397999E+03  EK= 0.50327E+01 SP= 0.00E+00 SK= 0.00E+00
   4017 T=   269. E= -.69893833E+03 F= -.70393963E+03 E0= -.70393963E+03  EK= 0.50013E+01 SP= 0.00E+00 SK= 0.00E+00
   4018 T=   271. E= -.69894912E+03 F= -.70399280E+03 E0= -.70399280E+03  EK= 0.50437E+01 SP= 0.00E+00 SK= 0.00E+00
   4019 T=   282. E= -.69886039E+03 F= -.70411120E+03 E0= -.70411120E+03  EK= 0.52508E+01 SP= 0.00E+00 SK= 0.00E+00
   4020 T=   295. E= -.69877280E+03 F= -.70425670E+03 E0= -.70425670E+03  EK= 0.54839E+01 SP= 0.00E+00 SK= 0.00E+00
   4021 T=   297. E= -.69883127E+03 F= -.70436710E+03 E0= -.70436710E+03  EK= 0.55358E+01 SP= 0.00E+00 SK= 0.00E+00
   4022 T=   295. E= -.69891175E+03 F= -.70440741E+03 E0= -.70440741E+03  EK= 0.54957E+01 SP= 0.00E+00 SK= 0.00E+00
   4023 T=   294. E= -.69891612E+03 F= -.70437954E+03 E0= -.70437954E+03  EK= 0.54634E+01 SP= 0.00E+00 SK= 0.00E+00
   4024 T=   294. E= -.69890583E+03 F= -.70437377E+03 E0= -.70437377E+03  EK= 0.54679E+01 SP= 0.00E+00 SK= 0.00E+00
   4025 T=   303. E= -.69884500E+03 F= -.70449148E+03 E0= -.70449148E+03  EK= 0.56465E+01 SP= 0.00E+00 SK= 0.00E+00
   4026 T=   312. E= -.69886015E+03 F= -.70466891E+03 E0= -.70466891E+03  EK= 0.58088E+01 SP= 0.00E+00 SK= 0.00E+00
   4027 T=   314. E= -.69899625E+03 F= -.70483339E+03 E0= -.70483339E+03  EK= 0.58371E+01 SP= 0.00E+00 SK= 0.00E+00
   4028 T=   311. E= -.69912101E+03 F= -.70491666E+03 E0= -.70491666E+03  EK= 0.57956E+01 SP= 0.00E+00 SK= 0.00E+00
   4029 T=   311. E= -.69917027E+03 F= -.70495502E+03 E0= -.70495502E+03  EK= 0.57848E+01 SP= 0.00E+00 SK= 0.00E+00
   4030 T=   311. E= -.69914921E+03 F= -.70493021E+03 E0= -.70493021E+03  EK= 0.57810E+01 SP= 0.00E+00 SK= 0.00E+00
   4031 T=   314. E= -.69905294E+03 F= -.70490019E+03 E0= -.70490019E+03  EK= 0.58473E+01 SP= 0.00E+00 SK= 0.00E+00
   4032 T=   314. E= -.69896973E+03 F= -.70482311E+03 E0= -.70482311E+03  EK= 0.58534E+01 SP= 0.00E+00 SK= 0.00E+00
   4033 T=   311. E= -.69894645E+03 F= -.70473341E+03 E0= -.70473341E+03  EK= 0.57870E+01 SP= 0.00E+00 SK= 0.00E+00
   4034 T=   311. E= -.69889368E+03 F= -.70467803E+03 E0= -.70467803E+03  EK= 0.57843E+01 SP= 0.00E+00 SK= 0.00E+00
   4035 T=   313. E= -.69887410E+03 F= -.70470445E+03 E0= -.70470445E+03  EK= 0.58303E+01 SP= 0.00E+00 SK= 0.00E+00
   4036 T=   313. E= -.69897468E+03 F= -.70479966E+03 E0= -.70479966E+03  EK= 0.58250E+01 SP= 0.00E+00 SK= 0.00E+00
   4037 T=   315. E= -.69903334E+03 F= -.70488956E+03 E0= -.70488956E+03  EK= 0.58562E+01 SP= 0.00E+00 SK= 0.00E+00
   4038 T=   316. E= -.69901292E+03 F= -.70489422E+03 E0= -.70489422E+03  EK= 0.58813E+01 SP= 0.00E+00 SK= 0.00E+00
   4039 T=   314. E= -.69895149E+03 F= -.70479285E+03 E0= -.70479285E+03  EK= 0.58414E+01 SP= 0.00E+00 SK= 0.00E+00
   4040 T=   310. E= -.69887810E+03 F= -.70464108E+03 E0= -.70464108E+03  EK= 0.57630E+01 SP= 0.00E+00 SK= 0.00E+00
   4041 T=   304. E= -.69886674E+03 F= -.70452027E+03 E0= -.70452027E+03  EK= 0.56535E+01 SP= 0.00E+00 SK= 0.00E+00
   4042 T=   300. E= -.69886788E+03 F= -.70445559E+03 E0= -.70445559E+03  EK= 0.55877E+01 SP= 0.00E+00 SK= 0.00E+00
   4043 T=   295. E= -.69894545E+03 F= -.70444407E+03 E0= -.70444407E+03  EK= 0.54986E+01 SP= 0.00E+00 SK= 0.00E+00
   4044 T=   293. E= -.69898878E+03 F= -.70444819E+03 E0= -.70444819E+03  EK= 0.54594E+01 SP= 0.00E+00 SK= 0.00E+00
   4045 T=   295. E= -.69895066E+03 F= -.70443865E+03 E0= -.70443865E+03  EK= 0.54880E+01 SP= 0.00E+00 SK= 0.00E+00
   4046 T=   292. E= -.69898443E+03 F= -.70441313E+03 E0= -.70441313E+03  EK= 0.54287E+01 SP= 0.00E+00 SK= 0.00E+00
   4047 T=   292. E= -.69895166E+03 F= -.70438992E+03 E0= -.70438992E+03  EK= 0.54383E+01 SP= 0.00E+00 SK= 0.00E+00
   4048 T=   293. E= -.69891803E+03 F= -.70437523E+03 E0= -.70437523E+03  EK= 0.54572E+01 SP= 0.00E+00 SK= 0.00E+00
   4049 T=   285. E= -.69901423E+03 F= -.70432344E+03 E0= -.70432344E+03  EK= 0.53092E+01 SP= 0.00E+00 SK= 0.00E+00
   4050 T=   280. E= -.69905494E+03 F= -.70427283E+03 E0= -.70427283E+03  EK= 0.52179E+01 SP= 0.00E+00 SK= 0.00E+00
   4051 T=   283. E= -.69899255E+03 F= -.70425891E+03 E0= -.70425891E+03  EK= 0.52664E+01 SP= 0.00E+00 SK= 0.00E+00
   4052 T=   282. E= -.69900958E+03 F= -.70424934E+03 E0= -.70424934E+03  EK= 0.52398E+01 SP= 0.00E+00 SK= 0.00E+00
   4053 T=   282. E= -.69897341E+03 F= -.70421986E+03 E0= -.70421986E+03  EK= 0.52465E+01 SP= 0.00E+00 SK= 0.00E+00
   4054 T=   282. E= -.69893565E+03 F= -.70418421E+03 E0= -.70418421E+03  EK= 0.52486E+01 SP= 0.00E+00 SK= 0.00E+00
   4055 T=   275. E= -.69901994E+03 F= -.70414344E+03 E0= -.70414344E+03  EK= 0.51235E+01 SP= 0.00E+00 SK= 0.00E+00
   4056 T=   274. E= -.69903753E+03 F= -.70414290E+03 E0= -.70414290E+03  EK= 0.51054E+01 SP= 0.00E+00 SK= 0.00E+00
   4057 T=   282. E= -.69895342E+03 F= -.70421032E+03 E0= -.70421032E+03  EK= 0.52569E+01 SP= 0.00E+00 SK= 0.00E+00
   4058 T=   287. E= -.69892108E+03 F= -.70426820E+03 E0= -.70426820E+03  EK= 0.53471E+01 SP= 0.00E+00 SK= 0.00E+00
   4059 T=   288. E= -.69890831E+03 F= -.70426095E+03 E0= -.70426095E+03  EK= 0.53526E+01 SP= 0.00E+00 SK= 0.00E+00
   4060 T=   284. E= -.69891691E+03 F= -.70420818E+03 E0= -.70420818E+03  EK= 0.52913E+01 SP= 0.00E+00 SK= 0.00E+00
   4061 T=   275. E= -.69898664E+03 F= -.70410919E+03 E0= -.70410919E+03  EK= 0.51226E+01 SP= 0.00E+00 SK= 0.00E+00
   4062 T=   268. E= -.69904918E+03 F= -.70404540E+03 E0= -.70404540E+03  EK= 0.49962E+01 SP= 0.00E+00 SK= 0.00E+00
       N       E                     dE             d eps       ncg     rms          rms(c)
DAV:   1    -0.549128806773E+03    0.14667E+03   -0.19893E+04 12190   0.303E+02
DAV:   2    -0.697349230029E+03   -0.14822E+03   -0.14789E+03 14332   0.736E+01
DAV:   3    -0.699743573147E+03   -0.23943E+01   -0.23937E+01 14420   0.103E+01
DAV:   4    -0.699787670195E+03   -0.44097E-01   -0.44092E-01 14508   0.135E+00    0.222E+01
DAV:   5    -0.695905878067E+03    0.38818E+01   -0.81303E+00 13972   0.776E+00    0.126E+01
DAV:   6    -0.695665190960E+03    0.24069E+00   -0.76356E+00 14628   0.723E+00    0.323E+00
DAV:   7    -0.695829416538E+03   -0.16423E+00   -0.14054E+00 13996   0.302E+00    0.145E+00
DAV:   8    -0.695820141347E+03    0.92752E-02   -0.12531E-01 14172   0.889E-01    0.677E-01
DAV:   9    -0.695811205317E+03    0.89360E-02   -0.27136E-02 14108   0.560E-01    0.272E-01
DAV:  10    -0.695806382514E+03    0.48228E-02   -0.78063E-03 14396   0.362E-01    0.117E-01
DAV:  11    -0.695804658598E+03    0.17239E-02   -0.51572E-03 14564   0.240E-01    0.918E-02
DAV:  12    -0.695803176393E+03    0.14822E-02   -0.10167E-03 14356   0.166E-01    0.397E-02
DAV:  13    -0.695802341995E+03    0.83440E-03   -0.83816E-04 13332   0.189E-01    0.507E-02
DAV:  14    -0.695802301829E+03    0.40165E-04   -0.12637E-03 14732   0.109E-01    0.264E-02
DAV:  15    -0.695802305271E+03   -0.34414E-05   -0.19971E-04 10380   0.317E-02
   4063 T=   267. E= -.69910783E+03 F= -.70408473E+03 E0= -.70408473E+03  EK= 0.49769E+01 SP= 0.00E+00 SK= 0.00E+00
   4064 T=   277. E= -.69906866E+03 F= -.70421981E+03 E0= -.70421981E+03  EK= 0.51511E+01 SP= 0.00E+00 SK= 0.00E+00
   4065 T=   287. E= -.69901819E+03 F= -.70436927E+03 E0= -.70436927E+03  EK= 0.53511E+01 SP= 0.00E+00 SK= 0.00E+00
   4066 T=   292. E= -.69900026E+03 F= -.70442741E+03 E0= -.70442741E+03  EK= 0.54271E+01 SP= 0.00E+00 SK= 0.00E+00
   4067 T=   295. E= -.69890933E+03 F= -.70440704E+03 E0= -.70440704E+03  EK= 0.54977E+01 SP= 0.00E+00 SK= 0.00E+00
   4068 T=   290. E= -.69890742E+03 F= -.70431429E+03 E0= -.70431429E+03  EK= 0.54069E+01 SP= 0.00E+00 SK= 0.00E+00
   4069 T=   281. E= -.69895853E+03 F= -.70419803E+03 E0= -.70419803E+03  EK= 0.52395E+01 SP= 0.00E+00 SK= 0.00E+00
   4070 T=   281. E= -.69896141E+03 F= -.70419390E+03 E0= -.70419390E+03  EK= 0.52325E+01 SP= 0.00E+00 SK= 0.00E+00
   4071 T=   281. E= -.69907376E+03 F= -.70430175E+03 E0= -.70430175E+03  EK= 0.52280E+01 SP= 0.00E+00 SK= 0.00E+00
   4072 T=   283. E= -.69919168E+03 F= -.70446429E+03 E0= -.70446429E+03  EK= 0.52726E+01 SP= 0.00E+00 SK= 0.00E+00
   4073 T=   287. E= -.69921820E+03 F= -.70455755E+03 E0= -.70455755E+03  EK= 0.53394E+01 SP= 0.00E+00 SK= 0.00E+00
   4074 T=   283. E= -.69922934E+03 F= -.70449136E+03 E0= -.70449136E+03  EK= 0.52620E+01 SP= 0.00E+00 SK= 0.00E+00
   4075 T=   272. E= -.69926974E+03 F= -.70433711E+03 E0= -.70433711E+03  EK= 0.50674E+01 SP= 0.00E+00 SK= 0.00E+00
   4076 T=   267. E= -.69923609E+03 F= -.70421394E+03 E0= -.70421394E+03  EK= 0.49779E+01 SP= 0.00E+00 SK= 0.00E+00
   4077 T=   271. E= -.69911776E+03 F= -.70415676E+03 E0= -.70415676E+03  EK= 0.50390E+01 SP= 0.00E+00 SK= 0.00E+00
   4078 T=   277. E= -.69900398E+03 F= -.70416337E+03 E0= -.70416337E+03  EK= 0.51594E+01 SP= 0.00E+00 SK= 0.00E+00
   4079 T=   287. E= -.69893522E+03 F= -.70427092E+03 E0= -.70427092E+03  EK= 0.53357E+01 SP= 0.00E+00 SK= 0.00E+00
   4080 T=   295. E= -.69889831E+03 F= -.70439109E+03 E0= -.70439109E+03  EK= 0.54928E+01 SP= 0.00E+00 SK= 0.00E+00
   4081 T=   297. E= -.69890957E+03 F= -.70443047E+03 E0= -.70443047E+03  EK= 0.55209E+01 SP= 0.00E+00 SK= 0.00E+00
   4082 T=   293. E= -.69894384E+03 F= -.70439328E+03 E0= -.70439328E+03  EK= 0.54494E+01 SP= 0.00E+00 SK= 0.00E+00
   4083 T=   287. E= -.69894738E+03 F= -.70429607E+03 E0= -.70429607E+03  EK= 0.53487E+01 SP= 0.00E+00 SK= 0.00E+00
   4084 T=   281. E= -.69896594E+03 F= -.70419076E+03 E0= -.70419076E+03  EK= 0.52248E+01 SP= 0.00E+00 SK= 0.00E+00
   4085 T=   275. E= -.69903854E+03 F= -.70414989E+03 E0= -.70414989E+03  EK= 0.51114E+01 SP= 0.00E+00 SK= 0.00E+00
   4086 T=   274. E= -.69908403E+03 F= -.70418665E+03 E0= -.70418665E+03  EK= 0.51026E+01 SP= 0.00E+00 SK= 0.00E+00
   4087 T=   278. E= -.69911960E+03 F= -.70429924E+03 E0= -.70429924E+03  EK= 0.51796E+01 SP= 0.00E+00 SK= 0.00E+00
   4088 T=   281. E= -.69918199E+03 F= -.70441108E+03 E0= -.70441108E+03  EK= 0.52291E+01 SP= 0.00E+00 SK= 0.00E+00
   4089 T=   281. E= -.69924618E+03 F= -.70447415E+03 E0= -.70447415E+03  EK= 0.52280E+01 SP= 0.00E+00 SK= 0.00E+00
   4090 T=   280. E= -.69928882E+03 F= -.70450072E+03 E0= -.70450072E+03  EK= 0.52119E+01 SP= 0.00E+00 SK= 0.00E+00
   4091 T=   275. E= -.69937653E+03 F= -.70448969E+03 E0= -.70448969E+03  EK= 0.51132E+01 SP= 0.00E+00 SK= 0.00E+00
   4092 T=   270. E= -.69944928E+03 F= -.70446627E+03 E0= -.70446627E+03  EK= 0.50170E+01 SP= 0.00E+00 SK= 0.00E+00
   4093 T=   271. E= -.69944122E+03 F= -.70448003E+03 E0= -.70448003E+03  EK= 0.50388E+01 SP= 0.00E+00 SK= 0.00E+00
   4094 T=   274. E= -.69946112E+03 F= -.70455702E+03 E0= -.70455702E+03  EK= 0.50959E+01 SP= 0.00E+00 SK= 0.00E+00
   4095 T=   286. E= -.69940834E+03 F= -.70472499E+03 E0= -.70472499E+03  EK= 0.53166E+01 SP= 0.00E+00 SK= 0.00E+00
   4096 T=   292. E= -.69943863E+03 F= -.70487542E+03 E0= -.70487542E+03  EK= 0.54368E+01 SP= 0.00E+00 SK= 0.00E+00
   4097 T=   291. E= -.69951947E+03 F= -.70494384E+03 E0= -.70494384E+03  EK= 0.54244E+01 SP= 0.00E+00 SK= 0.00E+00
   4098 T=   293. E= -.69953828E+03 F= -.70498310E+03 E0= -.70498310E+03  EK= 0.54448E+01 SP= 0.00E+00 SK= 0.00E+00
   4099 T=   288. E= -.69959311E+03 F= -.70495567E+03 E0= -.70495567E+03  EK= 0.53626E+01 SP= 0.00E+00 SK= 0.00E+00
   4100 T=   284. E= -.69964117E+03 F= -.70493310E+03 E0= -.70493310E+03  EK= 0.52919E+01 SP= 0.00E+00 SK= 0.00E+00
   4101 T=   282. E= -.69968271E+03 F= -.70493449E+03 E0= -.70493449E+03  EK= 0.52518E+01 SP= 0.00E+00 SK= 0.00E+00
   4102 T=   286. E= -.69969612E+03 F= -.70502190E+03 E0= -.70502190E+03  EK= 0.53258E+01 SP= 0.00E+00 SK= 0.00E+00
   4103 T=   292. E= -.69978094E+03 F= -.70521183E+03 E0= -.70521183E+03  EK= 0.54309E+01 SP= 0.00E+00 SK= 0.00E+00
   4104 T=   297. E= -.69985199E+03 F= -.70538915E+03 E0= -.70538915E+03  EK= 0.55372E+01 SP= 0.00E+00 SK= 0.00E+00
   4105 T=   299. E= -.69990126E+03 F= -.70546277E+03 E0= -.70546277E+03  EK= 0.55615E+01 SP= 0.00E+00 SK= 0.00E+00
   4106 T=   298. E= -.69992473E+03 F= -.70546512E+03 E0= -.70546512E+03  EK= 0.55404E+01 SP= 0.00E+00 SK= 0.00E+00
   4107 T=   293. E= -.69992680E+03 F= -.70538853E+03 E0= -.70538853E+03  EK= 0.54617E+01 SP= 0.00E+00 SK= 0.00E+00
   4108 T=   289. E= -.69991602E+03 F= -.70529553E+03 E0= -.70529553E+03  EK= 0.53795E+01 SP= 0.00E+00 SK= 0.00E+00
   4109 T=   290. E= -.69986876E+03 F= -.70527499E+03 E0= -.70527499E+03  EK= 0.54062E+01 SP= 0.00E+00 SK= 0.00E+00
   4110 T=   290. E= -.69992682E+03 F= -.70532105E+03 E0= -.70532105E+03  EK= 0.53942E+01 SP= 0.00E+00 SK= 0.00E+00
   4111 T=   291. E= -.69996786E+03 F= -.70538356E+03 E0= -.70538356E+03  EK= 0.54157E+01 SP= 0.00E+00 SK= 0.00E+00
   4112 T=   291. E= -.70002902E+03 F= -.70544854E+03 E0= -.70544854E+03  EK= 0.54195E+01 SP= 0.00E+00 SK= 0.00E+00
   4113 T=   289. E= -.70011017E+03 F= -.70548999E+03 E0= -.70548999E+03  EK= 0.53798E+01 SP= 0.00E+00 SK= 0.00E+00
   4114 T=   284. E= -.70018651E+03 F= -.70547264E+03 E0= -.70547264E+03  EK= 0.52861E+01 SP= 0.00E+00 SK= 0.00E+00
   4115 T=   277. E= -.70026651E+03 F= -.70542274E+03 E0= -.70542274E+03  EK= 0.51562E+01 SP= 0.00E+00 SK= 0.00E+00
   4116 T=   272. E= -.70024875E+03 F= -.70531856E+03 E0= -.70531856E+03  EK= 0.50698E+01 SP= 0.00E+00 SK= 0.00E+00
   4117 T=   268. E= -.70017467E+03 F= -.70516004E+03 E0= -.70516004E+03  EK= 0.49854E+01 SP= 0.00E+00 SK= 0.00E+00
   4118 T=   263. E= -.70013704E+03 F= -.70502426E+03 E0= -.70502426E+03  EK= 0.48872E+01 SP= 0.00E+00 SK= 0.00E+00
   4119 T=   260. E= -.70009335E+03 F= -.70492514E+03 E0= -.70492514E+03  EK= 0.48318E+01 SP= 0.00E+00 SK= 0.00E+00
   4120 T=   260. E= -.70002967E+03 F= -.70487033E+03 E0= -.70487033E+03  EK= 0.48407E+01 SP= 0.00E+00 SK= 0.00E+00
   4121 T=   256. E= -.70003677E+03 F= -.70479452E+03 E0= -.70479452E+03  EK= 0.47577E+01 SP= 0.00E+00 SK= 0.00E+00
   4122 T=   253. E= -.70000637E+03 F= -.70470641E+03 E0= -.70470641E+03  EK= 0.47000E+01 SP= 0.00E+00 SK= 0.00E+00
   4123 T=   251. E= -.69996336E+03 F= -.70463498E+03 E0= -.70463498E+03  EK= 0.46716E+01 SP= 0.00E+00 SK= 0.00E+00
   4124 T=   249. E= -.69997771E+03 F= -.70461265E+03 E0= -.70461265E+03  EK= 0.46349E+01 SP= 0.00E+00 SK= 0.00E+00
   4125 T=   249. E= -.69999014E+03 F= -.70462121E+03 E0= -.70462121E+03  EK= 0.46311E+01 SP= 0.00E+00 SK= 0.00E+00
   4126 T=   255. E= -.69991756E+03 F= -.70466002E+03 E0= -.70466002E+03  EK= 0.47425E+01 SP= 0.00E+00 SK= 0.00E+00
   4127 T=   267. E= -.69975381E+03 F= -.70471519E+03 E0= -.70471519E+03  EK= 0.49614E+01 SP= 0.00E+00 SK= 0.00E+00
   4128 T=   269. E= -.69968941E+03 F= -.70469779E+03 E0= -.70469779E+03  EK= 0.50084E+01 SP= 0.00E+00 SK= 0.00E+00
   4129 T=   267. E= -.69967208E+03 F= -.70463766E+03 E0= -.70463766E+03  EK= 0.49656E+01 SP= 0.00E+00 SK= 0.00E+00
   4130 T=   274. E= -.69950279E+03 F= -.70459405E+03 E0= -.70459405E+03  EK= 0.50913E+01 SP= 0.00E+00 SK= 0.00E+00
   4131 T=   282. E= -.69934821E+03 F= -.70459786E+03 E0= -.70459786E+03  EK= 0.52497E+01 SP= 0.00E+00 SK= 0.00E+00
   4132 T=   287. E= -.69926722E+03 F= -.70460288E+03 E0= -.70460288E+03  EK= 0.53357E+01 SP= 0.00E+00 SK= 0.00E+00
   4133 T=   288. E= -.69923144E+03 F= -.70459211E+03 E0= -.70459211E+03  EK= 0.53607E+01 SP= 0.00E+00 SK= 0.00E+00
   4134 T=   292. E= -.69913693E+03 F= -.70457035E+03 E0= -.70457035E+03  EK= 0.54334E+01 SP= 0.00E+00 SK= 0.00E+00
   4135 T=   298. E= -.69898635E+03 F= -.70452761E+03 E0= -.70452761E+03  EK= 0.55413E+01 SP= 0.00E+00 SK= 0.00E+00
   4136 T=   302. E= -.69887655E+03 F= -.70450225E+03 E0= -.70450225E+03  EK= 0.56257E+01 SP= 0.00E+00 SK= 0.00E+00
   4137 T=   301. E= -.69884865E+03 F= -.70444417E+03 E0= -.70444417E+03  EK= 0.55955E+01 SP= 0.00E+00 SK= 0.00E+00
   4138 T=   292. E= -.69891592E+03 F= -.70435088E+03 E0= -.70435088E+03  EK= 0.54350E+01 SP= 0.00E+00 SK= 0.00E+00
   4139 T=   288. E= -.69889151E+03 F= -.70425821E+03 E0= -.70425821E+03  EK= 0.53667E+01 SP= 0.00E+00 SK= 0.00E+00
   4140 T=   292. E= -.69877589E+03 F= -.70421161E+03 E0= -.70421161E+03  EK= 0.54357E+01 SP= 0.00E+00 SK= 0.00E+00
   4141 T=   296. E= -.69870561E+03 F= -.70421899E+03 E0= -.70421899E+03  EK= 0.55134E+01 SP= 0.00E+00 SK= 0.00E+00
   4142 T=   305. E= -.69859149E+03 F= -.70426682E+03 E0= -.70426682E+03  EK= 0.56753E+01 SP= 0.00E+00 SK= 0.00E+00
   4143 T=   313. E= -.69851135E+03 F= -.70432990E+03 E0= -.70432990E+03  EK= 0.58186E+01 SP= 0.00E+00 SK= 0.00E+00
   4144 T=   310. E= -.69858691E+03 F= -.70436239E+03 E0= -.70436239E+03  EK= 0.57755E+01 SP= 0.00E+00 SK= 0.00E+00
   4145 T=   307. E= -.69864574E+03 F= -.70436519E+03 E0= -.70436519E+03  EK= 0.57194E+01 SP= 0.00E+00 SK= 0.00E+00
   4146 T=   308. E= -.69860994E+03 F= -.70434313E+03 E0= -.70434313E+03  EK= 0.57332E+01 SP= 0.00E+00 SK= 0.00E+00
   4147 T=   305. E= -.69859518E+03 F= -.70428058E+03 E0= -.70428058E+03  EK= 0.56854E+01 SP= 0.00E+00 SK= 0.00E+00
   4148 T=   302. E= -.69856442E+03 F= -.70418296E+03 E0= -.70418296E+03  EK= 0.56185E+01 SP= 0.00E+00 SK= 0.00E+00
   4149 T=   294. E= -.69857314E+03 F= -.70404739E+03 E0= -.70404739E+03  EK= 0.54742E+01 SP= 0.00E+00 SK= 0.00E+00
   4150 T=   285. E= -.69862223E+03 F= -.70392603E+03 E0= -.70392603E+03  EK= 0.53038E+01 SP= 0.00E+00 SK= 0.00E+00
   4151 T=   283. E= -.69861158E+03 F= -.70387488E+03 E0= -.70387488E+03  EK= 0.52633E+01 SP= 0.00E+00 SK= 0.00E+00
   4152 T=   285. E= -.69863363E+03 F= -.70392987E+03 E0= -.70392987E+03  EK= 0.52962E+01 SP= 0.00E+00 SK= 0.00E+00
   4153 T=   291. E= -.69859103E+03 F= -.70400904E+03 E0= -.70400904E+03  EK= 0.54180E+01 SP= 0.00E+00 SK= 0.00E+00
   4154 T=   297. E= -.69854534E+03 F= -.70407459E+03 E0= -.70407459E+03  EK= 0.55292E+01 SP= 0.00E+00 SK= 0.00E+00
   4155 T=   292. E= -.69862953E+03 F= -.70407241E+03 E0= -.70407241E+03  EK= 0.54429E+01 SP= 0.00E+00 SK= 0.00E+00
   4156 T=   285. E= -.69872505E+03 F= -.70402515E+03 E0= -.70402515E+03  EK= 0.53001E+01 SP= 0.00E+00 SK= 0.00E+00
   4157 T=   285. E= -.69872815E+03 F= -.70402874E+03 E0= -.70402874E+03  EK= 0.53006E+01 SP= 0.00E+00 SK= 0.00E+00
   4158 T=   286. E= -.69875636E+03 F= -.70407232E+03 E0= -.70407232E+03  EK= 0.53160E+01 SP= 0.00E+00 SK= 0.00E+00
   4159 T=   288. E= -.69884007E+03 F= -.70419848E+03 E0= -.70419848E+03  EK= 0.53584E+01 SP= 0.00E+00 SK= 0.00E+00
   4160 T=   296. E= -.69887821E+03 F= -.70438896E+03 E0= -.70438896E+03  EK= 0.55108E+01 SP= 0.00E+00 SK= 0.00E+00
   4161 T=   305. E= -.69888990E+03 F= -.70455807E+03 E0= -.70455807E+03  EK= 0.56682E+01 SP= 0.00E+00 SK= 0.00E+00
   4162 T=   311. E= -.69885813E+03 F= -.70464460E+03 E0= -.70464460E+03  EK= 0.57865E+01 SP= 0.00E+00 SK= 0.00E+00
   4163 T=   313. E= -.69876588E+03 F= -.70458362E+03 E0= -.70458362E+03  EK= 0.58177E+01 SP= 0.00E+00 SK= 0.00E+00
   4164 T=   306. E= -.69873078E+03 F= -.70442353E+03 E0= -.70442353E+03  EK= 0.56928E+01 SP= 0.00E+00 SK= 0.00E+00
   4165 T=   294. E= -.69880546E+03 F= -.70428446E+03 E0= -.70428446E+03  EK= 0.54790E+01 SP= 0.00E+00 SK= 0.00E+00
   4166 T=   289. E= -.69889890E+03 F= -.70427304E+03 E0= -.70427304E+03  EK= 0.53741E+01 SP= 0.00E+00 SK= 0.00E+00
   4167 T=   293. E= -.69890434E+03 F= -.70436460E+03 E0= -.70436460E+03  EK= 0.54603E+01 SP= 0.00E+00 SK= 0.00E+00
   4168 T=   300. E= -.69888158E+03 F= -.70446076E+03 E0= -.70446076E+03  EK= 0.55792E+01 SP= 0.00E+00 SK= 0.00E+00
   4169 T=   299. E= -.69887593E+03 F= -.70443503E+03 E0= -.70443503E+03  EK= 0.55591E+01 SP= 0.00E+00 SK= 0.00E+00
   4170 T=   291. E= -.69887011E+03 F= -.70429297E+03 E0= -.70429297E+03  EK= 0.54229E+01 SP= 0.00E+00 SK= 0.00E+00
   4171 T=   280. E= -.69892787E+03 F= -.70413692E+03 E0= -.70413692E+03  EK= 0.52091E+01 SP= 0.00E+00 SK= 0.00E+00
   4172 T=   271. E= -.69903878E+03 F= -.70408249E+03 E0= -.70408249E+03  EK= 0.50437E+01 SP= 0.00E+00 SK= 0.00E+00
   4173 T=   273. E= -.69910496E+03 F= -.70419528E+03 E0= -.70419528E+03  EK= 0.50903E+01 SP= 0.00E+00 SK= 0.00E+00
   4174 T=   279. E= -.69918758E+03 F= -.70438251E+03 E0= -.70438251E+03  EK= 0.51949E+01 SP= 0.00E+00 SK= 0.00E+00
   4175 T=   285. E= -.69923717E+03 F= -.70453992E+03 E0= -.70453992E+03  EK= 0.53027E+01 SP= 0.00E+00 SK= 0.00E+00
   4176 T=   294. E= -.69914106E+03 F= -.70461532E+03 E0= -.70461532E+03  EK= 0.54743E+01 SP= 0.00E+00 SK= 0.00E+00
   4177 T=   296. E= -.69910439E+03 F= -.70461480E+03 E0= -.70461480E+03  EK= 0.55104E+01 SP= 0.00E+00 SK= 0.00E+00
   4178 T=   291. E= -.69910490E+03 F= -.70451895E+03 E0= -.70451895E+03  EK= 0.54141E+01 SP= 0.00E+00 SK= 0.00E+00
   4179 T=   283. E= -.69909876E+03 F= -.70435976E+03 E0= -.70435976E+03  EK= 0.52610E+01 SP= 0.00E+00 SK= 0.00E+00
   4180 T=   272. E= -.69917306E+03 F= -.70423876E+03 E0= -.70423876E+03  EK= 0.50657E+01 SP= 0.00E+00 SK= 0.00E+00
   4181 T=   271. E= -.69917136E+03 F= -.70421615E+03 E0= -.70421615E+03  EK= 0.50448E+01 SP= 0.00E+00 SK= 0.00E+00
   4182 T=   275. E= -.69912569E+03 F= -.70425217E+03 E0= -.70425217E+03  EK= 0.51265E+01 SP= 0.00E+00 SK= 0.00E+00
   4183 T=   282. E= -.69905277E+03 F= -.70429797E+03 E0= -.70429797E+03  EK= 0.52452E+01 SP= 0.00E+00 SK= 0.00E+00
   4184 T=   284. E= -.69896114E+03 F= -.70425665E+03 E0= -.70425665E+03  EK= 0.52955E+01 SP= 0.00E+00 SK= 0.00E+00
   4185 T=   274. E= -.69903195E+03 F= -.70413288E+03 E0= -.70413288E+03  EK= 0.51009E+01 SP= 0.00E+00 SK= 0.00E+00
   4186 T=   263. E= -.69910012E+03 F= -.70400348E+03 E0= -.70400348E+03  EK= 0.49034E+01 SP= 0.00E+00 SK= 0.00E+00
   4187 T=   265. E= -.69905039E+03 F= -.70397813E+03 E0= -.70397813E+03  EK= 0.49277E+01 SP= 0.00E+00 SK= 0.00E+00
   4188 T=   271. E= -.69906559E+03 F= -.70411312E+03 E0= -.70411312E+03  EK= 0.50475E+01 SP= 0.00E+00 SK= 0.00E+00
   4189 T=   287. E= -.69903807E+03 F= -.70437665E+03 E0= -.70437665E+03  EK= 0.53386E+01 SP= 0.00E+00 SK= 0.00E+00
   4190 T=   303. E= -.69904539E+03 F= -.70469117E+03 E0= -.70469117E+03  EK= 0.56458E+01 SP= 0.00E+00 SK= 0.00E+00
   4191 T=   310. E= -.69914805E+03 F= -.70490928E+03 E0= -.70490928E+03  EK= 0.57612E+01 SP= 0.00E+00 SK= 0.00E+00
   4192 T=   314. E= -.69917341E+03 F= -.70502179E+03 E0= -.70502179E+03  EK= 0.58484E+01 SP= 0.00E+00 SK= 0.00E+00
   4193 T=   316. E= -.69916031E+03 F= -.70504521E+03 E0= -.70504521E+03  EK= 0.58849E+01 SP= 0.00E+00 SK= 0.00E+00
   4194 T=   314. E= -.69909831E+03 F= -.70494998E+03 E0= -.70494998E+03  EK= 0.58517E+01 SP= 0.00E+00 SK= 0.00E+00
   4195 T=   310. E= -.69905656E+03 F= -.70482215E+03 E0= -.70482215E+03  EK= 0.57656E+01 SP= 0.00E+00 SK= 0.00E+00
   4196 T=   297. E= -.69915269E+03 F= -.70467222E+03 E0= -.70467222E+03  EK= 0.55195E+01 SP= 0.00E+00 SK= 0.00E+00
   4197 T=   285. E= -.69925026E+03 F= -.70455955E+03 E0= -.70455955E+03  EK= 0.53093E+01 SP= 0.00E+00 SK= 0.00E+00
   4198 T=   280. E= -.69928910E+03 F= -.70449514E+03 E0= -.70449514E+03  EK= 0.52060E+01 SP= 0.00E+00 SK= 0.00E+00
   4199 T=   275. E= -.69933504E+03 F= -.70444657E+03 E0= -.70444657E+03  EK= 0.51115E+01 SP= 0.00E+00 SK= 0.00E+00
   4200 T=   270. E= -.69933169E+03 F= -.70435743E+03 E0= -.70435743E+03  EK= 0.50257E+01 SP= 0.00E+00 SK= 0.00E+00
   4201 T=   262. E= -.69934036E+03 F= -.70422424E+03 E0= -.70422424E+03  EK= 0.48839E+01 SP= 0.00E+00 SK= 0.00E+00
   4202 T=   258. E= -.69929604E+03 F= -.70409831E+03 E0= -.70409831E+03  EK= 0.48023E+01 SP= 0.00E+00 SK= 0.00E+00
   4203 T=   262. E= -.69918279E+03 F= -.70406215E+03 E0= -.70406215E+03  EK= 0.48794E+01 SP= 0.00E+00 SK= 0.00E+00
   4204 T=   270. E= -.69910523E+03 F= -.70412971E+03 E0= -.70412971E+03  EK= 0.50245E+01 SP= 0.00E+00 SK= 0.00E+00
   4205 T=   278. E= -.69907505E+03 F= -.70425342E+03 E0= -.70425342E+03  EK= 0.51784E+01 SP= 0.00E+00 SK= 0.00E+00
   4206 T=   284. E= -.69913694E+03 F= -.70442779E+03 E0= -.70442779E+03  EK= 0.52909E+01 SP= 0.00E+00 SK= 0.00E+00
   4207 T=   287. E= -.69923643E+03 F= -.70458320E+03 E0= -.70458320E+03  EK= 0.53468E+01 SP= 0.00E+00 SK= 0.00E+00
   4208 T=   289. E= -.69933533E+03 F= -.70470973E+03 E0= -.70470973E+03  EK= 0.53744E+01 SP= 0.00E+00 SK= 0.00E+00
   4209 T=   288. E= -.69946831E+03 F= -.70483334E+03 E0= -.70483334E+03  EK= 0.53650E+01 SP= 0.00E+00 SK= 0.00E+00
   4210 T=   289. E= -.69951460E+03 F= -.70489084E+03 E0= -.70489084E+03  EK= 0.53762E+01 SP= 0.00E+00 SK= 0.00E+00
   4211 T=   289. E= -.69950518E+03 F= -.70487613E+03 E0= -.70487613E+03  EK= 0.53709E+01 SP= 0.00E+00 SK= 0.00E+00
   4212 T=   281. E= -.69960178E+03 F= -.70483762E+03 E0= -.70483762E+03  EK= 0.52358E+01 SP= 0.00E+00 SK= 0.00E+00
   4213 T=   275. E= -.69968812E+03 F= -.70481107E+03 E0= -.70481107E+03  EK= 0.51230E+01 SP= 0.00E+00 SK= 0.00E+00
   4214 T=   273. E= -.69968213E+03 F= -.70476288E+03 E0= -.70476288E+03  EK= 0.50808E+01 SP= 0.00E+00 SK= 0.00E+00
   4215 T=   268. E= -.69969767E+03 F= -.70468418E+03 E0= -.70468418E+03  EK= 0.49865E+01 SP= 0.00E+00 SK= 0.00E+00
   4216 T=   259. E= -.69975462E+03 F= -.70457895E+03 E0= -.70457895E+03  EK= 0.48243E+01 SP= 0.00E+00 SK= 0.00E+00
   4217 T=   250. E= -.69977665E+03 F= -.70442513E+03 E0= -.70442513E+03  EK= 0.46485E+01 SP= 0.00E+00 SK= 0.00E+00
   4218 T=   245. E= -.69972840E+03 F= -.70429084E+03 E0= -.70429084E+03  EK= 0.45624E+01 SP= 0.00E+00 SK= 0.00E+00
   4219 T=   252. E= -.69959734E+03 F= -.70427943E+03 E0= -.70427943E+03  EK= 0.46821E+01 SP= 0.00E+00 SK= 0.00E+00
   4220 T=   255. E= -.69958431E+03 F= -.70432833E+03 E0= -.70432833E+03  EK= 0.47440E+01 SP= 0.00E+00 SK= 0.00E+00
   4221 T=   252. E= -.69967770E+03 F= -.70437738E+03 E0= -.70437738E+03  EK= 0.46997E+01 SP= 0.00E+00 SK= 0.00E+00
   4222 T=   253. E= -.69969288E+03 F= -.70440871E+03 E0= -.70440871E+03  EK= 0.47158E+01 SP= 0.00E+00 SK= 0.00E+00
   4223 T=   256. E= -.69967335E+03 F= -.70443857E+03 E0= -.70443857E+03  EK= 0.47652E+01 SP= 0.00E+00 SK= 0.00E+00
   4224 T=   259. E= -.69963469E+03 F= -.70446313E+03 E0= -.70446313E+03  EK= 0.48284E+01 SP= 0.00E+00 SK= 0.00E+00
   4225 T=   266. E= -.69956658E+03 F= -.70452624E+03 E0= -.70452624E+03  EK= 0.49597E+01 SP= 0.00E+00 SK= 0.00E+00
   4226 T=   274. E= -.69949218E+03 F= -.70459196E+03 E0= -.70459196E+03  EK= 0.50998E+01 SP= 0.00E+00 SK= 0.00E+00
   4227 T=   274. E= -.69952564E+03 F= -.70463482E+03 E0= -.70463482E+03  EK= 0.51092E+01 SP= 0.00E+00 SK= 0.00E+00
   4228 T=   272. E= -.69960057E+03 F= -.70466152E+03 E0= -.70466152E+03  EK= 0.50609E+01 SP= 0.00E+00 SK= 0.00E+00
   4229 T=   274. E= -.69957307E+03 F= -.70466545E+03 E0= -.70466545E+03  EK= 0.50924E+01 SP= 0.00E+00 SK= 0.00E+00
   4230 T=   277. E= -.69948246E+03 F= -.70463869E+03 E0= -.70463869E+03  EK= 0.51562E+01 SP= 0.00E+00 SK= 0.00E+00
   4231 T=   276. E= -.69946278E+03 F= -.70459119E+03 E0= -.70459119E+03  EK= 0.51284E+01 SP= 0.00E+00 SK= 0.00E+00
   4232 T=   272. E= -.69946447E+03 F= -.70452703E+03 E0= -.70452703E+03  EK= 0.50626E+01 SP= 0.00E+00 SK= 0.00E+00
   4233 T=   274. E= -.69939035E+03 F= -.70448570E+03 E0= -.70448570E+03  EK= 0.50953E+01 SP= 0.00E+00 SK= 0.00E+00
   4234 T=   274. E= -.69934980E+03 F= -.70445846E+03 E0= -.70445846E+03  EK= 0.51087E+01 SP= 0.00E+00 SK= 0.00E+00
   4235 T=   274. E= -.69934231E+03 F= -.70444699E+03 E0= -.70444699E+03  EK= 0.51047E+01 SP= 0.00E+00 SK= 0.00E+00
   4236 T=   275. E= -.69939976E+03 F= -.70451392E+03 E0= -.70451392E+03  EK= 0.51142E+01 SP= 0.00E+00 SK= 0.00E+00
   4237 T=   278. E= -.69945021E+03 F= -.70462376E+03 E0= -.70462376E+03  EK= 0.51736E+01 SP= 0.00E+00 SK= 0.00E+00
   4238 T=   285. E= -.69941378E+03 F= -.70472504E+03 E0= -.70472504E+03  EK= 0.53113E+01 SP= 0.00E+00 SK= 0.00E+00
   4239 T=   286. E= -.69943252E+03 F= -.70476288E+03 E0= -.70476288E+03  EK= 0.53304E+01 SP= 0.00E+00 SK= 0.00E+00
   4240 T=   283. E= -.69944025E+03 F= -.70471664E+03 E0= -.70471664E+03  EK= 0.52764E+01 SP= 0.00E+00 SK= 0.00E+00
   4241 T=   279. E= -.69945508E+03 F= -.70463932E+03 E0= -.70463932E+03  EK= 0.51842E+01 SP= 0.00E+00 SK= 0.00E+00
   4242 T=   272. E= -.69949941E+03 F= -.70456667E+03 E0= -.70456667E+03  EK= 0.50673E+01 SP= 0.00E+00 SK= 0.00E+00
   4243 T=   274. E= -.69944595E+03 F= -.70454967E+03 E0= -.70454967E+03  EK= 0.51037E+01 SP= 0.00E+00 SK= 0.00E+00
   4244 T=   281. E= -.69937810E+03 F= -.70461583E+03 E0= -.70461583E+03  EK= 0.52377E+01 SP= 0.00E+00 SK= 0.00E+00
   4245 T=   288. E= -.69937222E+03 F= -.70473543E+03 E0= -.70473543E+03  EK= 0.53632E+01 SP= 0.00E+00 SK= 0.00E+00
   4246 T=   285. E= -.69948324E+03 F= -.70477991E+03 E0= -.70477991E+03  EK= 0.52967E+01 SP= 0.00E+00 SK= 0.00E+00
   4247 T=   280. E= -.69948363E+03 F= -.70469885E+03 E0= -.70469885E+03  EK= 0.52152E+01 SP= 0.00E+00 SK= 0.00E+00
   4248 T=   271. E= -.69945912E+03 F= -.70449523E+03 E0= -.70449523E+03  EK= 0.50361E+01 SP= 0.00E+00 SK= 0.00E+00
   4249 T=   256. E= -.69953861E+03 F= -.70429709E+03 E0= -.70429709E+03  EK= 0.47585E+01 SP= 0.00E+00 SK= 0.00E+00
   4250 T=   252. E= -.69955269E+03 F= -.70424810E+03 E0= -.70424810E+03  EK= 0.46954E+01 SP= 0.00E+00 SK= 0.00E+00
   4251 T=   264. E= -.69947251E+03 F= -.70438713E+03 E0= -.70438713E+03  EK= 0.49146E+01 SP= 0.00E+00 SK= 0.00E+00
   4252 T=   276. E= -.69946243E+03 F= -.70459595E+03 E0= -.70459595E+03  EK= 0.51335E+01 SP= 0.00E+00 SK= 0.00E+00
   4253 T=   281. E= -.69951142E+03 F= -.70474997E+03 E0= -.70474997E+03  EK= 0.52386E+01 SP= 0.00E+00 SK= 0.00E+00
   4254 T=   283. E= -.69951814E+03 F= -.70479408E+03 E0= -.70479408E+03  EK= 0.52759E+01 SP= 0.00E+00 SK= 0.00E+00
   4255 T=   281. E= -.69948393E+03 F= -.70471038E+03 E0= -.70471038E+03  EK= 0.52265E+01 SP= 0.00E+00 SK= 0.00E+00
   4256 T=   271. E= -.69949519E+03 F= -.70453984E+03 E0= -.70453984E+03  EK= 0.50447E+01 SP= 0.00E+00 SK= 0.00E+00
   4257 T=   259. E= -.69953862E+03 F= -.70436160E+03 E0= -.70436160E+03  EK= 0.48230E+01 SP= 0.00E+00 SK= 0.00E+00
   4258 T=   253. E= -.69956197E+03 F= -.70427081E+03 E0= -.70427081E+03  EK= 0.47088E+01 SP= 0.00E+00 SK= 0.00E+00
   4259 T=   258. E= -.69951512E+03 F= -.70432044E+03 E0= -.70432044E+03  EK= 0.48053E+01 SP= 0.00E+00 SK= 0.00E+00
   4260 T=   270. E= -.69946268E+03 F= -.70448584E+03 E0= -.70448584E+03  EK= 0.50232E+01 SP= 0.00E+00 SK= 0.00E+00
   4261 T=   284. E= -.69943148E+03 F= -.70471359E+03 E0= -.70471359E+03  EK= 0.52821E+01 SP= 0.00E+00 SK= 0.00E+00
   4262 T=   296. E= -.69932859E+03 F= -.70483494E+03 E0= -.70483494E+03  EK= 0.55064E+01 SP= 0.00E+00 SK= 0.00E+00
   4263 T=   301. E= -.69917806E+03 F= -.70478807E+03 E0= -.70478807E+03  EK= 0.56100E+01 SP= 0.00E+00 SK= 0.00E+00
   4264 T=   297. E= -.69913791E+03 F= -.70466193E+03 E0= -.70466193E+03  EK= 0.55240E+01 SP= 0.00E+00 SK= 0.00E+00
   4265 T=   289. E= -.69918615E+03 F= -.70456269E+03 E0= -.70456269E+03  EK= 0.53765E+01 SP= 0.00E+00 SK= 0.00E+00
   4266 T=   292. E= -.69914589E+03 F= -.70457876E+03 E0= -.70457876E+03  EK= 0.54329E+01 SP= 0.00E+00 SK= 0.00E+00
   4267 T=   294. E= -.69918246E+03 F= -.70465893E+03 E0= -.70465893E+03  EK= 0.54765E+01 SP= 0.00E+00 SK= 0.00E+00
   4268 T=   293. E= -.69927579E+03 F= -.70472298E+03 E0= -.70472298E+03  EK= 0.54472E+01 SP= 0.00E+00 SK= 0.00E+00
   4269 T=   293. E= -.69928176E+03 F= -.70472664E+03 E0= -.70472664E+03  EK= 0.54449E+01 SP= 0.00E+00 SK= 0.00E+00
   4270 T=   294. E= -.69919209E+03 F= -.70466504E+03 E0= -.70466504E+03  EK= 0.54730E+01 SP= 0.00E+00 SK= 0.00E+00
   4271 T=   289. E= -.69916345E+03 F= -.70453449E+03 E0= -.70453449E+03  EK= 0.53710E+01 SP= 0.00E+00 SK= 0.00E+00
   4272 T=   281. E= -.69917077E+03 F= -.70439590E+03 E0= -.70439590E+03  EK= 0.52251E+01 SP= 0.00E+00 SK= 0.00E+00
   4273 T=   276. E= -.69913906E+03 F= -.70427328E+03 E0= -.70427328E+03  EK= 0.51342E+01 SP= 0.00E+00 SK= 0.00E+00
   4274 T=   275. E= -.69908006E+03 F= -.70419233E+03 E0= -.70419233E+03  EK= 0.51123E+01 SP= 0.00E+00 SK= 0.00E+00
   4275 T=   276. E= -.69905417E+03 F= -.70419954E+03 E0= -.70419954E+03  EK= 0.51454E+01 SP= 0.00E+00 SK= 0.00E+00
   4276 T=   283. E= -.69903826E+03 F= -.70430029E+03 E0= -.70430029E+03  EK= 0.52620E+01 SP= 0.00E+00 SK= 0.00E+00
   4277 T=   293. E= -.69900009E+03 F= -.70445261E+03 E0= -.70445261E+03  EK= 0.54525E+01 SP= 0.00E+00 SK= 0.00E+00
   4278 T=   305. E= -.69892898E+03 F= -.70459925E+03 E0= -.70459925E+03  EK= 0.56703E+01 SP= 0.00E+00 SK= 0.00E+00
   4279 T=   306. E= -.69892862E+03 F= -.70462292E+03 E0= -.70462292E+03  EK= 0.56943E+01 SP= 0.00E+00 SK= 0.00E+00
   4280 T=   303. E= -.69894795E+03 F= -.70458605E+03 E0= -.70458605E+03  EK= 0.56381E+01 SP= 0.00E+00 SK= 0.00E+00
   4281 T=   304. E= -.69886095E+03 F= -.70452341E+03 E0= -.70452341E+03  EK= 0.56625E+01 SP= 0.00E+00 SK= 0.00E+00
   4282 T=   309. E= -.69876804E+03 F= -.70451443E+03 E0= -.70451443E+03  EK= 0.57464E+01 SP= 0.00E+00 SK= 0.00E+00
   4283 T=   307. E= -.69881230E+03 F= -.70453059E+03 E0= -.70453059E+03  EK= 0.57183E+01 SP= 0.00E+00 SK= 0.00E+00
   4284 T=   308. E= -.69886358E+03 F= -.70460006E+03 E0= -.70460006E+03  EK= 0.57365E+01 SP= 0.00E+00 SK= 0.00E+00
   4285 T=   313. E= -.69885655E+03 F= -.70468555E+03 E0= -.70468555E+03  EK= 0.58290E+01 SP= 0.00E+00 SK= 0.00E+00
   4286 T=   309. E= -.69896415E+03 F= -.70472391E+03 E0= -.70472391E+03  EK= 0.57598E+01 SP= 0.00E+00 SK= 0.00E+00
   4287 T=   304. E= -.69912699E+03 F= -.70478329E+03 E0= -.70478329E+03  EK= 0.56563E+01 SP= 0.00E+00 SK= 0.00E+00
   4288 T=   297. E= -.69923886E+03 F= -.70476493E+03 E0= -.70476493E+03  EK= 0.55261E+01 SP= 0.00E+00 SK= 0.00E+00
   4289 T=   290. E= -.69922806E+03 F= -.70462178E+03 E0= -.70462178E+03  EK= 0.53937E+01 SP= 0.00E+00 SK= 0.00E+00
   4290 T=   282. E= -.69915121E+03 F= -.70440084E+03 E0= -.70440084E+03  EK= 0.52496E+01 SP= 0.00E+00 SK= 0.00E+00
   4291 T=   276. E= -.69910062E+03 F= -.70423159E+03 E0= -.70423159E+03  EK= 0.51310E+01 SP= 0.00E+00 SK= 0.00E+00
   4292 T=   277. E= -.69900225E+03 F= -.70415242E+03 E0= -.70415242E+03  EK= 0.51502E+01 SP= 0.00E+00 SK= 0.00E+00
   4293 T=   281. E= -.69894106E+03 F= -.70417711E+03 E0= -.70417711E+03  EK= 0.52361E+01 SP= 0.00E+00 SK= 0.00E+00
   4294 T=   282. E= -.69896844E+03 F= -.70420882E+03 E0= -.70420882E+03  EK= 0.52404E+01 SP= 0.00E+00 SK= 0.00E+00
   4295 T=   283. E= -.69899242E+03 F= -.70425155E+03 E0= -.70425155E+03  EK= 0.52591E+01 SP= 0.00E+00 SK= 0.00E+00
   4296 T=   290. E= -.69892159E+03 F= -.70432004E+03 E0= -.70432004E+03  EK= 0.53985E+01 SP= 0.00E+00 SK= 0.00E+00
   4297 T=   299. E= -.69885085E+03 F= -.70442439E+03 E0= -.70442439E+03  EK= 0.55735E+01 SP= 0.00E+00 SK= 0.00E+00
   4298 T=   303. E= -.69883472E+03 F= -.70447729E+03 E0= -.70447729E+03  EK= 0.56426E+01 SP= 0.00E+00 SK= 0.00E+00
   4299 T=   298. E= -.69889373E+03 F= -.70443782E+03 E0= -.70443782E+03  EK= 0.55441E+01 SP= 0.00E+00 SK= 0.00E+00
   4300 T=   288. E= -.69896539E+03 F= -.70432395E+03 E0= -.70432395E+03  EK= 0.53586E+01 SP= 0.00E+00 SK= 0.00E+00
   4301 T=   280. E= -.69897259E+03 F= -.70417888E+03 E0= -.70417888E+03  EK= 0.52063E+01 SP= 0.00E+00 SK= 0.00E+00
   4302 T=   282. E= -.69894074E+03 F= -.70419160E+03 E0= -.70419160E+03  EK= 0.52509E+01 SP= 0.00E+00 SK= 0.00E+00
   4303 T=   292. E= -.69889557E+03 F= -.70433568E+03 E0= -.70433568E+03  EK= 0.54401E+01 SP= 0.00E+00 SK= 0.00E+00
   4304 T=   304. E= -.69884527E+03 F= -.70449875E+03 E0= -.70449875E+03  EK= 0.56535E+01 SP= 0.00E+00 SK= 0.00E+00
   4305 T=   313. E= -.69876245E+03 F= -.70458328E+03 E0= -.70458328E+03  EK= 0.58208E+01 SP= 0.00E+00 SK= 0.00E+00
   4306 T=   309. E= -.69874535E+03 F= -.70449873E+03 E0= -.70449873E+03  EK= 0.57534E+01 SP= 0.00E+00 SK= 0.00E+00
   4307 T=   295. E= -.69881483E+03 F= -.70430985E+03 E0= -.70430985E+03  EK= 0.54950E+01 SP= 0.00E+00 SK= 0.00E+00
   4308 T=   281. E= -.69893804E+03 F= -.70417051E+03 E0= -.70417051E+03  EK= 0.52325E+01 SP= 0.00E+00 SK= 0.00E+00
   4309 T=   273. E= -.69905383E+03 F= -.70412755E+03 E0= -.70412755E+03  EK= 0.50737E+01 SP= 0.00E+00 SK= 0.00E+00
   4310 T=   272. E= -.69908581E+03 F= -.70415605E+03 E0= -.70415605E+03  EK= 0.50702E+01 SP= 0.00E+00 SK= 0.00E+00
   4311 T=   276. E= -.69908934E+03 F= -.70423454E+03 E0= -.70423454E+03  EK= 0.51452E+01 SP= 0.00E+00 SK= 0.00E+00
   4312 T=   281. E= -.69911811E+03 F= -.70434953E+03 E0= -.70434953E+03  EK= 0.52314E+01 SP= 0.00E+00 SK= 0.00E+00
   4313 T=   287. E= -.69908742E+03 F= -.70443184E+03 E0= -.70443184E+03  EK= 0.53444E+01 SP= 0.00E+00 SK= 0.00E+00
   4314 T=   294. E= -.69903405E+03 F= -.70451018E+03 E0= -.70451018E+03  EK= 0.54761E+01 SP= 0.00E+00 SK= 0.00E+00
   4315 T=   292. E= -.69909874E+03 F= -.70453042E+03 E0= -.70453042E+03  EK= 0.54317E+01 SP= 0.00E+00 SK= 0.00E+00
   4316 T=   283. E= -.69920343E+03 F= -.70447895E+03 E0= -.70447895E+03  EK= 0.52755E+01 SP= 0.00E+00 SK= 0.00E+00
   4317 T=   277. E= -.69931296E+03 F= -.70446384E+03 E0= -.70446384E+03  EK= 0.51509E+01 SP= 0.00E+00 SK= 0.00E+00
   4318 T=   277. E= -.69935153E+03 F= -.70451061E+03 E0= -.70451061E+03  EK= 0.51591E+01 SP= 0.00E+00 SK= 0.00E+00
   4319 T=   283. E= -.69935389E+03 F= -.70462254E+03 E0= -.70462254E+03  EK= 0.52687E+01 SP= 0.00E+00 SK= 0.00E+00
   4320 T=   286. E= -.69945841E+03 F= -.70478549E+03 E0= -.70478549E+03  EK= 0.53271E+01 SP= 0.00E+00 SK= 0.00E+00
   4321 T=   290. E= -.69952758E+03 F= -.70493476E+03 E0= -.70493476E+03  EK= 0.54072E+01 SP= 0.00E+00 SK= 0.00E+00
   4322 T=   292. E= -.69956662E+03 F= -.70500158E+03 E0= -.70500158E+03  EK= 0.54350E+01 SP= 0.00E+00 SK= 0.00E+00
   4323 T=   289. E= -.69963509E+03 F= -.70501848E+03 E0= -.70501848E+03  EK= 0.53834E+01 SP= 0.00E+00 SK= 0.00E+00
   4324 T=   283. E= -.69969545E+03 F= -.70497133E+03 E0= -.70497133E+03  EK= 0.52759E+01 SP= 0.00E+00 SK= 0.00E+00
   4325 T=   280. E= -.69969821E+03 F= -.70491432E+03 E0= -.70491432E+03  EK= 0.52161E+01 SP= 0.00E+00 SK= 0.00E+00
   4326 T=   276. E= -.69972365E+03 F= -.70485660E+03 E0= -.70485660E+03  EK= 0.51329E+01 SP= 0.00E+00 SK= 0.00E+00
   4327 T=   275. E= -.69969268E+03 F= -.70480599E+03 E0= -.70480599E+03  EK= 0.51133E+01 SP= 0.00E+00 SK= 0.00E+00
   4328 T=   278. E= -.69964828E+03 F= -.70482877E+03 E0= -.70482877E+03  EK= 0.51805E+01 SP= 0.00E+00 SK= 0.00E+00
   4329 T=   284. E= -.69962705E+03 F= -.70491390E+03 E0= -.70491390E+03  EK= 0.52868E+01 SP= 0.00E+00 SK= 0.00E+00
   4330 T=   290. E= -.69963580E+03 F= -.70503569E+03 E0= -.70503569E+03  EK= 0.53999E+01 SP= 0.00E+00 SK= 0.00E+00
   4331 T=   292. E= -.69968013E+03 F= -.70511584E+03 E0= -.70511584E+03  EK= 0.54357E+01 SP= 0.00E+00 SK= 0.00E+00
   4332 T=   292. E= -.69965056E+03 F= -.70507684E+03 E0= -.70507684E+03  EK= 0.54263E+01 SP= 0.00E+00 SK= 0.00E+00
   4333 T=   283. E= -.69965848E+03 F= -.70493439E+03 E0= -.70493439E+03  EK= 0.52759E+01 SP= 0.00E+00 SK= 0.00E+00
   4334 T=   278. E= -.69960821E+03 F= -.70478444E+03 E0= -.70478444E+03  EK= 0.51762E+01 SP= 0.00E+00 SK= 0.00E+00
   4335 T=   283. E= -.69947555E+03 F= -.70473486E+03 E0= -.70473486E+03  EK= 0.52593E+01 SP= 0.00E+00 SK= 0.00E+00
   4336 T=   291. E= -.69938375E+03 F= -.70480709E+03 E0= -.70480709E+03  EK= 0.54233E+01 SP= 0.00E+00 SK= 0.00E+00
   4337 T=   297. E= -.69931134E+03 F= -.70483920E+03 E0= -.70483920E+03  EK= 0.55279E+01 SP= 0.00E+00 SK= 0.00E+00
   4338 T=   296. E= -.69930472E+03 F= -.70480641E+03 E0= -.70480641E+03  EK= 0.55017E+01 SP= 0.00E+00 SK= 0.00E+00
   4339 T=   291. E= -.69928854E+03 F= -.70470270E+03 E0= -.70470270E+03  EK= 0.54142E+01 SP= 0.00E+00 SK= 0.00E+00
   4340 T=   292. E= -.69921751E+03 F= -.70466035E+03 E0= -.70466035E+03  EK= 0.54428E+01 SP= 0.00E+00 SK= 0.00E+00
   4341 T=   295. E= -.69915941E+03 F= -.70465257E+03 E0= -.70465257E+03  EK= 0.54932E+01 SP= 0.00E+00 SK= 0.00E+00
   4342 T=   295. E= -.69915833E+03 F= -.70465112E+03 E0= -.70465112E+03  EK= 0.54928E+01 SP= 0.00E+00 SK= 0.00E+00
   4343 T=   290. E= -.69919438E+03 F= -.70459350E+03 E0= -.70459350E+03  EK= 0.53991E+01 SP= 0.00E+00 SK= 0.00E+00
   4344 T=   286. E= -.69917318E+03 F= -.70449625E+03 E0= -.70449625E+03  EK= 0.53231E+01 SP= 0.00E+00 SK= 0.00E+00
   4345 T=   279. E= -.69921028E+03 F= -.70440586E+03 E0= -.70440586E+03  EK= 0.51956E+01 SP= 0.00E+00 SK= 0.00E+00
   4346 T=   279. E= -.69919258E+03 F= -.70438236E+03 E0= -.70438236E+03  EK= 0.51898E+01 SP= 0.00E+00 SK= 0.00E+00
   4347 T=   279. E= -.69917977E+03 F= -.70437730E+03 E0= -.70437730E+03  EK= 0.51975E+01 SP= 0.00E+00 SK= 0.00E+00
   4348 T=   276. E= -.69923117E+03 F= -.70437617E+03 E0= -.70437617E+03  EK= 0.51450E+01 SP= 0.00E+00 SK= 0.00E+00
   4349 T=   272. E= -.69926828E+03 F= -.70433327E+03 E0= -.70433327E+03  EK= 0.50650E+01 SP= 0.00E+00 SK= 0.00E+00
   4350 T=   267. E= -.69930705E+03 F= -.70427530E+03 E0= -.70427530E+03  EK= 0.49683E+01 SP= 0.00E+00 SK= 0.00E+00
   4351 T=   265. E= -.69930348E+03 F= -.70423209E+03 E0= -.70423209E+03  EK= 0.49286E+01 SP= 0.00E+00 SK= 0.00E+00
   4352 T=   263. E= -.69930173E+03 F= -.70419640E+03 E0= -.70419640E+03  EK= 0.48947E+01 SP= 0.00E+00 SK= 0.00E+00
   4353 T=   260. E= -.69932048E+03 F= -.70416279E+03 E0= -.70416279E+03  EK= 0.48423E+01 SP= 0.00E+00 SK= 0.00E+00
   4354 T=   259. E= -.69933980E+03 F= -.70415993E+03 E0= -.70415993E+03  EK= 0.48201E+01 SP= 0.00E+00 SK= 0.00E+00
   4355 T=   263. E= -.69934351E+03 F= -.70423177E+03 E0= -.70423177E+03  EK= 0.48883E+01 SP= 0.00E+00 SK= 0.00E+00
   4356 T=   266. E= -.69932923E+03 F= -.70428437E+03 E0= -.70428437E+03  EK= 0.49551E+01 SP= 0.00E+00 SK= 0.00E+00
   4357 T=   266. E= -.69932098E+03 F= -.70427822E+03 E0= -.70427822E+03  EK= 0.49572E+01 SP= 0.00E+00 SK= 0.00E+00
   4358 T=   265. E= -.69926719E+03 F= -.70420902E+03 E0= -.70420902E+03  EK= 0.49418E+01 SP= 0.00E+00 SK= 0.00E+00
   4359 T=   267. E= -.69915658E+03 F= -.70412447E+03 E0= -.70412447E+03  EK= 0.49679E+01 SP= 0.00E+00 SK= 0.00E+00
   4360 T=   271. E= -.69905087E+03 F= -.70410334E+03 E0= -.70410334E+03  EK= 0.50525E+01 SP= 0.00E+00 SK= 0.00E+00
   4361 T=   272. E= -.69901351E+03 F= -.70408488E+03 E0= -.70408488E+03  EK= 0.50714E+01 SP= 0.00E+00 SK= 0.00E+00
   4362 T=   269. E= -.69902818E+03 F= -.70404360E+03 E0= -.70404360E+03  EK= 0.50154E+01 SP= 0.00E+00 SK= 0.00E+00
   4363 T=   265. E= -.69905095E+03 F= -.70398806E+03 E0= -.70398806E+03  EK= 0.49371E+01 SP= 0.00E+00 SK= 0.00E+00
   4364 T=   259. E= -.69915205E+03 F= -.70396930E+03 E0= -.70396930E+03  EK= 0.48173E+01 SP= 0.00E+00 SK= 0.00E+00
   4365 T=   254. E= -.69925300E+03 F= -.70398594E+03 E0= -.70398594E+03  EK= 0.47329E+01 SP= 0.00E+00 SK= 0.00E+00
   4366 T=   257. E= -.69923923E+03 F= -.70402847E+03 E0= -.70402847E+03  EK= 0.47892E+01 SP= 0.00E+00 SK= 0.00E+00
   4367 T=   261. E= -.69923514E+03 F= -.70409183E+03 E0= -.70409183E+03  EK= 0.48567E+01 SP= 0.00E+00 SK= 0.00E+00
   4368 T=   264. E= -.69922134E+03 F= -.70413436E+03 E0= -.70413436E+03  EK= 0.49130E+01 SP= 0.00E+00 SK= 0.00E+00
   4369 T=   262. E= -.69925184E+03 F= -.70413252E+03 E0= -.70413252E+03  EK= 0.48807E+01 SP= 0.00E+00 SK= 0.00E+00
   4370 T=   256. E= -.69935982E+03 F= -.70413285E+03 E0= -.70413285E+03  EK= 0.47730E+01 SP= 0.00E+00 SK= 0.00E+00
   4371 T=   259. E= -.69937981E+03 F= -.70420762E+03 E0= -.70420762E+03  EK= 0.48278E+01 SP= 0.00E+00 SK= 0.00E+00
   4372 T=   265. E= -.69937528E+03 F= -.70430707E+03 E0= -.70430707E+03  EK= 0.49318E+01 SP= 0.00E+00 SK= 0.00E+00
   4373 T=   267. E= -.69942719E+03 F= -.70439591E+03 E0= -.70439591E+03  EK= 0.49687E+01 SP= 0.00E+00 SK= 0.00E+00
   4374 T=   271. E= -.69943584E+03 F= -.70447746E+03 E0= -.70447746E+03  EK= 0.50416E+01 SP= 0.00E+00 SK= 0.00E+00
   4375 T=   276. E= -.69942321E+03 F= -.70455497E+03 E0= -.70455497E+03  EK= 0.51318E+01 SP= 0.00E+00 SK= 0.00E+00
   4376 T=   276. E= -.69948019E+03 F= -.70462312E+03 E0= -.70462312E+03  EK= 0.51429E+01 SP= 0.00E+00 SK= 0.00E+00
   4377 T=   276. E= -.69952393E+03 F= -.70465662E+03 E0= -.70465662E+03  EK= 0.51327E+01 SP= 0.00E+00 SK= 0.00E+00
   4378 T=   282. E= -.69944079E+03 F= -.70468096E+03 E0= -.70468096E+03  EK= 0.52402E+01 SP= 0.00E+00 SK= 0.00E+00
   4379 T=   290. E= -.69931847E+03 F= -.70472146E+03 E0= -.70472146E+03  EK= 0.54030E+01 SP= 0.00E+00 SK= 0.00E+00
   4380 T=   293. E= -.69929834E+03 F= -.70475715E+03 E0= -.70475715E+03  EK= 0.54588E+01 SP= 0.00E+00 SK= 0.00E+00
   4381 T=   296. E= -.69929581E+03 F= -.70481398E+03 E0= -.70481398E+03  EK= 0.55182E+01 SP= 0.00E+00 SK= 0.00E+00
   4382 T=   303. E= -.69919972E+03 F= -.70484574E+03 E0= -.70484574E+03  EK= 0.56460E+01 SP= 0.00E+00 SK= 0.00E+00
   4383 T=   310. E= -.69904008E+03 F= -.70481072E+03 E0= -.70481072E+03  EK= 0.57706E+01 SP= 0.00E+00 SK= 0.00E+00
   4384 T=   315. E= -.69882983E+03 F= -.70469732E+03 E0= -.70469732E+03  EK= 0.58675E+01 SP= 0.00E+00 SK= 0.00E+00
   4385 T=   307. E= -.69880625E+03 F= -.70451936E+03 E0= -.70451936E+03  EK= 0.57131E+01 SP= 0.00E+00 SK= 0.00E+00
   4386 T=   297. E= -.69878051E+03 F= -.70430985E+03 E0= -.70430985E+03  EK= 0.55293E+01 SP= 0.00E+00 SK= 0.00E+00
   4387 T=   294. E= -.69873501E+03 F= -.70420836E+03 E0= -.70420836E+03  EK= 0.54733E+01 SP= 0.00E+00 SK= 0.00E+00
   4388 T=   296. E= -.69867606E+03 F= -.70418213E+03 E0= -.70418213E+03  EK= 0.55061E+01 SP= 0.00E+00 SK= 0.00E+00
   4389 T=   299. E= -.69864683E+03 F= -.70421294E+03 E0= -.70421294E+03  EK= 0.55661E+01 SP= 0.00E+00 SK= 0.00E+00
   4390 T=   299. E= -.69872074E+03 F= -.70428419E+03 E0= -.70428419E+03  EK= 0.55635E+01 SP= 0.00E+00 SK= 0.00E+00
   4391 T=   298. E= -.69876178E+03 F= -.70431173E+03 E0= -.70431173E+03  EK= 0.55499E+01 SP= 0.00E+00 SK= 0.00E+00
   4392 T=   297. E= -.69876514E+03 F= -.70430127E+03 E0= -.70430127E+03  EK= 0.55361E+01 SP= 0.00E+00 SK= 0.00E+00
   4393 T=   291. E= -.69885232E+03 F= -.70426351E+03 E0= -.70426351E+03  EK= 0.54112E+01 SP= 0.00E+00 SK= 0.00E+00
   4394 T=   286. E= -.69888645E+03 F= -.70420366E+03 E0= -.70420366E+03  EK= 0.53172E+01 SP= 0.00E+00 SK= 0.00E+00
   4395 T=   285. E= -.69885539E+03 F= -.70415618E+03 E0= -.70415618E+03  EK= 0.53008E+01 SP= 0.00E+00 SK= 0.00E+00
   4396 T=   283. E= -.69889313E+03 F= -.70415929E+03 E0= -.70415929E+03  EK= 0.52662E+01 SP= 0.00E+00 SK= 0.00E+00
   4397 T=   292. E= -.69879284E+03 F= -.70423483E+03 E0= -.70423483E+03  EK= 0.54420E+01 SP= 0.00E+00 SK= 0.00E+00
   4398 T=   299. E= -.69873553E+03 F= -.70430619E+03 E0= -.70430619E+03  EK= 0.55707E+01 SP= 0.00E+00 SK= 0.00E+00
   4399 T=   300. E= -.69870460E+03 F= -.70429532E+03 E0= -.70429532E+03  EK= 0.55907E+01 SP= 0.00E+00 SK= 0.00E+00
   4400 T=   301. E= -.69856189E+03 F= -.70416144E+03 E0= -.70416144E+03  EK= 0.55996E+01 SP= 0.00E+00 SK= 0.00E+00
   4401 T=   297. E= -.69838746E+03 F= -.70392094E+03 E0= -.70392094E+03  EK= 0.55335E+01 SP= 0.00E+00 SK= 0.00E+00
   4402 T=   289. E= -.69831826E+03 F= -.70369977E+03 E0= -.70369977E+03  EK= 0.53815E+01 SP= 0.00E+00 SK= 0.00E+00
   4403 T=   285. E= -.69828896E+03 F= -.70360068E+03 E0= -.70360068E+03  EK= 0.53117E+01 SP= 0.00E+00 SK= 0.00E+00
   4404 T=   283. E= -.69828598E+03 F= -.70355204E+03 E0= -.70355204E+03  EK= 0.52661E+01 SP= 0.00E+00 SK= 0.00E+00
   4405 T=   278. E= -.69837232E+03 F= -.70354690E+03 E0= -.70354690E+03  EK= 0.51746E+01 SP= 0.00E+00 SK= 0.00E+00
   4406 T=   278. E= -.69834356E+03 F= -.70352434E+03 E0= -.70352434E+03  EK= 0.51808E+01 SP= 0.00E+00 SK= 0.00E+00
   4407 T=   286. E= -.69821170E+03 F= -.70352723E+03 E0= -.70352723E+03  EK= 0.53155E+01 SP= 0.00E+00 SK= 0.00E+00
   4408 T=   289. E= -.69818662E+03 F= -.70355900E+03 E0= -.70355900E+03  EK= 0.53724E+01 SP= 0.00E+00 SK= 0.00E+00
   4409 T=   295. E= -.69820595E+03 F= -.70369244E+03 E0= -.70369244E+03  EK= 0.54865E+01 SP= 0.00E+00 SK= 0.00E+00
   4410 T=   298. E= -.69826018E+03 F= -.70380637E+03 E0= -.70380637E+03  EK= 0.55462E+01 SP= 0.00E+00 SK= 0.00E+00
   4411 T=   298. E= -.69833950E+03 F= -.70388417E+03 E0= -.70388417E+03  EK= 0.55447E+01 SP= 0.00E+00 SK= 0.00E+00
   4412 T=   303. E= -.69826197E+03 F= -.70390182E+03 E0= -.70390182E+03  EK= 0.56398E+01 SP= 0.00E+00 SK= 0.00E+00
   4413 T=   307. E= -.69815989E+03 F= -.70387343E+03 E0= -.70387343E+03  EK= 0.57135E+01 SP= 0.00E+00 SK= 0.00E+00
   4414 T=   306. E= -.69809814E+03 F= -.70379324E+03 E0= -.70379324E+03  EK= 0.56951E+01 SP= 0.00E+00 SK= 0.00E+00
   4415 T=   307. E= -.69797739E+03 F= -.70369632E+03 E0= -.70369632E+03  EK= 0.57189E+01 SP= 0.00E+00 SK= 0.00E+00
       N       E                     dE             d eps       ncg     rms          rms(c)
DAV:   1     0.659546337098E+02    0.76176E+03   -0.57022E+04 12502   0.481E+02
DAV:   2    -0.687243179956E+03   -0.75320E+03   -0.73714E+03 14406   0.154E+02
DAV:   3    -0.716254781945E+03   -0.29012E+02   -0.28930E+02 14604   0.345E+01
DAV:   4    -0.716708429272E+03   -0.45365E+00   -0.45329E+00 14540   0.422E+00    0.377E+01
DAV:   5    -0.694836616669E+03    0.21872E+02   -0.52477E+01 14636   0.176E+01    0.195E+01
DAV:   6    -0.694253377299E+03    0.58324E+00   -0.16391E+01 13868   0.942E+00    0.898E+00
DAV:   7    -0.695224011303E+03   -0.97063E+00   -0.40243E+00 14028   0.572E+00    0.242E+00
DAV:   8    -0.695269236044E+03   -0.45225E-01   -0.56551E-01 14476   0.220E+00    0.124E+00
DAV:   9    -0.695290831629E+03   -0.21596E-01   -0.25943E-01 13708   0.123E+00    0.732E-01
DAV:  10    -0.695282150421E+03    0.86812E-02   -0.34217E-02 17468   0.635E-01    0.264E-01
DAV:  11    -0.695281419757E+03    0.73066E-03   -0.18957E-02 13900   0.361E-01    0.140E-01
DAV:  12    -0.695280608894E+03    0.81086E-03   -0.16555E-03 15188   0.146E-01    0.772E-02
DAV:  13    -0.695280096573E+03    0.51232E-03   -0.11775E-03 13476   0.124E-01    0.354E-02
DAV:  14    -0.695279905163E+03    0.19141E-03   -0.33157E-04 13212   0.873E-02    0.333E-02
DAV:  15    -0.695279860170E+03    0.44993E-04   -0.26097E-04 12236   0.512E-02
   4416 T=   306. E= -.69794875E+03 F= -.70363539E+03 E0= -.70363539E+03  EK= 0.56866E+01 SP= 0.00E+00 SK= 0.00E+00
   4417 T=   294. E= -.69809336E+03 F= -.70356005E+03 E0= -.70356005E+03  EK= 0.54667E+01 SP= 0.00E+00 SK= 0.00E+00
   4418 T=   283. E= -.69820270E+03 F= -.70347159E+03 E0= -.70347159E+03  EK= 0.52689E+01 SP= 0.00E+00 SK= 0.00E+00
   4419 T=   277. E= -.69819995E+03 F= -.70335060E+03 E0= -.70335060E+03  EK= 0.51506E+01 SP= 0.00E+00 SK= 0.00E+00
   4420 T=   271. E= -.69816467E+03 F= -.70320746E+03 E0= -.70320746E+03  EK= 0.50428E+01 SP= 0.00E+00 SK= 0.00E+00
   4421 T=   263. E= -.69819928E+03 F= -.70309632E+03 E0= -.70309632E+03  EK= 0.48970E+01 SP= 0.00E+00 SK= 0.00E+00
   4422 T=   257. E= -.69829729E+03 F= -.70308457E+03 E0= -.70308457E+03  EK= 0.47873E+01 SP= 0.00E+00 SK= 0.00E+00
   4423 T=   255. E= -.69842001E+03 F= -.70316821E+03 E0= -.70316821E+03  EK= 0.47482E+01 SP= 0.00E+00 SK= 0.00E+00
   4424 T=   264. E= -.69844605E+03 F= -.70336159E+03 E0= -.70336159E+03  EK= 0.49155E+01 SP= 0.00E+00 SK= 0.00E+00
   4425 T=   281. E= -.69837214E+03 F= -.70359324E+03 E0= -.70359324E+03  EK= 0.52211E+01 SP= 0.00E+00 SK= 0.00E+00
       N       E                     dE             d eps       ncg     rms          rms(c)
DAV:   1    -0.691079671094E+03    0.42002E+01   -0.18360E+03 12190   0.971E+01
DAV:   2    -0.696235622237E+03   -0.51560E+01   -0.51547E+01 14420   0.147E+01
DAV:   3    -0.696286634000E+03   -0.51012E-01   -0.51009E-01 14620   0.153E+00
DAV:   4    -0.696287742112E+03   -0.11081E-02   -0.11081E-02 14380   0.218E-01    0.868E+00
DAV:   5    -0.695560786409E+03    0.72696E+00   -0.14041E+00 15316   0.361E+00    0.477E+00
DAV:   6    -0.695486272161E+03    0.74514E-01   -0.12126E+00 14668   0.286E+00    0.139E+00
DAV:   7    -0.695494273890E+03   -0.80017E-02   -0.24251E-01 14116   0.147E+00    0.541E-01
DAV:   8    -0.695490388955E+03    0.38849E-02   -0.28632E-02 14316   0.499E-01    0.256E-01
DAV:   9    -0.695487529343E+03    0.28596E-02   -0.94826E-03 13892   0.268E-01    0.146E-01
DAV:  10    -0.695486074555E+03    0.14548E-02   -0.25987E-03 17004   0.212E-01    0.511E-02
DAV:  11    -0.695485668195E+03    0.40636E-03   -0.11973E-03 14220   0.112E-01    0.478E-02
DAV:  12    -0.695485269920E+03    0.39827E-03   -0.21272E-04 11004   0.948E-02    0.185E-02
DAV:  13    -0.695485175819E+03    0.94101E-04   -0.35808E-04 13404   0.814E-02
   4426 T=   292. E= -.69841182E+03 F= -.70384743E+03 E0= -.70384743E+03  EK= 0.54356E+01 SP= 0.00E+00 SK= 0.00E+00
   4427 T=   298. E= -.69843342E+03 F= -.70397388E+03 E0= -.70397388E+03  EK= 0.55405E+01 SP= 0.00E+00 SK= 0.00E+00
   4428 T=   301. E= -.69842251E+03 F= -.70402688E+03 E0= -.70402688E+03  EK= 0.56044E+01 SP= 0.00E+00 SK= 0.00E+00
   4429 T=   297. E= -.69840952E+03 F= -.70393179E+03 E0= -.70393179E+03  EK= 0.55223E+01 SP= 0.00E+00 SK= 0.00E+00
   4430 T=   287. E= -.69839071E+03 F= -.70373918E+03 E0= -.70373918E+03  EK= 0.53485E+01 SP= 0.00E+00 SK= 0.00E+00
   4431 T=   287. E= -.69828289E+03 F= -.70363022E+03 E0= -.70363022E+03  EK= 0.53473E+01 SP= 0.00E+00 SK= 0.00E+00
   4432 T=   287. E= -.69832595E+03 F= -.70367027E+03 E0= -.70367027E+03  EK= 0.53443E+01 SP= 0.00E+00 SK= 0.00E+00
   4433 T=   294. E= -.69835209E+03 F= -.70382749E+03 E0= -.70382749E+03  EK= 0.54754E+01 SP= 0.00E+00 SK= 0.00E+00
   4434 T=   298. E= -.69837019E+03 F= -.70391829E+03 E0= -.70391829E+03  EK= 0.55481E+01 SP= 0.00E+00 SK= 0.00E+00
   4435 T=   291. E= -.69847526E+03 F= -.70388819E+03 E0= -.70388819E+03  EK= 0.54129E+01 SP= 0.00E+00 SK= 0.00E+00
   4436 T=   277. E= -.69854773E+03 F= -.70371250E+03 E0= -.70371250E+03  EK= 0.51648E+01 SP= 0.00E+00 SK= 0.00E+00
   4437 T=   268. E= -.69853262E+03 F= -.70351306E+03 E0= -.70351306E+03  EK= 0.49804E+01 SP= 0.00E+00 SK= 0.00E+00
   4438 T=   263. E= -.69844441E+03 F= -.70334193E+03 E0= -.70334193E+03  EK= 0.48975E+01 SP= 0.00E+00 SK= 0.00E+00
   4439 T=   257. E= -.69847252E+03 F= -.70324794E+03 E0= -.70324794E+03  EK= 0.47754E+01 SP= 0.00E+00 SK= 0.00E+00
   4440 T=   255. E= -.69846677E+03 F= -.70322228E+03 E0= -.70322228E+03  EK= 0.47555E+01 SP= 0.00E+00 SK= 0.00E+00
   4441 T=   262. E= -.69842268E+03 F= -.70329907E+03 E0= -.70329907E+03  EK= 0.48764E+01 SP= 0.00E+00 SK= 0.00E+00
   4442 T=   273. E= -.69838772E+03 F= -.70346561E+03 E0= -.70346561E+03  EK= 0.50779E+01 SP= 0.00E+00 SK= 0.00E+00
   4443 T=   282. E= -.69840520E+03 F= -.70366255E+03 E0= -.70366255E+03  EK= 0.52574E+01 SP= 0.00E+00 SK= 0.00E+00
   4444 T=   289. E= -.69843173E+03 F= -.70381141E+03 E0= -.70381141E+03  EK= 0.53797E+01 SP= 0.00E+00 SK= 0.00E+00
   4445 T=   293. E= -.69839262E+03 F= -.70385028E+03 E0= -.70385028E+03  EK= 0.54577E+01 SP= 0.00E+00 SK= 0.00E+00
   4446 T=   289. E= -.69836679E+03 F= -.70374931E+03 E0= -.70374931E+03  EK= 0.53825E+01 SP= 0.00E+00 SK= 0.00E+00
   4447 T=   285. E= -.69830626E+03 F= -.70361527E+03 E0= -.70361527E+03  EK= 0.53090E+01 SP= 0.00E+00 SK= 0.00E+00
   4448 T=   285. E= -.69828989E+03 F= -.70358851E+03 E0= -.70358851E+03  EK= 0.52986E+01 SP= 0.00E+00 SK= 0.00E+00
   4449 T=   289. E= -.69834728E+03 F= -.70372636E+03 E0= -.70372636E+03  EK= 0.53791E+01 SP= 0.00E+00 SK= 0.00E+00
   4450 T=   300. E= -.69831888E+03 F= -.70390421E+03 E0= -.70390421E+03  EK= 0.55853E+01 SP= 0.00E+00 SK= 0.00E+00
   4451 T=   311. E= -.69824642E+03 F= -.70403061E+03 E0= -.70403061E+03  EK= 0.57842E+01 SP= 0.00E+00 SK= 0.00E+00
   4452 T=   315. E= -.69818404E+03 F= -.70404373E+03 E0= -.70404373E+03  EK= 0.58597E+01 SP= 0.00E+00 SK= 0.00E+00
   4453 T=   318. E= -.69806700E+03 F= -.70398591E+03 E0= -.70398591E+03  EK= 0.59189E+01 SP= 0.00E+00 SK= 0.00E+00
   4454 T=   319. E= -.69793771E+03 F= -.70388064E+03 E0= -.70388064E+03  EK= 0.59429E+01 SP= 0.00E+00 SK= 0.00E+00
   4455 T=   314. E= -.69794209E+03 F= -.70378375E+03 E0= -.70378375E+03  EK= 0.58417E+01 SP= 0.00E+00 SK= 0.00E+00
   4456 T=   309. E= -.69798916E+03 F= -.70374950E+03 E0= -.70374950E+03  EK= 0.57603E+01 SP= 0.00E+00 SK= 0.00E+00
   4457 T=   310. E= -.69797530E+03 F= -.70375382E+03 E0= -.70375382E+03  EK= 0.57785E+01 SP= 0.00E+00 SK= 0.00E+00
   4458 T=   314. E= -.69794575E+03 F= -.70379349E+03 E0= -.70379349E+03  EK= 0.58477E+01 SP= 0.00E+00 SK= 0.00E+00
   4459 T=   313. E= -.69800467E+03 F= -.70383656E+03 E0= -.70383656E+03  EK= 0.58319E+01 SP= 0.00E+00 SK= 0.00E+00
   4460 T=   311. E= -.69811703E+03 F= -.70390576E+03 E0= -.70390576E+03  EK= 0.57887E+01 SP= 0.00E+00 SK= 0.00E+00
   4461 T=   311. E= -.69815989E+03 F= -.70394074E+03 E0= -.70394074E+03  EK= 0.57808E+01 SP= 0.00E+00 SK= 0.00E+00
   4462 T=   307. E= -.69816673E+03 F= -.70389023E+03 E0= -.70389023E+03  EK= 0.57235E+01 SP= 0.00E+00 SK= 0.00E+00
   4463 T=   298. E= -.69822189E+03 F= -.70377579E+03 E0= -.70377579E+03  EK= 0.55539E+01 SP= 0.00E+00 SK= 0.00E+00
   4464 T=   291. E= -.69822947E+03 F= -.70365293E+03 E0= -.70365293E+03  EK= 0.54235E+01 SP= 0.00E+00 SK= 0.00E+00
   4465 T=   295. E= -.69811896E+03 F= -.70361280E+03 E0= -.70361280E+03  EK= 0.54938E+01 SP= 0.00E+00 SK= 0.00E+00
   4466 T=   296. E= -.69812447E+03 F= -.70363800E+03 E0= -.70363800E+03  EK= 0.55135E+01 SP= 0.00E+00 SK= 0.00E+00
   4467 T=   300. E= -.69817081E+03 F= -.70376178E+03 E0= -.70376178E+03  EK= 0.55910E+01 SP= 0.00E+00 SK= 0.00E+00
   4468 T=   308. E= -.69820803E+03 F= -.70393291E+03 E0= -.70393291E+03  EK= 0.57249E+01 SP= 0.00E+00 SK= 0.00E+00
   4469 T=   303. E= -.69835496E+03 F= -.70399429E+03 E0= -.70399429E+03  EK= 0.56393E+01 SP= 0.00E+00 SK= 0.00E+00
   4470 T=   298. E= -.69835970E+03 F= -.70390024E+03 E0= -.70390024E+03  EK= 0.55405E+01 SP= 0.00E+00 SK= 0.00E+00
   4471 T=   292. E= -.69827059E+03 F= -.70371211E+03 E0= -.70371211E+03  EK= 0.54415E+01 SP= 0.00E+00 SK= 0.00E+00
   4472 T=   283. E= -.69823521E+03 F= -.70351017E+03 E0= -.70351017E+03  EK= 0.52750E+01 SP= 0.00E+00 SK= 0.00E+00
   4473 T=   274. E= -.69824670E+03 F= -.70334816E+03 E0= -.70334816E+03  EK= 0.51015E+01 SP= 0.00E+00 SK= 0.00E+00
   4474 T=   272. E= -.69823042E+03 F= -.70329355E+03 E0= -.70329355E+03  EK= 0.50631E+01 SP= 0.00E+00 SK= 0.00E+00
   4475 T=   279. E= -.69816720E+03 F= -.70335472E+03 E0= -.70335472E+03  EK= 0.51875E+01 SP= 0.00E+00 SK= 0.00E+00
   4476 T=   287. E= -.69812025E+03 F= -.70346806E+03 E0= -.70346806E+03  EK= 0.53478E+01 SP= 0.00E+00 SK= 0.00E+00
   4477 T=   295. E= -.69807812E+03 F= -.70356713E+03 E0= -.70356713E+03  EK= 0.54890E+01 SP= 0.00E+00 SK= 0.00E+00
   4478 T=   291. E= -.69812545E+03 F= -.70354677E+03 E0= -.70354677E+03  EK= 0.54213E+01 SP= 0.00E+00 SK= 0.00E+00
   4479 T=   282. E= -.69820092E+03 F= -.70345722E+03 E0= -.70345722E+03  EK= 0.52563E+01 SP= 0.00E+00 SK= 0.00E+00
   4480 T=   277. E= -.69825253E+03 F= -.70340041E+03 E0= -.70340041E+03  EK= 0.51479E+01 SP= 0.00E+00 SK= 0.00E+00
   4481 T=   274. E= -.69831382E+03 F= -.70341810E+03 E0= -.70341810E+03  EK= 0.51043E+01 SP= 0.00E+00 SK= 0.00E+00
   4482 T=   282. E= -.69832448E+03 F= -.70357212E+03 E0= -.70357212E+03  EK= 0.52476E+01 SP= 0.00E+00 SK= 0.00E+00
   4483 T=   296. E= -.69827381E+03 F= -.70378406E+03 E0= -.70378406E+03  EK= 0.55103E+01 SP= 0.00E+00 SK= 0.00E+00
   4484 T=   305. E= -.69828427E+03 F= -.70395289E+03 E0= -.70395289E+03  EK= 0.56686E+01 SP= 0.00E+00 SK= 0.00E+00
   4485 T=   303. E= -.69830366E+03 F= -.70394849E+03 E0= -.70394849E+03  EK= 0.56448E+01 SP= 0.00E+00 SK= 0.00E+00
   4486 T=   294. E= -.69829830E+03 F= -.70376238E+03 E0= -.70376238E+03  EK= 0.54641E+01 SP= 0.00E+00 SK= 0.00E+00
   4487 T=   280. E= -.69828036E+03 F= -.70349625E+03 E0= -.70349625E+03  EK= 0.52159E+01 SP= 0.00E+00 SK= 0.00E+00
   4488 T=   271. E= -.69829737E+03 F= -.70333648E+03 E0= -.70333648E+03  EK= 0.50391E+01 SP= 0.00E+00 SK= 0.00E+00
   4489 T=   274. E= -.69827914E+03 F= -.70338788E+03 E0= -.70338788E+03  EK= 0.51087E+01 SP= 0.00E+00 SK= 0.00E+00
   4490 T=   293. E= -.69816317E+03 F= -.70361931E+03 E0= -.70361931E+03  EK= 0.54561E+01 SP= 0.00E+00 SK= 0.00E+00
   4491 T=   312. E= -.69809961E+03 F= -.70390077E+03 E0= -.70390077E+03  EK= 0.58012E+01 SP= 0.00E+00 SK= 0.00E+00
   4492 T=   324. E= -.69811121E+03 F= -.70415025E+03 E0= -.70415025E+03  EK= 0.60390E+01 SP= 0.00E+00 SK= 0.00E+00
   4493 T=   328. E= -.69818432E+03 F= -.70429140E+03 E0= -.70429140E+03  EK= 0.61071E+01 SP= 0.00E+00 SK= 0.00E+00
   4494 T=   322. E= -.69828133E+03 F= -.70428141E+03 E0= -.70428141E+03  EK= 0.60001E+01 SP= 0.00E+00 SK= 0.00E+00
   4495 T=   309. E= -.69844142E+03 F= -.70419022E+03 E0= -.70419022E+03  EK= 0.57488E+01 SP= 0.00E+00 SK= 0.00E+00
   4496 T=   297. E= -.69860314E+03 F= -.70413785E+03 E0= -.70413785E+03  EK= 0.55347E+01 SP= 0.00E+00 SK= 0.00E+00
   4497 T=   299. E= -.69862389E+03 F= -.70419183E+03 E0= -.70419183E+03  EK= 0.55679E+01 SP= 0.00E+00 SK= 0.00E+00
   4498 T=   310. E= -.69860389E+03 F= -.70437874E+03 E0= -.70437874E+03  EK= 0.57749E+01 SP= 0.00E+00 SK= 0.00E+00
   4499 T=   318. E= -.69868750E+03 F= -.70461470E+03 E0= -.70461470E+03  EK= 0.59272E+01 SP= 0.00E+00 SK= 0.00E+00
   4500 T=   323. E= -.69878477E+03 F= -.70479665E+03 E0= -.70479665E+03  EK= 0.60119E+01 SP= 0.00E+00 SK= 0.00E+00
   4501 T=   320. E= -.69889002E+03 F= -.70485455E+03 E0= -.70485455E+03  EK= 0.59645E+01 SP= 0.00E+00 SK= 0.00E+00
   4502 T=   311. E= -.69897157E+03 F= -.70475935E+03 E0= -.70475935E+03  EK= 0.57878E+01 SP= 0.00E+00 SK= 0.00E+00
   4503 T=   298. E= -.69899158E+03 F= -.70453416E+03 E0= -.70453416E+03  EK= 0.55426E+01 SP= 0.00E+00 SK= 0.00E+00
   4504 T=   284. E= -.69902787E+03 F= -.70431271E+03 E0= -.70431271E+03  EK= 0.52848E+01 SP= 0.00E+00 SK= 0.00E+00
   4505 T=   279. E= -.69899609E+03 F= -.70418067E+03 E0= -.70418067E+03  EK= 0.51846E+01 SP= 0.00E+00 SK= 0.00E+00
   4506 T=   280. E= -.69892801E+03 F= -.70414905E+03 E0= -.70414905E+03  EK= 0.52210E+01 SP= 0.00E+00 SK= 0.00E+00
   4507 T=   282. E= -.69896961E+03 F= -.70421985E+03 E0= -.70421985E+03  EK= 0.52502E+01 SP= 0.00E+00 SK= 0.00E+00
   4508 T=   284. E= -.69899059E+03 F= -.70428013E+03 E0= -.70428013E+03  EK= 0.52895E+01 SP= 0.00E+00 SK= 0.00E+00
   4509 T=   285. E= -.69899416E+03 F= -.70430285E+03 E0= -.70430285E+03  EK= 0.53087E+01 SP= 0.00E+00 SK= 0.00E+00
   4510 T=   282. E= -.69901971E+03 F= -.70427385E+03 E0= -.70427385E+03  EK= 0.52541E+01 SP= 0.00E+00 SK= 0.00E+00
   4511 T=   274. E= -.69904596E+03 F= -.70415124E+03 E0= -.70415124E+03  EK= 0.51053E+01 SP= 0.00E+00 SK= 0.00E+00
   4512 T=   265. E= -.69908175E+03 F= -.70400504E+03 E0= -.70400504E+03  EK= 0.49233E+01 SP= 0.00E+00 SK= 0.00E+00
   4513 T=   261. E= -.69907765E+03 F= -.70392713E+03 E0= -.70392713E+03  EK= 0.48495E+01 SP= 0.00E+00 SK= 0.00E+00
   4514 T=   258. E= -.69911621E+03 F= -.70391423E+03 E0= -.70391423E+03  EK= 0.47980E+01 SP= 0.00E+00 SK= 0.00E+00
   4515 T=   257. E= -.69921655E+03 F= -.70400111E+03 E0= -.70400111E+03  EK= 0.47846E+01 SP= 0.00E+00 SK= 0.00E+00
   4516 T=   269. E= -.69917942E+03 F= -.70418877E+03 E0= -.70418877E+03  EK= 0.50094E+01 SP= 0.00E+00 SK= 0.00E+00
   4517 T=   287. E= -.69906690E+03 F= -.70441482E+03 E0= -.70441482E+03  EK= 0.53479E+01 SP= 0.00E+00 SK= 0.00E+00
   4518 T=   298. E= -.69896823E+03 F= -.70451537E+03 E0= -.70451537E+03  EK= 0.55471E+01 SP= 0.00E+00 SK= 0.00E+00
   4519 T=   300. E= -.69891107E+03 F= -.70450134E+03 E0= -.70450134E+03  EK= 0.55903E+01 SP= 0.00E+00 SK= 0.00E+00
   4520 T=   293. E= -.69893286E+03 F= -.70439505E+03 E0= -.70439505E+03  EK= 0.54622E+01 SP= 0.00E+00 SK= 0.00E+00
   4521 T=   283. E= -.69899601E+03 F= -.70426175E+03 E0= -.70426175E+03  EK= 0.52657E+01 SP= 0.00E+00 SK= 0.00E+00
   4522 T=   276. E= -.69900811E+03 F= -.70414621E+03 E0= -.70414621E+03  EK= 0.51381E+01 SP= 0.00E+00 SK= 0.00E+00
   4523 T=   274. E= -.69890907E+03 F= -.70401372E+03 E0= -.70401372E+03  EK= 0.51047E+01 SP= 0.00E+00 SK= 0.00E+00
   4524 T=   276. E= -.69873404E+03 F= -.70386273E+03 E0= -.70386273E+03  EK= 0.51287E+01 SP= 0.00E+00 SK= 0.00E+00
   4525 T=   274. E= -.69859142E+03 F= -.70369295E+03 E0= -.70369295E+03  EK= 0.51015E+01 SP= 0.00E+00 SK= 0.00E+00
   4526 T=   269. E= -.69855920E+03 F= -.70356559E+03 E0= -.70356559E+03  EK= 0.50064E+01 SP= 0.00E+00 SK= 0.00E+00
   4527 T=   270. E= -.69852188E+03 F= -.70354538E+03 E0= -.70354538E+03  EK= 0.50235E+01 SP= 0.00E+00 SK= 0.00E+00
   4528 T=   276. E= -.69844976E+03 F= -.70359434E+03 E0= -.70359434E+03  EK= 0.51446E+01 SP= 0.00E+00 SK= 0.00E+00
   4529 T=   278. E= -.69845611E+03 F= -.70363027E+03 E0= -.70363027E+03  EK= 0.51742E+01 SP= 0.00E+00 SK= 0.00E+00
   4530 T=   275. E= -.69853572E+03 F= -.70365151E+03 E0= -.70365151E+03  EK= 0.51158E+01 SP= 0.00E+00 SK= 0.00E+00
   4531 T=   270. E= -.69858888E+03 F= -.70361878E+03 E0= -.70361878E+03  EK= 0.50299E+01 SP= 0.00E+00 SK= 0.00E+00
   4532 T=   261. E= -.69868889E+03 F= -.70354047E+03 E0= -.70354047E+03  EK= 0.48516E+01 SP= 0.00E+00 SK= 0.00E+00
   4533 T=   257. E= -.69873768E+03 F= -.70352414E+03 E0= -.70352414E+03  EK= 0.47865E+01 SP= 0.00E+00 SK= 0.00E+00
   4534 T=   260. E= -.69876290E+03 F= -.70360214E+03 E0= -.70360214E+03  EK= 0.48392E+01 SP= 0.00E+00 SK= 0.00E+00
   4535 T=   268. E= -.69881340E+03 F= -.70379520E+03 E0= -.70379520E+03  EK= 0.49818E+01 SP= 0.00E+00 SK= 0.00E+00
   4536 T=   274. E= -.69892387E+03 F= -.70401794E+03 E0= -.70401794E+03  EK= 0.50941E+01 SP= 0.00E+00 SK= 0.00E+00
   4537 T=   271. E= -.69911468E+03 F= -.70415639E+03 E0= -.70415639E+03  EK= 0.50417E+01 SP= 0.00E+00 SK= 0.00E+00
   4538 T=   278. E= -.69908339E+03 F= -.70425918E+03 E0= -.70425918E+03  EK= 0.51758E+01 SP= 0.00E+00 SK= 0.00E+00
   4539 T=   288. E= -.69896114E+03 F= -.70432190E+03 E0= -.70432190E+03  EK= 0.53608E+01 SP= 0.00E+00 SK= 0.00E+00
   4540 T=   292. E= -.69892386E+03 F= -.70435356E+03 E0= -.70435356E+03  EK= 0.54297E+01 SP= 0.00E+00 SK= 0.00E+00
   4541 T=   295. E= -.69886534E+03 F= -.70436420E+03 E0= -.70436420E+03  EK= 0.54989E+01 SP= 0.00E+00 SK= 0.00E+00
   4542 T=   296. E= -.69879704E+03 F= -.70431434E+03 E0= -.70431434E+03  EK= 0.55173E+01 SP= 0.00E+00 SK= 0.00E+00
   4543 T=   300. E= -.69866988E+03 F= -.70426119E+03 E0= -.70426119E+03  EK= 0.55913E+01 SP= 0.00E+00 SK= 0.00E+00
   4544 T=   303. E= -.69859639E+03 F= -.70423539E+03 E0= -.70423539E+03  EK= 0.56390E+01 SP= 0.00E+00 SK= 0.00E+00
   4545 T=   310. E= -.69846729E+03 F= -.70424035E+03 E0= -.70424035E+03  EK= 0.57731E+01 SP= 0.00E+00 SK= 0.00E+00
   4546 T=   318. E= -.69835739E+03 F= -.70427674E+03 E0= -.70427674E+03  EK= 0.59194E+01 SP= 0.00E+00 SK= 0.00E+00
   4547 T=   318. E= -.69838994E+03 F= -.70431008E+03 E0= -.70431008E+03  EK= 0.59201E+01 SP= 0.00E+00 SK= 0.00E+00
   4548 T=   317. E= -.69841227E+03 F= -.70431960E+03 E0= -.70431960E+03  EK= 0.59073E+01 SP= 0.00E+00 SK= 0.00E+00
   4549 T=   309. E= -.69851519E+03 F= -.70426434E+03 E0= -.70426434E+03  EK= 0.57491E+01 SP= 0.00E+00 SK= 0.00E+00
   4550 T=   303. E= -.69854986E+03 F= -.70418557E+03 E0= -.70418557E+03  EK= 0.56357E+01 SP= 0.00E+00 SK= 0.00E+00
   4551 T=   297. E= -.69854555E+03 F= -.70407862E+03 E0= -.70407862E+03  EK= 0.55331E+01 SP= 0.00E+00 SK= 0.00E+00
   4552 T=   290. E= -.69857647E+03 F= -.70396938E+03 E0= -.70396938E+03  EK= 0.53929E+01 SP= 0.00E+00 SK= 0.00E+00
   4553 T=   286. E= -.69851472E+03 F= -.70383248E+03 E0= -.70383248E+03  EK= 0.53178E+01 SP= 0.00E+00 SK= 0.00E+00
   4554 T=   286. E= -.69843620E+03 F= -.70375212E+03 E0= -.70375212E+03  EK= 0.53159E+01 SP= 0.00E+00 SK= 0.00E+00
   4555 T=   284. E= -.69842252E+03 F= -.70371155E+03 E0= -.70371155E+03  EK= 0.52890E+01 SP= 0.00E+00 SK= 0.00E+00
   4556 T=   282. E= -.69849337E+03 F= -.70374246E+03 E0= -.70374246E+03  EK= 0.52491E+01 SP= 0.00E+00 SK= 0.00E+00
   4557 T=   283. E= -.69849466E+03 F= -.70376126E+03 E0= -.70376126E+03  EK= 0.52666E+01 SP= 0.00E+00 SK= 0.00E+00
   4558 T=   288. E= -.69836765E+03 F= -.70373101E+03 E0= -.70373101E+03  EK= 0.53634E+01 SP= 0.00E+00 SK= 0.00E+00
   4559 T=   283. E= -.69829230E+03 F= -.70356314E+03 E0= -.70356314E+03  EK= 0.52708E+01 SP= 0.00E+00 SK= 0.00E+00
   4560 T=   272. E= -.69831568E+03 F= -.70337811E+03 E0= -.70337811E+03  EK= 0.50624E+01 SP= 0.00E+00 SK= 0.00E+00
   4561 T=   264. E= -.69837966E+03 F= -.70328903E+03 E0= -.70328903E+03  EK= 0.49094E+01 SP= 0.00E+00 SK= 0.00E+00
   4562 T=   264. E= -.69837713E+03 F= -.70329722E+03 E0= -.70329722E+03  EK= 0.49201E+01 SP= 0.00E+00 SK= 0.00E+00
   4563 T=   277. E= -.69823274E+03 F= -.70338516E+03 E0= -.70338516E+03  EK= 0.51524E+01 SP= 0.00E+00 SK= 0.00E+00
   4564 T=   282. E= -.69815971E+03 F= -.70340550E+03 E0= -.70340550E+03  EK= 0.52458E+01 SP= 0.00E+00 SK= 0.00E+00
   4565 T=   277. E= -.69819432E+03 F= -.70335676E+03 E0= -.70335676E+03  EK= 0.51624E+01 SP= 0.00E+00 SK= 0.00E+00
   4566 T=   279. E= -.69813128E+03 F= -.70333201E+03 E0= -.70333201E+03  EK= 0.52007E+01 SP= 0.00E+00 SK= 0.00E+00
   4567 T=   287. E= -.69803455E+03 F= -.70338452E+03 E0= -.70338452E+03  EK= 0.53500E+01 SP= 0.00E+00 SK= 0.00E+00
   4568 T=   290. E= -.69808327E+03 F= -.70347484E+03 E0= -.70347484E+03  EK= 0.53916E+01 SP= 0.00E+00 SK= 0.00E+00
   4569 T=   282. E= -.69828957E+03 F= -.70353924E+03 E0= -.70353924E+03  EK= 0.52497E+01 SP= 0.00E+00 SK= 0.00E+00
   4570 T=   278. E= -.69842570E+03 F= -.70360746E+03 E0= -.70360746E+03  EK= 0.51818E+01 SP= 0.00E+00 SK= 0.00E+00
   4571 T=   280. E= -.69847115E+03 F= -.70368554E+03 E0= -.70368554E+03  EK= 0.52144E+01 SP= 0.00E+00 SK= 0.00E+00
   4572 T=   281. E= -.69858778E+03 F= -.70382623E+03 E0= -.70382623E+03  EK= 0.52385E+01 SP= 0.00E+00 SK= 0.00E+00
   4573 T=   289. E= -.69866056E+03 F= -.70404866E+03 E0= -.70404866E+03  EK= 0.53881E+01 SP= 0.00E+00 SK= 0.00E+00
   4574 T=   302. E= -.69866002E+03 F= -.70427606E+03 E0= -.70427606E+03  EK= 0.56160E+01 SP= 0.00E+00 SK= 0.00E+00
   4575 T=   313. E= -.69859662E+03 F= -.70443160E+03 E0= -.70443160E+03  EK= 0.58350E+01 SP= 0.00E+00 SK= 0.00E+00
   4576 T=   314. E= -.69859082E+03 F= -.70443675E+03 E0= -.70443675E+03  EK= 0.58459E+01 SP= 0.00E+00 SK= 0.00E+00
   4577 T=   311. E= -.69858941E+03 F= -.70438243E+03 E0= -.70438243E+03  EK= 0.57930E+01 SP= 0.00E+00 SK= 0.00E+00
   4578 T=   310. E= -.69851920E+03 F= -.70429363E+03 E0= -.70429363E+03  EK= 0.57744E+01 SP= 0.00E+00 SK= 0.00E+00
   4579 T=   305. E= -.69851110E+03 F= -.70418363E+03 E0= -.70418363E+03  EK= 0.56725E+01 SP= 0.00E+00 SK= 0.00E+00
   4580 T=   303. E= -.69844530E+03 F= -.70408246E+03 E0= -.70408246E+03  EK= 0.56372E+01 SP= 0.00E+00 SK= 0.00E+00
   4581 T=   307. E= -.69831240E+03 F= -.70402238E+03 E0= -.70402238E+03  EK= 0.57100E+01 SP= 0.00E+00 SK= 0.00E+00
   4582 T=   312. E= -.69827099E+03 F= -.70407295E+03 E0= -.70407295E+03  EK= 0.58020E+01 SP= 0.00E+00 SK= 0.00E+00
   4583 T=   314. E= -.69835317E+03 F= -.70420442E+03 E0= -.70420442E+03  EK= 0.58513E+01 SP= 0.00E+00 SK= 0.00E+00
   4584 T=   315. E= -.69840293E+03 F= -.70427232E+03 E0= -.70427232E+03  EK= 0.58694E+01 SP= 0.00E+00 SK= 0.00E+00
   4585 T=   310. E= -.69840966E+03 F= -.70418355E+03 E0= -.70418355E+03  EK= 0.57739E+01 SP= 0.00E+00 SK= 0.00E+00
   4586 T=   298. E= -.69843493E+03 F= -.70398176E+03 E0= -.70398176E+03  EK= 0.55468E+01 SP= 0.00E+00 SK= 0.00E+00
   4587 T=   293. E= -.69839725E+03 F= -.70384856E+03 E0= -.70384856E+03  EK= 0.54513E+01 SP= 0.00E+00 SK= 0.00E+00
   4588 T=   301. E= -.69831708E+03 F= -.70391345E+03 E0= -.70391345E+03  EK= 0.55964E+01 SP= 0.00E+00 SK= 0.00E+00
   4589 T=   317. E= -.69823790E+03 F= -.70414135E+03 E0= -.70414135E+03  EK= 0.59034E+01 SP= 0.00E+00 SK= 0.00E+00
   4590 T=   335. E= -.69817612E+03 F= -.70441237E+03 E0= -.70441237E+03  EK= 0.62362E+01 SP= 0.00E+00 SK= 0.00E+00
   4591 T=   345. E= -.69821240E+03 F= -.70463362E+03 E0= -.70463362E+03  EK= 0.64212E+01 SP= 0.00E+00 SK= 0.00E+00
   4592 T=   349. E= -.69826186E+03 F= -.70475669E+03 E0= -.70475669E+03  EK= 0.64948E+01 SP= 0.00E+00 SK= 0.00E+00
       N       E                     dE             d eps       ncg     rms          rms(c)
DAV:   1    -0.259264365012E+03    0.43622E+03   -0.38487E+04 12190   0.409E+02
DAV:   2    -0.692970113547E+03   -0.43371E+03   -0.42566E+03 13840   0.121E+02
DAV:   3    -0.705057017762E+03   -0.12087E+02   -0.12074E+02 14236   0.226E+01
DAV:   4    -0.705255984506E+03   -0.19897E+00   -0.19893E+00 14844   0.276E+00    0.303E+01
DAV:   5    -0.696054001177E+03    0.92020E+01   -0.19431E+01 13996   0.115E+01    0.169E+01
DAV:   6    -0.695913738535E+03    0.14026E+00   -0.13193E+01 14236   0.897E+00    0.545E+00
DAV:   7    -0.696370111810E+03   -0.45637E+00   -0.23095E+00 13852   0.407E+00    0.196E+00
DAV:   8    -0.696387836051E+03   -0.17724E-01   -0.22745E-01 13956   0.127E+00    0.863E-01
DAV:   9    -0.696383931467E+03    0.39046E-02   -0.60647E-02 13924   0.692E-01    0.319E-01
DAV:  10    -0.696381226121E+03    0.27053E-02   -0.10771E-02 15596   0.365E-01    0.129E-01
DAV:  11    -0.696380172892E+03    0.10532E-02   -0.50458E-03 13892   0.200E-01    0.958E-02
DAV:  12    -0.696378929065E+03    0.12438E-02   -0.11704E-03 14148   0.171E-01    0.420E-02
DAV:  13    -0.696378427552E+03    0.50151E-03   -0.80561E-04 13532   0.141E-01    0.555E-02
DAV:  14    -0.696378307296E+03    0.12026E-03   -0.72893E-04 13900   0.930E-02    0.222E-02
DAV:  15    -0.696378298631E+03    0.86648E-05   -0.15109E-04  9988   0.338E-02
   4593 T=   347. E= -.69823236E+03 F= -.70468383E+03 E0= -.70468383E+03  EK= 0.64515E+01 SP= 0.00E+00 SK= 0.00E+00
   4594 T=   339. E= -.69832364E+03 F= -.70463309E+03 E0= -.70463309E+03  EK= 0.63095E+01 SP= 0.00E+00 SK= 0.00E+00
   4595 T=   329. E= -.69839489E+03 F= -.70452494E+03 E0= -.70452494E+03  EK= 0.61300E+01 SP= 0.00E+00 SK= 0.00E+00
   4596 T=   323. E= -.69840938E+03 F= -.70442801E+03 E0= -.70442801E+03  EK= 0.60186E+01 SP= 0.00E+00 SK= 0.00E+00
   4597 T=   320. E= -.69841926E+03 F= -.70437438E+03 E0= -.70437438E+03  EK= 0.59551E+01 SP= 0.00E+00 SK= 0.00E+00
   4598 T=   315. E= -.69846598E+03 F= -.70433309E+03 E0= -.70433309E+03  EK= 0.58671E+01 SP= 0.00E+00 SK= 0.00E+00
   4599 T=   319. E= -.69834524E+03 F= -.70427555E+03 E0= -.70427555E+03  EK= 0.59303E+01 SP= 0.00E+00 SK= 0.00E+00
   4600 T=   314. E= -.69832091E+03 F= -.70417479E+03 E0= -.70417479E+03  EK= 0.58539E+01 SP= 0.00E+00 SK= 0.00E+00
   4601 T=   301. E= -.69840665E+03 F= -.70400932E+03 E0= -.70400932E+03  EK= 0.56027E+01 SP= 0.00E+00 SK= 0.00E+00
   4602 T=   297. E= -.69835957E+03 F= -.70389359E+03 E0= -.70389359E+03  EK= 0.55340E+01 SP= 0.00E+00 SK= 0.00E+00
       N       E                     dE             d eps       ncg     rms          rms(c)
DAV:   1    -0.688087373022E+03    0.82909E+01   -0.28207E+03 12190   0.119E+02
DAV:   2    -0.696404431922E+03   -0.83171E+01   -0.83144E+01 14372   0.184E+01
DAV:   3    -0.696491308694E+03   -0.86877E-01   -0.86870E-01 14636   0.197E+00
DAV:   4    -0.696493244903E+03   -0.19362E-02   -0.19361E-02 14436   0.280E-01    0.972E+00
DAV:   5    -0.695624406645E+03    0.86884E+00   -0.16414E+00 15212   0.393E+00    0.538E+00
DAV:   6    -0.695525269731E+03    0.99137E-01   -0.14280E+00 14812   0.329E+00    0.147E+00
DAV:   7    -0.695544450995E+03   -0.19181E-01   -0.29451E-01 14380   0.150E+00    0.641E-01
DAV:   8    -0.695538757674E+03    0.56933E-02   -0.28430E-02 14340   0.464E-01    0.312E-01
DAV:   9    -0.695534359360E+03    0.43983E-02   -0.88778E-03 14180   0.331E-01    0.142E-01
DAV:  10    -0.695531886447E+03    0.24729E-02   -0.26423E-03 16012   0.264E-01    0.653E-02
DAV:  11    -0.695531008116E+03    0.87833E-03   -0.22844E-03 14612   0.187E-01    0.665E-02
DAV:  12    -0.695530359835E+03    0.64828E-03   -0.86797E-04 14204   0.146E-01    0.385E-02
DAV:  13    -0.695530106056E+03    0.25378E-03   -0.32898E-04 12724   0.125E-01    0.363E-02
DAV:  14    -0.695530114636E+03   -0.85807E-05   -0.68082E-04 14756   0.707E-02
   4603 T=   300. E= -.69825156E+03 F= -.70383745E+03 E0= -.70383745E+03  EK= 0.55859E+01 SP= 0.00E+00 SK= 0.00E+00
   4604 T=   304. E= -.69836024E+03 F= -.70401114E+03 E0= -.70401114E+03  EK= 0.56509E+01 SP= 0.00E+00 SK= 0.00E+00
   4605 T=   308. E= -.69843004E+03 F= -.70416662E+03 E0= -.70416662E+03  EK= 0.57366E+01 SP= 0.00E+00 SK= 0.00E+00
   4606 T=   313. E= -.69845750E+03 F= -.70428306E+03 E0= -.70428306E+03  EK= 0.58256E+01 SP= 0.00E+00 SK= 0.00E+00
   4607 T=   313. E= -.69847678E+03 F= -.70430305E+03 E0= -.70430305E+03  EK= 0.58263E+01 SP= 0.00E+00 SK= 0.00E+00
   4608 T=   311. E= -.69851022E+03 F= -.70430745E+03 E0= -.70430745E+03  EK= 0.57972E+01 SP= 0.00E+00 SK= 0.00E+00
   4609 T=   307. E= -.69862954E+03 F= -.70434348E+03 E0= -.70434348E+03  EK= 0.57139E+01 SP= 0.00E+00 SK= 0.00E+00
   4610 T=   308. E= -.69869905E+03 F= -.70443706E+03 E0= -.70443706E+03  EK= 0.57380E+01 SP= 0.00E+00 SK= 0.00E+00
   4611 T=   310. E= -.69873414E+03 F= -.70450395E+03 E0= -.70450395E+03  EK= 0.57698E+01 SP= 0.00E+00 SK= 0.00E+00
   4612 T=   308. E= -.69875206E+03 F= -.70448033E+03 E0= -.70448033E+03  EK= 0.57283E+01 SP= 0.00E+00 SK= 0.00E+00
   4613 T=   307. E= -.69868663E+03 F= -.70440766E+03 E0= -.70440766E+03  EK= 0.57210E+01 SP= 0.00E+00 SK= 0.00E+00
   4614 T=   307. E= -.69859401E+03 F= -.70431695E+03 E0= -.70431695E+03  EK= 0.57229E+01 SP= 0.00E+00 SK= 0.00E+00
   4615 T=   308. E= -.69846645E+03 F= -.70419947E+03 E0= -.70419947E+03  EK= 0.57330E+01 SP= 0.00E+00 SK= 0.00E+00
   4616 T=   304. E= -.69838652E+03 F= -.70405132E+03 E0= -.70405132E+03  EK= 0.56648E+01 SP= 0.00E+00 SK= 0.00E+00
   4617 T=   302. E= -.69831803E+03 F= -.70393802E+03 E0= -.70393802E+03  EK= 0.56200E+01 SP= 0.00E+00 SK= 0.00E+00
   4618 T=   306. E= -.69823501E+03 F= -.70393813E+03 E0= -.70393813E+03  EK= 0.57031E+01 SP= 0.00E+00 SK= 0.00E+00
   4619 T=   314. E= -.69822154E+03 F= -.70406040E+03 E0= -.70406040E+03  EK= 0.58389E+01 SP= 0.00E+00 SK= 0.00E+00
   4620 T=   323. E= -.69819110E+03 F= -.70420205E+03 E0= -.70420205E+03  EK= 0.60109E+01 SP= 0.00E+00 SK= 0.00E+00
   4621 T=   323. E= -.69820829E+03 F= -.70422700E+03 E0= -.70422700E+03  EK= 0.60187E+01 SP= 0.00E+00 SK= 0.00E+00
   4622 T=   316. E= -.69824590E+03 F= -.70413377E+03 E0= -.70413377E+03  EK= 0.58879E+01 SP= 0.00E+00 SK= 0.00E+00
   4623 T=   306. E= -.69831208E+03 F= -.70399870E+03 E0= -.70399870E+03  EK= 0.56866E+01 SP= 0.00E+00 SK= 0.00E+00
   4624 T=   298. E= -.69834627E+03 F= -.70389886E+03 E0= -.70389886E+03  EK= 0.55526E+01 SP= 0.00E+00 SK= 0.00E+00
   4625 T=   306. E= -.69825495E+03 F= -.70395782E+03 E0= -.70395782E+03  EK= 0.57029E+01 SP= 0.00E+00 SK= 0.00E+00
   4626 T=   319. E= -.69817043E+03 F= -.70410811E+03 E0= -.70410811E+03  EK= 0.59377E+01 SP= 0.00E+00 SK= 0.00E+00
   4627 T=   323. E= -.69818097E+03 F= -.70419956E+03 E0= -.70419956E+03  EK= 0.60186E+01 SP= 0.00E+00 SK= 0.00E+00
   4628 T=   317. E= -.69828549E+03 F= -.70418276E+03 E0= -.70418276E+03  EK= 0.58973E+01 SP= 0.00E+00 SK= 0.00E+00
   4629 T=   303. E= -.69842867E+03 F= -.70405941E+03 E0= -.70405941E+03  EK= 0.56307E+01 SP= 0.00E+00 SK= 0.00E+00
   4630 T=   285. E= -.69858226E+03 F= -.70389086E+03 E0= -.70389086E+03  EK= 0.53086E+01 SP= 0.00E+00 SK= 0.00E+00
   4631 T=   271. E= -.69870530E+03 F= -.70374649E+03 E0= -.70374649E+03  EK= 0.50412E+01 SP= 0.00E+00 SK= 0.00E+00
   4632 T=   267. E= -.69872680E+03 F= -.70368999E+03 E0= -.70368999E+03  EK= 0.49632E+01 SP= 0.00E+00 SK= 0.00E+00
   4633 T=   268. E= -.69875377E+03 F= -.70374885E+03 E0= -.70374885E+03  EK= 0.49951E+01 SP= 0.00E+00 SK= 0.00E+00
   4634 T=   273. E= -.69881086E+03 F= -.70389611E+03 E0= -.70389611E+03  EK= 0.50853E+01 SP= 0.00E+00 SK= 0.00E+00
   4635 T=   279. E= -.69886693E+03 F= -.70406128E+03 E0= -.70406128E+03  EK= 0.51943E+01 SP= 0.00E+00 SK= 0.00E+00
   4636 T=   288. E= -.69884065E+03 F= -.70420431E+03 E0= -.70420431E+03  EK= 0.53637E+01 SP= 0.00E+00 SK= 0.00E+00
   4637 T=   290. E= -.69884443E+03 F= -.70424880E+03 E0= -.70424880E+03  EK= 0.54044E+01 SP= 0.00E+00 SK= 0.00E+00
   4638 T=   282. E= -.69891056E+03 F= -.70416411E+03 E0= -.70416411E+03  EK= 0.52535E+01 SP= 0.00E+00 SK= 0.00E+00
   4639 T=   279. E= -.69889123E+03 F= -.70407603E+03 E0= -.70407603E+03  EK= 0.51848E+01 SP= 0.00E+00 SK= 0.00E+00
   4640 T=   277. E= -.69888669E+03 F= -.70404479E+03 E0= -.70404479E+03  EK= 0.51581E+01 SP= 0.00E+00 SK= 0.00E+00
   4641 T=   281. E= -.69889446E+03 F= -.70411968E+03 E0= -.70411968E+03  EK= 0.52252E+01 SP= 0.00E+00 SK= 0.00E+00
   4642 T=   283. E= -.69898749E+03 F= -.70426403E+03 E0= -.70426403E+03  EK= 0.52765E+01 SP= 0.00E+00 SK= 0.00E+00
   4643 T=   294. E= -.69895689E+03 F= -.70442696E+03 E0= -.70442696E+03  EK= 0.54701E+01 SP= 0.00E+00 SK= 0.00E+00
   4644 T=   305. E= -.69882184E+03 F= -.70450153E+03 E0= -.70450153E+03  EK= 0.56797E+01 SP= 0.00E+00 SK= 0.00E+00
   4645 T=   303. E= -.69876986E+03 F= -.70441682E+03 E0= -.70441682E+03  EK= 0.56470E+01 SP= 0.00E+00 SK= 0.00E+00
   4646 T=   295. E= -.69868289E+03 F= -.70417844E+03 E0= -.70417844E+03  EK= 0.54955E+01 SP= 0.00E+00 SK= 0.00E+00
   4647 T=   284. E= -.69862683E+03 F= -.70391016E+03 E0= -.70391016E+03  EK= 0.52833E+01 SP= 0.00E+00 SK= 0.00E+00
   4648 T=   278. E= -.69858037E+03 F= -.70374652E+03 E0= -.70374652E+03  EK= 0.51661E+01 SP= 0.00E+00 SK= 0.00E+00
   4649 T=   283. E= -.69851057E+03 F= -.70377494E+03 E0= -.70377494E+03  EK= 0.52644E+01 SP= 0.00E+00 SK= 0.00E+00
   4650 T=   293. E= -.69850284E+03 F= -.70395097E+03 E0= -.70395097E+03  EK= 0.54481E+01 SP= 0.00E+00 SK= 0.00E+00
   4651 T=   301. E= -.69860031E+03 F= -.70421090E+03 E0= -.70421090E+03  EK= 0.56106E+01 SP= 0.00E+00 SK= 0.00E+00
   4652 T=   309. E= -.69863116E+03 F= -.70438014E+03 E0= -.70438014E+03  EK= 0.57490E+01 SP= 0.00E+00 SK= 0.00E+00
   4653 T=   309. E= -.69859496E+03 F= -.70434939E+03 E0= -.70434939E+03  EK= 0.57544E+01 SP= 0.00E+00 SK= 0.00E+00
   4654 T=   304. E= -.69853920E+03 F= -.70419175E+03 E0= -.70419175E+03  EK= 0.56525E+01 SP= 0.00E+00 SK= 0.00E+00
   4655 T=   297. E= -.69847157E+03 F= -.70399054E+03 E0= -.70399054E+03  EK= 0.55190E+01 SP= 0.00E+00 SK= 0.00E+00
   4656 T=   284. E= -.69852857E+03 F= -.70381206E+03 E0= -.70381206E+03  EK= 0.52835E+01 SP= 0.00E+00 SK= 0.00E+00
   4657 T=   280. E= -.69856660E+03 F= -.70377665E+03 E0= -.70377665E+03  EK= 0.52100E+01 SP= 0.00E+00 SK= 0.00E+00
   4658 T=   286. E= -.69857860E+03 F= -.70391030E+03 E0= -.70391030E+03  EK= 0.53317E+01 SP= 0.00E+00 SK= 0.00E+00
   4659 T=   292. E= -.69865022E+03 F= -.70408499E+03 E0= -.70408499E+03  EK= 0.54348E+01 SP= 0.00E+00 SK= 0.00E+00
   4660 T=   296. E= -.69870753E+03 F= -.70421759E+03 E0= -.70421759E+03  EK= 0.55101E+01 SP= 0.00E+00 SK= 0.00E+00
   4661 T=   295. E= -.69875133E+03 F= -.70423418E+03 E0= -.70423418E+03  EK= 0.54828E+01 SP= 0.00E+00 SK= 0.00E+00
   4662 T=   286. E= -.69878699E+03 F= -.70410294E+03 E0= -.70410294E+03  EK= 0.53159E+01 SP= 0.00E+00 SK= 0.00E+00
   4663 T=   277. E= -.69878455E+03 F= -.70393215E+03 E0= -.70393215E+03  EK= 0.51476E+01 SP= 0.00E+00 SK= 0.00E+00
   4664 T=   272. E= -.69871642E+03 F= -.70377425E+03 E0= -.70377425E+03  EK= 0.50578E+01 SP= 0.00E+00 SK= 0.00E+00
   4665 T=   267. E= -.69869916E+03 F= -.70366308E+03 E0= -.70366308E+03  EK= 0.49639E+01 SP= 0.00E+00 SK= 0.00E+00
   4666 T=   264. E= -.69867693E+03 F= -.70358855E+03 E0= -.70358855E+03  EK= 0.49116E+01 SP= 0.00E+00 SK= 0.00E+00
   4667 T=   265. E= -.69866109E+03 F= -.70359800E+03 E0= -.70359800E+03  EK= 0.49369E+01 SP= 0.00E+00 SK= 0.00E+00
   4668 T=   268. E= -.69867756E+03 F= -.70366011E+03 E0= -.70366011E+03  EK= 0.49826E+01 SP= 0.00E+00 SK= 0.00E+00
   4669 T=   272. E= -.69869461E+03 F= -.70376183E+03 E0= -.70376183E+03  EK= 0.50672E+01 SP= 0.00E+00 SK= 0.00E+00
   4670 T=   279. E= -.69868820E+03 F= -.70387221E+03 E0= -.70387221E+03  EK= 0.51840E+01 SP= 0.00E+00 SK= 0.00E+00
   4671 T=   280. E= -.69870748E+03 F= -.70391094E+03 E0= -.70391094E+03  EK= 0.52035E+01 SP= 0.00E+00 SK= 0.00E+00
       N       E                     dE             d eps       ncg     rms          rms(c)
DAV:   1    -0.473583367415E+03    0.22195E+03   -0.24189E+04 12190   0.331E+02
DAV:   2    -0.697239694153E+03   -0.22366E+03   -0.22253E+03 14380   0.879E+01
DAV:   3    -0.701207567421E+03   -0.39679E+01   -0.39668E+01 14500   0.130E+01
DAV:   4    -0.701268673283E+03   -0.61106E-01   -0.61101E-01 14340   0.162E+00    0.254E+01
DAV:   5    -0.695495115081E+03    0.57736E+01   -0.11846E+01 13724   0.888E+00    0.143E+01
DAV:   6    -0.695266266101E+03    0.22885E+00   -0.99873E+00 14580   0.787E+00    0.392E+00
DAV:   7    -0.695535896675E+03   -0.26963E+00   -0.17422E+00 14044   0.335E+00    0.167E+00
DAV:   8    -0.695534832767E+03    0.10639E-02   -0.13728E-01 14068   0.101E+00    0.745E-01
DAV:   9    -0.695530086925E+03    0.47458E-02   -0.40391E-02 13964   0.603E-01    0.288E-01
DAV:  10    -0.695527255114E+03    0.28318E-02   -0.88396E-03 15108   0.341E-01    0.114E-01
DAV:  11    -0.695526222044E+03    0.10331E-02   -0.38026E-03 14460   0.182E-01    0.833E-02
DAV:  12    -0.695524876210E+03    0.13458E-02   -0.90975E-04 14028   0.183E-01    0.419E-02
DAV:  13    -0.695524446199E+03    0.43001E-03   -0.84438E-04 13732   0.141E-01    0.548E-02
DAV:  14    -0.695524366088E+03    0.80110E-04   -0.83725E-04 14444   0.961E-02
   4672 T=   274. E= -.69874065E+03 F= -.70384052E+03 E0= -.70384052E+03  EK= 0.50999E+01 SP= 0.00E+00 SK= 0.00E+00
   4673 T=   269. E= -.69873794E+03 F= -.70375081E+03 E0= -.70375081E+03  EK= 0.50129E+01 SP= 0.00E+00 SK= 0.00E+00
   4674 T=   274. E= -.69859337E+03 F= -.70369528E+03 E0= -.70369528E+03  EK= 0.51019E+01 SP= 0.00E+00 SK= 0.00E+00
   4675 T=   281. E= -.69846349E+03 F= -.70370309E+03 E0= -.70370309E+03  EK= 0.52396E+01 SP= 0.00E+00 SK= 0.00E+00
   4676 T=   283. E= -.69847183E+03 F= -.70374548E+03 E0= -.70374548E+03  EK= 0.52736E+01 SP= 0.00E+00 SK= 0.00E+00
   4677 T=   282. E= -.69856138E+03 F= -.70381707E+03 E0= -.70381707E+03  EK= 0.52557E+01 SP= 0.00E+00 SK= 0.00E+00
   4678 T=   285. E= -.69860055E+03 F= -.70389633E+03 E0= -.70389633E+03  EK= 0.52958E+01 SP= 0.00E+00 SK= 0.00E+00
   4679 T=   293. E= -.69851307E+03 F= -.70397193E+03 E0= -.70397193E+03  EK= 0.54589E+01 SP= 0.00E+00 SK= 0.00E+00
   4680 T=   299. E= -.69843290E+03 F= -.70399352E+03 E0= -.70399352E+03  EK= 0.55606E+01 SP= 0.00E+00 SK= 0.00E+00
   4681 T=   297. E= -.69841391E+03 F= -.70393743E+03 E0= -.70393743E+03  EK= 0.55235E+01 SP= 0.00E+00 SK= 0.00E+00
   4682 T=   290. E= -.69839176E+03 F= -.70378728E+03 E0= -.70378728E+03  EK= 0.53955E+01 SP= 0.00E+00 SK= 0.00E+00
   4683 T=   287. E= -.69828960E+03 F= -.70363637E+03 E0= -.70363637E+03  EK= 0.53468E+01 SP= 0.00E+00 SK= 0.00E+00
   4684 T=   287. E= -.69824684E+03 F= -.70359190E+03 E0= -.70359190E+03  EK= 0.53451E+01 SP= 0.00E+00 SK= 0.00E+00
   4685 T=   285. E= -.69833718E+03 F= -.70364451E+03 E0= -.70364451E+03  EK= 0.53073E+01 SP= 0.00E+00 SK= 0.00E+00
   4686 T=   288. E= -.69840986E+03 F= -.70377081E+03 E0= -.70377081E+03  EK= 0.53610E+01 SP= 0.00E+00 SK= 0.00E+00
   4687 T=   292. E= -.69843515E+03 F= -.70387877E+03 E0= -.70387877E+03  EK= 0.54436E+01 SP= 0.00E+00 SK= 0.00E+00
   4688 T=   298. E= -.69839521E+03 F= -.70393836E+03 E0= -.70393836E+03  EK= 0.55431E+01 SP= 0.00E+00 SK= 0.00E+00
   4689 T=   294. E= -.69836202E+03 F= -.70383850E+03 E0= -.70383850E+03  EK= 0.54765E+01 SP= 0.00E+00 SK= 0.00E+00
   4690 T=   283. E= -.69838744E+03 F= -.70365886E+03 E0= -.70365886E+03  EK= 0.52714E+01 SP= 0.00E+00 SK= 0.00E+00
   4691 T=   273. E= -.69843053E+03 F= -.70351744E+03 E0= -.70351744E+03  EK= 0.50869E+01 SP= 0.00E+00 SK= 0.00E+00
   4692 T=   270. E= -.69848220E+03 F= -.70350028E+03 E0= -.70350028E+03  EK= 0.50181E+01 SP= 0.00E+00 SK= 0.00E+00
   4693 T=   273. E= -.69848592E+03 F= -.70357044E+03 E0= -.70357044E+03  EK= 0.50845E+01 SP= 0.00E+00 SK= 0.00E+00
   4694 T=   287. E= -.69837179E+03 F= -.70371997E+03 E0= -.70371997E+03  EK= 0.53482E+01 SP= 0.00E+00 SK= 0.00E+00
   4695 T=   309. E= -.69820520E+03 F= -.70395691E+03 E0= -.70395691E+03  EK= 0.57517E+01 SP= 0.00E+00 SK= 0.00E+00
   4696 T=   322. E= -.69815732E+03 F= -.70415570E+03 E0= -.70415570E+03  EK= 0.59984E+01 SP= 0.00E+00 SK= 0.00E+00
   4697 T=   324. E= -.69816269E+03 F= -.70419803E+03 E0= -.70419803E+03  EK= 0.60353E+01 SP= 0.00E+00 SK= 0.00E+00
       N       E                     dE             d eps       ncg     rms          rms(c)
DAV:   1    -0.657083234403E+03    0.38441E+02   -0.88446E+03 12190   0.208E+02
DAV:   2    -0.697850821136E+03   -0.40768E+02   -0.40741E+02 14212   0.392E+01
DAV:   3    -0.698308664485E+03   -0.45784E+00   -0.45778E+00 14620   0.463E+00
DAV:   4    -0.698317617295E+03   -0.89528E-02   -0.89523E-02 14372   0.621E-01    0.166E+01
DAV:   5    -0.696023142790E+03    0.22945E+01   -0.39715E+00 14124   0.564E+00    0.944E+00
DAV:   6    -0.695790474613E+03    0.23267E+00   -0.46291E+00 14636   0.554E+00    0.219E+00
DAV:   7    -0.695842453219E+03   -0.51979E-01   -0.81282E-01 13940   0.237E+00    0.103E+00
DAV:   8    -0.695832345577E+03    0.10108E-01   -0.72014E-02 14188   0.708E-01    0.490E-01
DAV:   9    -0.695826441406E+03    0.59042E-02   -0.24282E-02 13852   0.457E-01    0.242E-01
DAV:  10    -0.695823080003E+03    0.33614E-02   -0.58001E-03 16084   0.299E-01    0.854E-02
DAV:  11    -0.695822164512E+03    0.91549E-03   -0.28607E-03 14324   0.160E-01    0.725E-02
DAV:  12    -0.695821344028E+03    0.82048E-03   -0.65126E-04 13332   0.114E-01    0.324E-02
DAV:  13    -0.695821058730E+03    0.28530E-03   -0.43932E-04 13140   0.103E-01    0.417E-02
DAV:  14    -0.695821016237E+03    0.42493E-04   -0.42724E-04 14012   0.662E-02
   4698 T=   318. E= -.69821652E+03 F= -.70412786E+03 E0= -.70412786E+03  EK= 0.59113E+01 SP= 0.00E+00 SK= 0.00E+00
   4699 T=   312. E= -.69822180E+03 F= -.70402163E+03 E0= -.70402163E+03  EK= 0.57998E+01 SP= 0.00E+00 SK= 0.00E+00
   4700 T=   312. E= -.69820956E+03 F= -.70402497E+03 E0= -.70402497E+03  EK= 0.58154E+01 SP= 0.00E+00 SK= 0.00E+00
   4701 T=   319. E= -.69825506E+03 F= -.70419247E+03 E0= -.70419247E+03  EK= 0.59374E+01 SP= 0.00E+00 SK= 0.00E+00
   4702 T=   336. E= -.69819901E+03 F= -.70445919E+03 E0= -.70445919E+03  EK= 0.62602E+01 SP= 0.00E+00 SK= 0.00E+00
   4703 T=   353. E= -.69809771E+03 F= -.70467668E+03 E0= -.70467668E+03  EK= 0.65790E+01 SP= 0.00E+00 SK= 0.00E+00
   4704 T=   360. E= -.69803599E+03 F= -.70474540E+03 E0= -.70474540E+03  EK= 0.67094E+01 SP= 0.00E+00 SK= 0.00E+00
   4705 T=   357. E= -.69804620E+03 F= -.70468272E+03 E0= -.70468272E+03  EK= 0.66365E+01 SP= 0.00E+00 SK= 0.00E+00
   4706 T=   348. E= -.69807098E+03 F= -.70454965E+03 E0= -.70454965E+03  EK= 0.64787E+01 SP= 0.00E+00 SK= 0.00E+00
   4707 T=   341. E= -.69810579E+03 F= -.70446129E+03 E0= -.70446129E+03  EK= 0.63555E+01 SP= 0.00E+00 SK= 0.00E+00
       N       E                     dE             d eps       ncg     rms          rms(c)
DAV:   1    -0.689559361462E+03    0.62617E+01   -0.25813E+03 12190   0.115E+02
DAV:   2    -0.697001081854E+03   -0.74417E+01   -0.74393E+01 14420   0.174E+01
DAV:   3    -0.697076192750E+03   -0.75111E-01   -0.75105E-01 14636   0.186E+00
DAV:   4    -0.697077862464E+03   -0.16697E-02   -0.16697E-02 14436   0.262E-01    0.982E+00
DAV:   5    -0.696176896934E+03    0.90097E+00   -0.15606E+00 15300   0.391E+00    0.548E+00
DAV:   6    -0.696071623057E+03    0.10527E+00   -0.15831E+00 14716   0.340E+00    0.146E+00
DAV:   7    -0.696085046257E+03   -0.13423E-01   -0.30098E-01 13932   0.158E+00    0.609E-01
DAV:   8    -0.696081603809E+03    0.34424E-02   -0.32928E-02 14316   0.476E-01    0.336E-01
DAV:   9    -0.696078583313E+03    0.30205E-02   -0.14013E-02 13852   0.354E-01    0.190E-01
DAV:  10    -0.696076564814E+03    0.20185E-02   -0.31743E-03 16284   0.241E-01    0.660E-02
DAV:  11    -0.696076057026E+03    0.50779E-03   -0.21520E-03 14548   0.149E-01    0.589E-02
DAV:  12    -0.696075680141E+03    0.37689E-03   -0.44993E-04 13756   0.871E-02    0.257E-02
DAV:  13    -0.696075481590E+03    0.19855E-03   -0.17592E-04 10100   0.778E-02    0.255E-02
DAV:  14    -0.696075445853E+03    0.35737E-04   -0.18929E-04 10940   0.545E-02
   4708 T=   337. E= -.69810110E+03 F= -.70437888E+03 E0= -.70437888E+03  EK= 0.62778E+01 SP= 0.00E+00 SK= 0.00E+00
   4709 T=   339. E= -.69807832E+03 F= -.70438620E+03 E0= -.70438620E+03  EK= 0.63079E+01 SP= 0.00E+00 SK= 0.00E+00
   4710 T=   335. E= -.69806357E+03 F= -.70430587E+03 E0= -.70430587E+03  EK= 0.62423E+01 SP= 0.00E+00 SK= 0.00E+00
   4711 T=   332. E= -.69806669E+03 F= -.70424076E+03 E0= -.70424076E+03  EK= 0.61741E+01 SP= 0.00E+00 SK= 0.00E+00
   4712 T=   327. E= -.69810849E+03 F= -.70419860E+03 E0= -.70419860E+03  EK= 0.60901E+01 SP= 0.00E+00 SK= 0.00E+00
   4713 T=   320. E= -.69817851E+03 F= -.70412714E+03 E0= -.70412714E+03  EK= 0.59486E+01 SP= 0.00E+00 SK= 0.00E+00
   4714 T=   314. E= -.69819092E+03 F= -.70402803E+03 E0= -.70402803E+03  EK= 0.58371E+01 SP= 0.00E+00 SK= 0.00E+00
   4715 T=   310. E= -.69819444E+03 F= -.70395616E+03 E0= -.70395616E+03  EK= 0.57617E+01 SP= 0.00E+00 SK= 0.00E+00
   4716 T=   303. E= -.69823152E+03 F= -.70387419E+03 E0= -.70387419E+03  EK= 0.56427E+01 SP= 0.00E+00 SK= 0.00E+00
   4717 T=   302. E= -.69827269E+03 F= -.70388787E+03 E0= -.70388787E+03  EK= 0.56152E+01 SP= 0.00E+00 SK= 0.00E+00
       N       E                     dE             d eps       ncg     rms          rms(c)
DAV:   1    -0.688683457270E+03    0.73920E+01   -0.26626E+03 12190   0.116E+02
DAV:   2    -0.696667062102E+03   -0.79836E+01   -0.79808E+01 14380   0.182E+01
DAV:   3    -0.696751575697E+03   -0.84514E-01   -0.84505E-01 14644   0.196E+00
DAV:   4    -0.696753471216E+03   -0.18955E-02   -0.18954E-02 14380   0.276E-01    0.996E+00
DAV:   5    -0.695662181350E+03    0.10913E+01   -0.19446E+00 14940   0.429E+00    0.543E+00
DAV:   6    -0.695517568987E+03    0.14461E+00   -0.16724E+00 14700   0.355E+00    0.161E+00
DAV:   7    -0.695525760186E+03   -0.81912E-02   -0.33792E-01 14116   0.165E+00    0.637E-01
DAV:   8    -0.695518368611E+03    0.73916E-02   -0.34319E-02 14132   0.527E-01    0.302E-01
DAV:   9    -0.695513211406E+03    0.51572E-02   -0.97150E-03 14012   0.324E-01    0.148E-01
DAV:  10    -0.695510596200E+03    0.26152E-02   -0.28171E-03 15972   0.238E-01    0.617E-02
DAV:  11    -0.695509681969E+03    0.91423E-03   -0.16899E-03 14444   0.155E-01    0.554E-02
DAV:  12    -0.695509006926E+03    0.67504E-03   -0.39206E-04 12532   0.136E-01    0.235E-02
DAV:  13    -0.695508862237E+03    0.14469E-03   -0.53184E-04 13836   0.106E-01    0.363E-02
DAV:  14    -0.695508852730E+03    0.95072E-05   -0.44864E-04 14420   0.580E-02
   4718 T=   307. E= -.69812661E+03 F= -.70383220E+03 E0= -.70383220E+03  EK= 0.57056E+01 SP= 0.00E+00 SK= 0.00E+00
   4719 T=   307. E= -.69816007E+03 F= -.70388365E+03 E0= -.70388365E+03  EK= 0.57236E+01 SP= 0.00E+00 SK= 0.00E+00
   4720 T=   298. E= -.69817670E+03 F= -.70372853E+03 E0= -.70372853E+03  EK= 0.55518E+01 SP= 0.00E+00 SK= 0.00E+00
   4721 T=   283. E= -.69826852E+03 F= -.70354162E+03 E0= -.70354162E+03  EK= 0.52731E+01 SP= 0.00E+00 SK= 0.00E+00
   4722 T=   273. E= -.69831801E+03 F= -.70340211E+03 E0= -.70340211E+03  EK= 0.50841E+01 SP= 0.00E+00 SK= 0.00E+00
   4723 T=   273. E= -.69827905E+03 F= -.70336364E+03 E0= -.70336364E+03  EK= 0.50846E+01 SP= 0.00E+00 SK= 0.00E+00
   4724 T=   276. E= -.69826147E+03 F= -.70340487E+03 E0= -.70340487E+03  EK= 0.51434E+01 SP= 0.00E+00 SK= 0.00E+00
   4725 T=   282. E= -.69823581E+03 F= -.70348403E+03 E0= -.70348403E+03  EK= 0.52482E+01 SP= 0.00E+00 SK= 0.00E+00
   4726 T=   288. E= -.69818550E+03 F= -.70353883E+03 E0= -.70353883E+03  EK= 0.53533E+01 SP= 0.00E+00 SK= 0.00E+00
   4727 T=   290. E= -.69817336E+03 F= -.70357614E+03 E0= -.70357614E+03  EK= 0.54028E+01 SP= 0.00E+00 SK= 0.00E+00
       N       E                     dE             d eps       ncg     rms          rms(c)
DAV:   1    -0.690306606905E+03    0.52023E+01   -0.20648E+03 12190   0.102E+02
DAV:   2    -0.696036698863E+03   -0.57301E+01   -0.57284E+01 14492   0.154E+01
DAV:   3    -0.696095524090E+03   -0.58825E-01   -0.58821E-01 14660   0.162E+00
DAV:   4    -0.696096859218E+03   -0.13351E-02   -0.13351E-02 14452   0.232E-01    0.908E+00
DAV:   5    -0.695279021713E+03    0.81784E+00   -0.17485E+00 15140   0.395E+00    0.487E+00
DAV:   6    -0.695209283009E+03    0.69739E-01   -0.11128E+00 14556   0.273E+00    0.158E+00
DAV:   7    -0.695227149484E+03   -0.17866E-01   -0.22484E-01 14228   0.131E+00    0.589E-01
DAV:   8    -0.695224070967E+03    0.30785E-02   -0.20276E-02 14268   0.407E-01    0.304E-01
DAV:   9    -0.695221412405E+03    0.26586E-02   -0.10120E-02 13836   0.285E-01    0.140E-01
DAV:  10    -0.695220204137E+03    0.12083E-02   -0.21325E-03 16364   0.182E-01    0.510E-02
DAV:  11    -0.695219837786E+03    0.36635E-03   -0.10277E-03 14092   0.963E-02    0.440E-02
DAV:  12    -0.695219496006E+03    0.34178E-03   -0.19570E-04 10780   0.872E-02    0.163E-02
DAV:  13    -0.695219405800E+03    0.90206E-04   -0.27588E-04 11868   0.679E-02
   4728 T=   290. E= -.69813542E+03 F= -.70353350E+03 E0= -.70353350E+03  EK= 0.53981E+01 SP= 0.00E+00 SK= 0.00E+00
   4729 T=   298. E= -.69813239E+03 F= -.70367283E+03 E0= -.70367283E+03  EK= 0.55404E+01 SP= 0.00E+00 SK= 0.00E+00
   4730 T=   307. E= -.69807829E+03 F= -.70379075E+03 E0= -.70379075E+03  EK= 0.57125E+01 SP= 0.00E+00 SK= 0.00E+00
   4731 T=   318. E= -.69809115E+03 F= -.70401548E+03 E0= -.70401548E+03  EK= 0.59243E+01 SP= 0.00E+00 SK= 0.00E+00
   4732 T=   331. E= -.69814643E+03 F= -.70430108E+03 E0= -.70430108E+03  EK= 0.61546E+01 SP= 0.00E+00 SK= 0.00E+00
   4733 T=   341. E= -.69819281E+03 F= -.70453580E+03 E0= -.70453580E+03  EK= 0.63430E+01 SP= 0.00E+00 SK= 0.00E+00
   4734 T=   347. E= -.69817793E+03 F= -.70463083E+03 E0= -.70463083E+03  EK= 0.64529E+01 SP= 0.00E+00 SK= 0.00E+00
   4735 T=   342. E= -.69821895E+03 F= -.70458926E+03 E0= -.70458926E+03  EK= 0.63703E+01 SP= 0.00E+00 SK= 0.00E+00
   4736 T=   333. E= -.69826578E+03 F= -.70446297E+03 E0= -.70446297E+03  EK= 0.61972E+01 SP= 0.00E+00 SK= 0.00E+00
   4737 T=   329. E= -.69828302E+03 F= -.70439954E+03 E0= -.70439954E+03  EK= 0.61165E+01 SP= 0.00E+00 SK= 0.00E+00
       N       E                     dE             d eps       ncg     rms          rms(c)
DAV:   1    -0.689653855524E+03    0.55656E+01   -0.26041E+03 12190   0.115E+02
DAV:   2    -0.697007195917E+03   -0.73533E+01   -0.73510E+01 14436   0.175E+01
DAV:   3    -0.697082796638E+03   -0.75601E-01   -0.75594E-01 14644   0.184E+00
DAV:   4    -0.697084523823E+03   -0.17272E-02   -0.17271E-02 14444   0.263E-01    0.100E+01
DAV:   5    -0.696086667245E+03    0.99786E+00   -0.19036E+00 14684   0.410E+00    0.545E+00
DAV:   6    -0.695964899670E+03    0.12177E+00   -0.14603E+00 14612   0.323E+00    0.162E+00
DAV:   7    -0.695979182106E+03   -0.14282E-01   -0.28606E-01 14140   0.154E+00    0.648E-01
DAV:   8    -0.695974708526E+03    0.44736E-02   -0.32059E-02 14204   0.474E-01    0.342E-01
DAV:   9    -0.695970711133E+03    0.39974E-02   -0.10729E-02 14028   0.333E-01    0.157E-01
DAV:  10    -0.695968563417E+03    0.21477E-02   -0.25317E-03 15692   0.235E-01    0.627E-02
DAV:  11    -0.695968086666E+03    0.47675E-03   -0.20357E-03 14668   0.143E-01    0.608E-02
DAV:  12    -0.695967668775E+03    0.41789E-03   -0.53014E-04 13284   0.105E-01    0.298E-02
DAV:  13    -0.695967476527E+03    0.19225E-03   -0.18817E-04 10036   0.943E-02    0.334E-02
DAV:  14    -0.695967446884E+03    0.29644E-04   -0.35812E-04 13260   0.639E-02
   4738 T=   327. E= -.69819107E+03 F= -.70428217E+03 E0= -.70428217E+03  EK= 0.60911E+01 SP= 0.00E+00 SK= 0.00E+00
   4739 T=   330. E= -.69822813E+03 F= -.70437435E+03 E0= -.70437435E+03  EK= 0.61462E+01 SP= 0.00E+00 SK= 0.00E+00
   4740 T=   326. E= -.69828202E+03 F= -.70434627E+03 E0= -.70434627E+03  EK= 0.60642E+01 SP= 0.00E+00 SK= 0.00E+00
   4741 T=   316. E= -.69835764E+03 F= -.70423250E+03 E0= -.70423250E+03  EK= 0.58749E+01 SP= 0.00E+00 SK= 0.00E+00
   4742 T=   299. E= -.69844064E+03 F= -.70401226E+03 E0= -.70401226E+03  EK= 0.55716E+01 SP= 0.00E+00 SK= 0.00E+00
   4743 T=   280. E= -.69852779E+03 F= -.70374061E+03 E0= -.70374061E+03  EK= 0.52128E+01 SP= 0.00E+00 SK= 0.00E+00
   4744 T=   268. E= -.69848788E+03 F= -.70347691E+03 E0= -.70347691E+03  EK= 0.49890E+01 SP= 0.00E+00 SK= 0.00E+00
   4745 T=   265. E= -.69839463E+03 F= -.70332628E+03 E0= -.70332628E+03  EK= 0.49317E+01 SP= 0.00E+00 SK= 0.00E+00
   4746 T=   270. E= -.69831726E+03 F= -.70333814E+03 E0= -.70333814E+03  EK= 0.50209E+01 SP= 0.00E+00 SK= 0.00E+00
   4747 T=   281. E= -.69827502E+03 F= -.70351030E+03 E0= -.70351030E+03  EK= 0.52353E+01 SP= 0.00E+00 SK= 0.00E+00
   4748 T=   291. E= -.69829908E+03 F= -.70371679E+03 E0= -.70371679E+03  EK= 0.54177E+01 SP= 0.00E+00 SK= 0.00E+00
   4749 T=   292. E= -.69837073E+03 F= -.70381115E+03 E0= -.70381115E+03  EK= 0.54404E+01 SP= 0.00E+00 SK= 0.00E+00
   4750 T=   286. E= -.69841388E+03 F= -.70373617E+03 E0= -.70373617E+03  EK= 0.53223E+01 SP= 0.00E+00 SK= 0.00E+00
   4751 T=   275. E= -.69849249E+03 F= -.70360688E+03 E0= -.70360688E+03  EK= 0.51144E+01 SP= 0.00E+00 SK= 0.00E+00
   4752 T=   269. E= -.69859777E+03 F= -.70359718E+03 E0= -.70359718E+03  EK= 0.49994E+01 SP= 0.00E+00 SK= 0.00E+00
   4753 T=   274. E= -.69862556E+03 F= -.70372958E+03 E0= -.70372958E+03  EK= 0.51040E+01 SP= 0.00E+00 SK= 0.00E+00
   4754 T=   290. E= -.69855880E+03 F= -.70395477E+03 E0= -.70395477E+03  EK= 0.53960E+01 SP= 0.00E+00 SK= 0.00E+00
   4755 T=   303. E= -.69851620E+03 F= -.70416361E+03 E0= -.70416361E+03  EK= 0.56474E+01 SP= 0.00E+00 SK= 0.00E+00
   4756 T=   308. E= -.69850625E+03 F= -.70423385E+03 E0= -.70423385E+03  EK= 0.57276E+01 SP= 0.00E+00 SK= 0.00E+00
   4757 T=   307. E= -.69842093E+03 F= -.70414228E+03 E0= -.70414228E+03  EK= 0.57214E+01 SP= 0.00E+00 SK= 0.00E+00
   4758 T=   300. E= -.69840903E+03 F= -.70399458E+03 E0= -.70399458E+03  EK= 0.55855E+01 SP= 0.00E+00 SK= 0.00E+00
   4759 T=   288. E= -.69846606E+03 F= -.70382740E+03 E0= -.70382740E+03  EK= 0.53613E+01 SP= 0.00E+00 SK= 0.00E+00
   4760 T=   284. E= -.69842567E+03 F= -.70370416E+03 E0= -.70370416E+03  EK= 0.52785E+01 SP= 0.00E+00 SK= 0.00E+00
   4761 T=   291. E= -.69831245E+03 F= -.70372580E+03 E0= -.70372580E+03  EK= 0.54134E+01 SP= 0.00E+00 SK= 0.00E+00
   4762 T=   310. E= -.69814965E+03 F= -.70391323E+03 E0= -.70391323E+03  EK= 0.57636E+01 SP= 0.00E+00 SK= 0.00E+00
   4763 T=   324. E= -.69816017E+03 F= -.70418595E+03 E0= -.70418595E+03  EK= 0.60258E+01 SP= 0.00E+00 SK= 0.00E+00
   4764 T=   329. E= -.69829606E+03 F= -.70441860E+03 E0= -.70441860E+03  EK= 0.61225E+01 SP= 0.00E+00 SK= 0.00E+00
   4765 T=   333. E= -.69826995E+03 F= -.70447630E+03 E0= -.70447630E+03  EK= 0.62063E+01 SP= 0.00E+00 SK= 0.00E+00
   4766 T=   323. E= -.69830992E+03 F= -.70432196E+03 E0= -.70432196E+03  EK= 0.60120E+01 SP= 0.00E+00 SK= 0.00E+00
   4767 T=   305. E= -.69837938E+03 F= -.70406537E+03 E0= -.70406537E+03  EK= 0.56860E+01 SP= 0.00E+00 SK= 0.00E+00
   4768 T=   299. E= -.69828178E+03 F= -.70384119E+03 E0= -.70384119E+03  EK= 0.55594E+01 SP= 0.00E+00 SK= 0.00E+00
   4769 T=   301. E= -.69819778E+03 F= -.70380193E+03 E0= -.70380193E+03  EK= 0.56042E+01 SP= 0.00E+00 SK= 0.00E+00
       N       E                     dE             d eps       ncg     rms          rms(c)
DAV:   1    -0.631618257116E+03    0.64349E+02   -0.11836E+04 12190   0.238E+02
DAV:   2    -0.697798882618E+03   -0.66181E+02   -0.66113E+02 14468   0.489E+01
DAV:   3    -0.698608074531E+03   -0.80919E+00   -0.80908E+00 14652   0.604E+00
DAV:   4    -0.698622514128E+03   -0.14440E-01   -0.14439E-01 14452   0.789E-01    0.188E+01
DAV:   5    -0.695729362783E+03    0.28932E+01   -0.49236E+00 14276   0.638E+00    0.107E+01
DAV:   6    -0.695484086256E+03    0.24528E+00   -0.57295E+00 14628   0.609E+00    0.247E+00
DAV:   7    -0.695561361307E+03   -0.77275E-01   -0.93375E-01 13668   0.250E+00    0.111E+00
DAV:   8    -0.695558060206E+03    0.33011E-02   -0.85908E-02 14004   0.700E-01    0.544E-01
DAV:   9    -0.695553441042E+03    0.46192E-02   -0.23972E-02 13900   0.501E-01    0.257E-01
DAV:  10    -0.695551142429E+03    0.22986E-02   -0.62510E-03 14124   0.265E-01    0.886E-02
DAV:  11    -0.695550666143E+03    0.47629E-03   -0.27065E-03 14564   0.140E-01    0.618E-02
DAV:  12    -0.695550248539E+03    0.41760E-03   -0.31276E-04 11732   0.744E-02    0.279E-02
DAV:  13    -0.695549971097E+03    0.27744E-03   -0.34822E-04 12436   0.940E-02    0.301E-02
DAV:  14    -0.695549925750E+03    0.45346E-04   -0.24982E-04 11788   0.578E-02
   4770 T=   306. E= -.69819579E+03 F= -.70389965E+03 E0= -.70389965E+03  EK= 0.57039E+01 SP= 0.00E+00 SK= 0.00E+00
   4771 T=   312. E= -.69822470E+03 F= -.70404068E+03 E0= -.70404068E+03  EK= 0.58160E+01 SP= 0.00E+00 SK= 0.00E+00
   4772 T=   317. E= -.69816832E+03 F= -.70407776E+03 E0= -.70407776E+03  EK= 0.59094E+01 SP= 0.00E+00 SK= 0.00E+00
   4773 T=   318. E= -.69812308E+03 F= -.70403706E+03 E0= -.70403706E+03  EK= 0.59140E+01 SP= 0.00E+00 SK= 0.00E+00
   4774 T=   307. E= -.69819519E+03 F= -.70390810E+03 E0= -.70390810E+03  EK= 0.57129E+01 SP= 0.00E+00 SK= 0.00E+00
   4775 T=   292. E= -.69835219E+03 F= -.70378400E+03 E0= -.70378400E+03  EK= 0.54318E+01 SP= 0.00E+00 SK= 0.00E+00
   4776 T=   286. E= -.69841254E+03 F= -.70374282E+03 E0= -.70374282E+03  EK= 0.53303E+01 SP= 0.00E+00 SK= 0.00E+00
   4777 T=   288. E= -.69843075E+03 F= -.70379456E+03 E0= -.70379456E+03  EK= 0.53638E+01 SP= 0.00E+00 SK= 0.00E+00
   4778 T=   299. E= -.69836571E+03 F= -.70393191E+03 E0= -.70393191E+03  EK= 0.55662E+01 SP= 0.00E+00 SK= 0.00E+00
   4779 T=   314. E= -.69823446E+03 F= -.70407538E+03 E0= -.70407538E+03  EK= 0.58409E+01 SP= 0.00E+00 SK= 0.00E+00
       N       E                     dE             d eps       ncg     rms          rms(c)
DAV:   1    -0.689987909068E+03    0.55621E+01   -0.23941E+03 12190   0.110E+02
DAV:   2    -0.696671128201E+03   -0.66832E+01   -0.66812E+01 14460   0.165E+01
DAV:   3    -0.696741735461E+03   -0.70607E-01   -0.70602E-01 14644   0.176E+00
DAV:   4    -0.696743328239E+03   -0.15928E-02   -0.15927E-02 14508   0.253E-01    0.977E+00
DAV:   5    -0.695805432043E+03    0.93790E+00   -0.21019E+00 15292   0.431E+00    0.519E+00
DAV:   6    -0.695726984690E+03    0.78447E-01   -0.11935E+00 14548   0.285E+00    0.174E+00
DAV:   7    -0.695740966336E+03   -0.13982E-01   -0.26517E-01 14700   0.152E+00    0.593E-01
DAV:   8    -0.695735839161E+03    0.51272E-02   -0.33965E-02 14268   0.540E-01    0.292E-01
DAV:   9    -0.695731433922E+03    0.44052E-02   -0.98172E-03 13972   0.320E-01    0.140E-01
DAV:  10    -0.695729293825E+03    0.21401E-02   -0.29303E-03 16052   0.256E-01    0.596E-02
DAV:  11    -0.695728465806E+03    0.82802E-03   -0.17691E-03 14444   0.165E-01    0.585E-02
DAV:  12    -0.695727791352E+03    0.67445E-03   -0.36782E-04 12396   0.142E-01    0.211E-02
DAV:  13    -0.695727574696E+03    0.21666E-03   -0.48452E-04 13340   0.132E-01    0.321E-02
DAV:  14    -0.695727593315E+03   -0.18619E-04   -0.66186E-04 14716   0.678E-02
   4780 T=   321. E= -.69811475E+03 F= -.70408949E+03 E0= -.70408949E+03  EK= 0.59747E+01 SP= 0.00E+00 SK= 0.00E+00
   4781 T=   323. E= -.69807893E+03 F= -.70408252E+03 E0= -.70408252E+03  EK= 0.60036E+01 SP= 0.00E+00 SK= 0.00E+00
   4782 T=   321. E= -.69796778E+03 F= -.70393806E+03 E0= -.70393806E+03  EK= 0.59703E+01 SP= 0.00E+00 SK= 0.00E+00
   4783 T=   323. E= -.69782346E+03 F= -.70383055E+03 E0= -.70383055E+03  EK= 0.60071E+01 SP= 0.00E+00 SK= 0.00E+00
   4784 T=   324. E= -.69776218E+03 F= -.70379804E+03 E0= -.70379804E+03  EK= 0.60359E+01 SP= 0.00E+00 SK= 0.00E+00
   4785 T=   324. E= -.69776501E+03 F= -.70380498E+03 E0= -.70380498E+03  EK= 0.60400E+01 SP= 0.00E+00 SK= 0.00E+00
   4786 T=   321. E= -.69780577E+03 F= -.70378190E+03 E0= -.70378190E+03  EK= 0.59761E+01 SP= 0.00E+00 SK= 0.00E+00
   4787 T=   314. E= -.69782889E+03 F= -.70367344E+03 E0= -.70367344E+03  EK= 0.58446E+01 SP= 0.00E+00 SK= 0.00E+00
   4788 T=   305. E= -.69781407E+03 F= -.70349430E+03 E0= -.70349430E+03  EK= 0.56802E+01 SP= 0.00E+00 SK= 0.00E+00
   4789 T=   292. E= -.69787746E+03 F= -.70331706E+03 E0= -.70331706E+03  EK= 0.54396E+01 SP= 0.00E+00 SK= 0.00E+00
       N       E                     dE             d eps       ncg     rms          rms(c)
DAV:   1    -0.689167873440E+03    0.65597E+01   -0.24866E+03 12190   0.113E+02
DAV:   2    -0.695846899913E+03   -0.66790E+01   -0.66768E+01 14492   0.166E+01
DAV:   3    -0.695916115950E+03   -0.69216E-01   -0.69210E-01 14660   0.176E+00
DAV:   4    -0.695917699848E+03   -0.15839E-02   -0.15838E-02 14484   0.253E-01    0.987E+00
DAV:   5    -0.694900310692E+03    0.10174E+01   -0.20734E+00 15140   0.440E+00    0.528E+00
DAV:   6    -0.694802205499E+03    0.98105E-01   -0.14596E+00 14636   0.312E+00    0.171E+00
DAV:   7    -0.694812922005E+03   -0.10717E-01   -0.28156E-01 14292   0.160E+00    0.597E-01
DAV:   8    -0.694808134548E+03    0.47875E-02   -0.35034E-02 14516   0.572E-01    0.285E-01
DAV:   9    -0.694804073428E+03    0.40611E-02   -0.12364E-02 13772   0.313E-01    0.161E-01
DAV:  10    -0.694802243064E+03    0.18304E-02   -0.30526E-03 15820   0.228E-01    0.590E-02
DAV:  11    -0.694801528265E+03    0.71480E-03   -0.15554E-03 14036   0.137E-01    0.570E-02
DAV:  12    -0.694800998519E+03    0.52975E-03   -0.31540E-04 11996   0.107E-01    0.253E-02
DAV:  13    -0.694800756783E+03    0.24174E-03   -0.35927E-04 12660   0.110E-01    0.275E-02
DAV:  14    -0.694800751973E+03    0.48094E-05   -0.37076E-04 13940   0.564E-02
   4790 T=   281. E= -.69794516E+03 F= -.70317881E+03 E0= -.70317881E+03  EK= 0.52336E+01 SP= 0.00E+00 SK= 0.00E+00
   4791 T=   277. E= -.69799603E+03 F= -.70315824E+03 E0= -.70315824E+03  EK= 0.51622E+01 SP= 0.00E+00 SK= 0.00E+00
   4792 T=   280. E= -.69798270E+03 F= -.70318924E+03 E0= -.70318924E+03  EK= 0.52065E+01 SP= 0.00E+00 SK= 0.00E+00
   4793 T=   289. E= -.69787844E+03 F= -.70325297E+03 E0= -.70325297E+03  EK= 0.53745E+01 SP= 0.00E+00 SK= 0.00E+00
   4794 T=   295. E= -.69776286E+03 F= -.70324564E+03 E0= -.70324564E+03  EK= 0.54828E+01 SP= 0.00E+00 SK= 0.00E+00
   4795 T=   296. E= -.69772493E+03 F= -.70322525E+03 E0= -.70322525E+03  EK= 0.55003E+01 SP= 0.00E+00 SK= 0.00E+00
   4796 T=   299. E= -.69769233E+03 F= -.70324969E+03 E0= -.70324969E+03  EK= 0.55574E+01 SP= 0.00E+00 SK= 0.00E+00
   4797 T=   306. E= -.69759400E+03 F= -.70329350E+03 E0= -.70329350E+03  EK= 0.56995E+01 SP= 0.00E+00 SK= 0.00E+00
   4798 T=   313. E= -.69745882E+03 F= -.70327818E+03 E0= -.70327818E+03  EK= 0.58194E+01 SP= 0.00E+00 SK= 0.00E+00
   4799 T=   313. E= -.69740604E+03 F= -.70323756E+03 E0= -.70323756E+03  EK= 0.58315E+01 SP= 0.00E+00 SK= 0.00E+00
       N       E                     dE             d eps       ncg     rms          rms(c)
DAV:   1    -0.689771009243E+03    0.50297E+01   -0.21043E+03 12190   0.104E+02
DAV:   2    -0.695697834944E+03   -0.59268E+01   -0.59253E+01 14468   0.158E+01
DAV:   3    -0.695754650397E+03   -0.56815E-01   -0.56812E-01 14620   0.161E+00
DAV:   4    -0.695755849519E+03   -0.11991E-02   -0.11991E-02 14468   0.228E-01    0.951E+00
DAV:   5    -0.694856580887E+03    0.89927E+00   -0.18208E+00 14916   0.408E+00    0.511E+00
DAV:   6    -0.694772963400E+03    0.83617E-01   -0.13190E+00 14620   0.307E+00    0.158E+00
DAV:   7    -0.694785620464E+03   -0.12657E-01   -0.26857E-01 14044   0.153E+00    0.595E-01
DAV:   8    -0.694780498279E+03    0.51222E-02   -0.30804E-02 13988   0.515E-01    0.272E-01
DAV:   9    -0.694776966404E+03    0.35319E-02   -0.95896E-03 13852   0.266E-01    0.139E-01
DAV:  10    -0.694775296873E+03    0.16695E-02   -0.25288E-03 16532   0.215E-01    0.509E-02
DAV:  11    -0.694774817065E+03    0.47981E-03   -0.13122E-03 14108   0.117E-01    0.518E-02
DAV:  12    -0.694774449632E+03    0.36743E-03   -0.28472E-04 12140   0.768E-02    0.210E-02
DAV:  13    -0.694774304907E+03    0.14472E-03   -0.21721E-04 10332   0.828E-02    0.302E-02
DAV:  14    -0.694774291795E+03    0.13113E-04   -0.26274E-04 12292   0.485E-02
   4800 T=   308. E= -.69742915E+03 F= -.70315630E+03 E0= -.70315630E+03  EK= 0.57271E+01 SP= 0.00E+00 SK= 0.00E+00
   4801 T=   311. E= -.69744475E+03 F= -.70324255E+03 E0= -.70324255E+03  EK= 0.57978E+01 SP= 0.00E+00 SK= 0.00E+00
   4802 T=   321. E= -.69740593E+03 F= -.70338100E+03 E0= -.70338100E+03  EK= 0.59751E+01 SP= 0.00E+00 SK= 0.00E+00
   4803 T=   326. E= -.69743702E+03 F= -.70349859E+03 E0= -.70349859E+03  EK= 0.60616E+01 SP= 0.00E+00 SK= 0.00E+00
   4804 T=   325. E= -.69746403E+03 F= -.70352075E+03 E0= -.70352075E+03  EK= 0.60567E+01 SP= 0.00E+00 SK= 0.00E+00
   4805 T=   321. E= -.69747456E+03 F= -.70345338E+03 E0= -.70345338E+03  EK= 0.59788E+01 SP= 0.00E+00 SK= 0.00E+00
       N       E                     dE             d eps       ncg     rms          rms(c)
DAV:   1    -0.692832863212E+03    0.19414E+01   -0.10296E+03 12190   0.735E+01
DAV:   2    -0.695661484010E+03   -0.28286E+01   -0.28281E+01 14572   0.111E+01
DAV:   3    -0.695689275296E+03   -0.27791E-01   -0.27790E-01 14652   0.111E+00
DAV:   4    -0.695689906525E+03   -0.63123E-03   -0.63121E-03 14532   0.163E-01    0.744E+00
DAV:   5    -0.695029859248E+03    0.66005E+00   -0.15316E+00 15156   0.385E+00    0.377E+00
DAV:   6    -0.694974027764E+03    0.55831E-01   -0.72133E-01 14500   0.222E+00    0.147E+00
DAV:   7    -0.694975880319E+03   -0.18526E-02   -0.15755E-01 14836   0.122E+00    0.460E-01
DAV:   8    -0.694973687144E+03    0.21932E-02   -0.22069E-02 14612   0.440E-01    0.242E-01
DAV:   9    -0.694971461055E+03    0.22261E-02   -0.93394E-03 13868   0.271E-01    0.145E-01
DAV:  10    -0.694970255331E+03    0.12057E-02   -0.20796E-03 16700   0.194E-01    0.535E-02
DAV:  11    -0.694969783194E+03    0.47214E-03   -0.11494E-03 14196   0.123E-01    0.445E-02
DAV:  12    -0.694969482745E+03    0.30045E-03   -0.21234E-04 11268   0.883E-02    0.230E-02
DAV:  13    -0.694969291646E+03    0.19110E-03   -0.19759E-04 10804   0.106E-01    0.147E-02
DAV:  14    -0.694969301249E+03   -0.96033E-05   -0.32575E-04 13172   0.492E-02
   4806 T=   315. E= -.69745748E+03 F= -.70332792E+03 E0= -.70332792E+03  EK= 0.58704E+01 SP= 0.00E+00 SK= 0.00E+00
   4807 T=   307. E= -.69758940E+03 F= -.70329554E+03 E0= -.70329554E+03  EK= 0.57061E+01 SP= 0.00E+00 SK= 0.00E+00
   4808 T=   301. E= -.69769810E+03 F= -.70329511E+03 E0= -.70329511E+03  EK= 0.55970E+01 SP= 0.00E+00 SK= 0.00E+00
   4809 T=   298. E= -.69777555E+03 F= -.70332589E+03 E0= -.70332589E+03  EK= 0.55503E+01 SP= 0.00E+00 SK= 0.00E+00
   4810 T=   303. E= -.69775549E+03 F= -.70339418E+03 E0= -.70339418E+03  EK= 0.56387E+01 SP= 0.00E+00 SK= 0.00E+00
   4811 T=   311. E= -.69767919E+03 F= -.70346507E+03 E0= -.70346507E+03  EK= 0.57859E+01 SP= 0.00E+00 SK= 0.00E+00
   4812 T=   308. E= -.69775870E+03 F= -.70349058E+03 E0= -.70349058E+03  EK= 0.57319E+01 SP= 0.00E+00 SK= 0.00E+00
   4813 T=   298. E= -.69788138E+03 F= -.70342028E+03 E0= -.70342028E+03  EK= 0.55389E+01 SP= 0.00E+00 SK= 0.00E+00
   4814 T=   289. E= -.69792225E+03 F= -.70329870E+03 E0= -.70329870E+03  EK= 0.53764E+01 SP= 0.00E+00 SK= 0.00E+00
   4815 T=   287. E= -.69789567E+03 F= -.70323323E+03 E0= -.70323323E+03  EK= 0.53376E+01 SP= 0.00E+00 SK= 0.00E+00
       N       E                     dE             d eps       ncg     rms          rms(c)
DAV:   1    -0.689520407696E+03    0.54489E+01   -0.23269E+03 12190   0.109E+02
DAV:   2    -0.695925415649E+03   -0.64050E+01   -0.64030E+01 14396   0.164E+01
DAV:   3    -0.695990125770E+03   -0.64710E-01   -0.64705E-01 14636   0.171E+00
DAV:   4    -0.695991569380E+03   -0.14436E-02   -0.14435E-02 14428   0.244E-01    0.993E+00
DAV:   5    -0.694881373920E+03    0.11102E+01   -0.25214E+00 15180   0.475E+00    0.515E+00
DAV:   6    -0.694775190363E+03    0.10618E+00   -0.12480E+00 14596   0.288E+00    0.189E+00
DAV:   7    -0.694777110843E+03   -0.19205E-02   -0.26943E-01 14740   0.154E+00    0.598E-01
DAV:   8    -0.694769595550E+03    0.75153E-02   -0.32910E-02 14380   0.553E-01    0.312E-01
DAV:   9    -0.694763419194E+03    0.61764E-02   -0.16476E-02 13668   0.355E-01    0.185E-01
DAV:  10    -0.694761167043E+03    0.22522E-02   -0.39438E-03 16164   0.238E-01    0.731E-02
DAV:  11    -0.694760200676E+03    0.96637E-03   -0.19134E-03 13892   0.138E-01    0.644E-02
DAV:  12    -0.694759641989E+03    0.55869E-03   -0.38455E-04 13060   0.989E-02    0.321E-02
DAV:  13    -0.694759375853E+03    0.26614E-03   -0.39916E-04 12804   0.983E-02    0.235E-02
DAV:  14    -0.694759361172E+03    0.14681E-04   -0.27303E-04 12636   0.486E-02
   4816 T=   287. E= -.69778167E+03 F= -.70313294E+03 E0= -.70313294E+03  EK= 0.53513E+01 SP= 0.00E+00 SK= 0.00E+00
   4817 T=   294. E= -.69781281E+03 F= -.70328780E+03 E0= -.70328780E+03  EK= 0.54750E+01 SP= 0.00E+00 SK= 0.00E+00
   4818 T=   300. E= -.69786042E+03 F= -.70344709E+03 E0= -.70344709E+03  EK= 0.55867E+01 SP= 0.00E+00 SK= 0.00E+00
   4819 T=   307. E= -.69785138E+03 F= -.70356136E+03 E0= -.70356136E+03  EK= 0.57100E+01 SP= 0.00E+00 SK= 0.00E+00
   4820 T=   315. E= -.69769185E+03 F= -.70355553E+03 E0= -.70355553E+03  EK= 0.58637E+01 SP= 0.00E+00 SK= 0.00E+00
   4821 T=   310. E= -.69764633E+03 F= -.70341414E+03 E0= -.70341414E+03  EK= 0.57678E+01 SP= 0.00E+00 SK= 0.00E+00
   4822 T=   299. E= -.69768921E+03 F= -.70325309E+03 E0= -.70325309E+03  EK= 0.55639E+01 SP= 0.00E+00 SK= 0.00E+00
   4823 T=   296. E= -.69765015E+03 F= -.70315122E+03 E0= -.70315122E+03  EK= 0.55011E+01 SP= 0.00E+00 SK= 0.00E+00
   4824 T=   304. E= -.69753274E+03 F= -.70318244E+03 E0= -.70318244E+03  EK= 0.56497E+01 SP= 0.00E+00 SK= 0.00E+00
   4825 T=   315. E= -.69746711E+03 F= -.70333950E+03 E0= -.70333950E+03  EK= 0.58724E+01 SP= 0.00E+00 SK= 0.00E+00
       N       E                     dE             d eps       ncg     rms          rms(c)
DAV:   1    -0.688995309139E+03    0.57641E+01   -0.25074E+03 12190   0.113E+02
DAV:   2    -0.696164500270E+03   -0.71692E+01   -0.71672E+01 14580   0.172E+01
DAV:   3    -0.696237479606E+03   -0.72979E-01   -0.72974E-01 14708   0.182E+00
DAV:   4    -0.696239133496E+03   -0.16539E-02   -0.16538E-02 14548   0.259E-01    0.984E+00
DAV:   5    -0.695187867354E+03    0.10513E+01   -0.21489E+00 15292   0.439E+00    0.524E+00
DAV:   6    -0.695078525247E+03    0.10934E+00   -0.13486E+00 14620   0.297E+00    0.174E+00
DAV:   7    -0.695093061612E+03   -0.14536E-01   -0.29489E-01 14220   0.163E+00    0.616E-01
DAV:   8    -0.695088948960E+03    0.41127E-02   -0.34918E-02 13988   0.549E-01    0.327E-01
DAV:   9    -0.695085987921E+03    0.29610E-02   -0.16912E-02 13716   0.313E-01    0.188E-01
DAV:  10    -0.695084353409E+03    0.16345E-02   -0.32052E-03 17244   0.226E-01    0.583E-02
DAV:  11    -0.695083941729E+03    0.41168E-03   -0.16001E-03 13932   0.116E-01    0.541E-02
DAV:  12    -0.695083624053E+03    0.31768E-03   -0.17542E-04 10204   0.639E-02    0.256E-02
DAV:  13    -0.695083453664E+03    0.17039E-03   -0.35355E-04 12236   0.769E-02    0.260E-02
DAV:  14    -0.695083436508E+03    0.17156E-04   -0.14886E-04 10316   0.404E-02
   4826 T=   330. E= -.69730163E+03 F= -.70344404E+03 E0= -.70344404E+03  EK= 0.61424E+01 SP= 0.00E+00 SK= 0.00E+00
   4827 T=   345. E= -.69729605E+03 F= -.70372532E+03 E0= -.70372532E+03  EK= 0.64293E+01 SP= 0.00E+00 SK= 0.00E+00
   4828 T=   352. E= -.69719407E+03 F= -.70374290E+03 E0= -.70374290E+03  EK= 0.65488E+01 SP= 0.00E+00 SK= 0.00E+00
   4829 T=   343. E= -.69720220E+03 F= -.70359487E+03 E0= -.70359487E+03  EK= 0.63927E+01 SP= 0.00E+00 SK= 0.00E+00
   4830 T=   324. E= -.69734327E+03 F= -.70337718E+03 E0= -.70337718E+03  EK= 0.60339E+01 SP= 0.00E+00 SK= 0.00E+00
   4831 T=   308. E= -.69745703E+03 F= -.70318785E+03 E0= -.70318785E+03  EK= 0.57308E+01 SP= 0.00E+00 SK= 0.00E+00
   4832 T=   298. E= -.69755595E+03 F= -.70310582E+03 E0= -.70310582E+03  EK= 0.55499E+01 SP= 0.00E+00 SK= 0.00E+00
   4833 T=   302. E= -.69758401E+03 F= -.70321133E+03 E0= -.70321133E+03  EK= 0.56273E+01 SP= 0.00E+00 SK= 0.00E+00
   4834 T=   313. E= -.69754276E+03 F= -.70336625E+03 E0= -.70336625E+03  EK= 0.58235E+01 SP= 0.00E+00 SK= 0.00E+00
   4835 T=   316. E= -.69754407E+03 F= -.70342385E+03 E0= -.70342385E+03  EK= 0.58798E+01 SP= 0.00E+00 SK= 0.00E+00
       N       E                     dE             d eps       ncg     rms          rms(c)
DAV:   1    -0.688834625008E+03    0.62488E+01   -0.25896E+03 12190   0.115E+02
DAV:   2    -0.695908395983E+03   -0.70738E+01   -0.70717E+01 14404   0.171E+01
DAV:   3    -0.695979753047E+03   -0.71357E-01   -0.71352E-01 14644   0.180E+00
DAV:   4    -0.695981331513E+03   -0.15785E-02   -0.15784E-02 14452   0.255E-01    0.981E+00
DAV:   5    -0.694998710733E+03    0.98262E+00   -0.21743E+00 14900   0.436E+00    0.525E+00
DAV:   6    -0.694913467963E+03    0.85243E-01   -0.13124E+00 14636   0.290E+00    0.176E+00
DAV:   7    -0.694922408056E+03   -0.89401E-02   -0.25859E-01 14100   0.151E+00    0.582E-01
DAV:   8    -0.694917276192E+03    0.51319E-02   -0.30821E-02 14052   0.527E-01    0.299E-01
DAV:   9    -0.694913044934E+03    0.42313E-02   -0.14649E-02 13628   0.312E-01    0.169E-01
DAV:  10    -0.694911408913E+03    0.16360E-02   -0.28521E-03 16268   0.204E-01    0.626E-02
DAV:  11    -0.694910822533E+03    0.58638E-03   -0.15840E-03 13780   0.118E-01    0.581E-02
DAV:  12    -0.694910426659E+03    0.39587E-03   -0.25001E-04 11132   0.784E-02    0.267E-02
DAV:  13    -0.694910226717E+03    0.19994E-03   -0.33364E-04 12268   0.815E-02    0.235E-02
DAV:  14    -0.694910209326E+03    0.17391E-04   -0.15997E-04 10308   0.417E-02
   4836 T=   314. E= -.69744244E+03 F= -.70328722E+03 E0= -.70328722E+03  EK= 0.58448E+01 SP= 0.00E+00 SK= 0.00E+00
   4837 T=   306. E= -.69752904E+03 F= -.70321713E+03 E0= -.70321713E+03  EK= 0.56881E+01 SP= 0.00E+00 SK= 0.00E+00
   4838 T=   300. E= -.69755149E+03 F= -.70312626E+03 E0= -.70312626E+03  EK= 0.55748E+01 SP= 0.00E+00 SK= 0.00E+00
   4839 T=   301. E= -.69751973E+03 F= -.70312485E+03 E0= -.70312485E+03  EK= 0.56051E+01 SP= 0.00E+00 SK= 0.00E+00
   4840 T=   308. E= -.69748263E+03 F= -.70321762E+03 E0= -.70321762E+03  EK= 0.57350E+01 SP= 0.00E+00 SK= 0.00E+00
   4841 T=   316. E= -.69750575E+03 F= -.70339072E+03 E0= -.70339072E+03  EK= 0.58850E+01 SP= 0.00E+00 SK= 0.00E+00
   4842 T=   323. E= -.69754920E+03 F= -.70355737E+03 E0= -.70355737E+03  EK= 0.60082E+01 SP= 0.00E+00 SK= 0.00E+00
   4843 T=   329. E= -.69755031E+03 F= -.70368215E+03 E0= -.70368215E+03  EK= 0.61318E+01 SP= 0.00E+00 SK= 0.00E+00
   4844 T=   329. E= -.69757965E+03 F= -.70369677E+03 E0= -.70369677E+03  EK= 0.61171E+01 SP= 0.00E+00 SK= 0.00E+00
   4845 T=   322. E= -.69760353E+03 F= -.70359063E+03 E0= -.70359063E+03  EK= 0.59871E+01 SP= 0.00E+00 SK= 0.00E+00
       N       E                     dE             d eps       ncg     rms          rms(c)
DAV:   1    -0.686593333602E+03    0.83169E+01   -0.30684E+03 12190   0.124E+02
DAV:   2    -0.696362405800E+03   -0.97691E+01   -0.97658E+01 14388   0.196E+01
DAV:   3    -0.696464322033E+03   -0.10192E+00   -0.10191E+00 14636   0.214E+00
DAV:   4    -0.696466592826E+03   -0.22708E-02   -0.22707E-02 14420   0.301E-01    0.103E+01
DAV:   5    -0.695160725143E+03    0.13059E+01   -0.25204E+00 15356   0.474E+00    0.544E+00
DAV:   6    -0.695002861663E+03    0.15786E+00   -0.16620E+00 14692   0.327E+00    0.181E+00
DAV:   7    -0.695016902983E+03   -0.14041E-01   -0.31475E-01 14132   0.163E+00    0.638E-01
DAV:   8    -0.695012444615E+03    0.44584E-02   -0.34103E-02 14476   0.580E-01    0.302E-01
DAV:   9    -0.695009050503E+03    0.33941E-02   -0.12007E-02 13764   0.305E-01    0.157E-01
DAV:  10    -0.695007413003E+03    0.16375E-02   -0.27340E-03 16196   0.220E-01    0.555E-02
DAV:  11    -0.695006887355E+03    0.52565E-03   -0.13115E-03 14116   0.119E-01    0.502E-02
DAV:  12    -0.695006368268E+03    0.51909E-03   -0.22521E-04 11108   0.106E-01    0.188E-02
DAV:  13    -0.695006217018E+03    0.15125E-03   -0.44877E-04 13204   0.999E-02    0.296E-02
DAV:  14    -0.695006210844E+03    0.61742E-05   -0.34180E-04 13924   0.531E-02
   4846 T=   310. E= -.69758707E+03 F= -.70336231E+03 E0= -.70336231E+03  EK= 0.57752E+01 SP= 0.00E+00 SK= 0.00E+00
   4847 T=   300. E= -.69761392E+03 F= -.70320524E+03 E0= -.70320524E+03  EK= 0.55913E+01 SP= 0.00E+00 SK= 0.00E+00
   4848 T=   297. E= -.69766088E+03 F= -.70318255E+03 E0= -.70318255E+03  EK= 0.55217E+01 SP= 0.00E+00 SK= 0.00E+00
   4849 T=   304. E= -.69769513E+03 F= -.70335450E+03 E0= -.70335450E+03  EK= 0.56594E+01 SP= 0.00E+00 SK= 0.00E+00
   4850 T=   315. E= -.69770556E+03 F= -.70356092E+03 E0= -.70356092E+03  EK= 0.58554E+01 SP= 0.00E+00 SK= 0.00E+00
   4851 T=   317. E= -.69771007E+03 F= -.70361986E+03 E0= -.70361986E+03  EK= 0.59098E+01 SP= 0.00E+00 SK= 0.00E+00
   4852 T=   314. E= -.69768279E+03 F= -.70353155E+03 E0= -.70353155E+03  EK= 0.58488E+01 SP= 0.00E+00 SK= 0.00E+00
   4853 T=   305. E= -.69766752E+03 F= -.70334963E+03 E0= -.70334963E+03  EK= 0.56821E+01 SP= 0.00E+00 SK= 0.00E+00
   4854 T=   293. E= -.69771231E+03 F= -.70315973E+03 E0= -.70315973E+03  EK= 0.54474E+01 SP= 0.00E+00 SK= 0.00E+00
   4855 T=   284. E= -.69776337E+03 F= -.70304624E+03 E0= -.70304624E+03  EK= 0.52829E+01 SP= 0.00E+00 SK= 0.00E+00
       N       E                     dE             d eps       ncg     rms          rms(c)
DAV:   1    -0.689165798875E+03    0.58404E+01   -0.24274E+03 12190   0.112E+02
DAV:   2    -0.695961542059E+03   -0.67957E+01   -0.67937E+01 14412   0.169E+01
DAV:   3    -0.696031358178E+03   -0.69816E-01   -0.69811E-01 14644   0.179E+00
DAV:   4    -0.696032908557E+03   -0.15504E-02   -0.15503E-02 14452   0.255E-01    0.995E+00
DAV:   5    -0.694836565489E+03    0.11963E+01   -0.22657E+00 15252   0.483E+00    0.529E+00
DAV:   6    -0.694669739329E+03    0.16683E+00   -0.16264E+00 14740   0.362E+00    0.178E+00
DAV:   7    -0.694666510673E+03    0.32287E-02   -0.34686E-01 14388   0.172E+00    0.660E-01
DAV:   8    -0.694656914570E+03    0.95961E-02   -0.35313E-02 14404   0.579E-01    0.308E-01
DAV:   9    -0.694650094758E+03    0.68198E-02   -0.13127E-02 13956   0.378E-01    0.161E-01
DAV:  10    -0.694647177889E+03    0.29169E-02   -0.41975E-03 16388   0.279E-01    0.661E-02
DAV:  11    -0.694646080465E+03    0.10974E-02   -0.18887E-03 14212   0.177E-01    0.643E-02
DAV:  12    -0.694645379359E+03    0.70111E-03   -0.67730E-04 14348   0.153E-01    0.270E-02
DAV:  13    -0.694645242062E+03    0.13730E-03   -0.65189E-04 14516   0.106E-01    0.388E-02
DAV:  14    -0.694645218852E+03    0.23210E-04   -0.30841E-04 12644   0.480E-02
   4856 T=   283. E= -.69773393E+03 F= -.70300000E+03 E0= -.70300000E+03  EK= 0.52661E+01 SP= 0.00E+00 SK= 0.00E+00
   4857 T=   291. E= -.69774966E+03 F= -.70317041E+03 E0= -.70317041E+03  EK= 0.54207E+01 SP= 0.00E+00 SK= 0.00E+00
   4858 T=   305. E= -.69765440E+03 F= -.70332609E+03 E0= -.70332609E+03  EK= 0.56717E+01 SP= 0.00E+00 SK= 0.00E+00
   4859 T=   321. E= -.69747549E+03 F= -.70344174E+03 E0= -.70344174E+03  EK= 0.59663E+01 SP= 0.00E+00 SK= 0.00E+00
   4860 T=   331. E= -.69731519E+03 F= -.70346740E+03 E0= -.70346740E+03  EK= 0.61522E+01 SP= 0.00E+00 SK= 0.00E+00
   4861 T=   328. E= -.69728868E+03 F= -.70338738E+03 E0= -.70338738E+03  EK= 0.60987E+01 SP= 0.00E+00 SK= 0.00E+00
   4862 T=   317. E= -.69732558E+03 F= -.70322966E+03 E0= -.70322966E+03  EK= 0.59041E+01 SP= 0.00E+00 SK= 0.00E+00
   4863 T=   311. E= -.69733650E+03 F= -.70312099E+03 E0= -.70312099E+03  EK= 0.57845E+01 SP= 0.00E+00 SK= 0.00E+00
   4864 T=   318. E= -.69728644E+03 F= -.70320236E+03 E0= -.70320236E+03  EK= 0.59159E+01 SP= 0.00E+00 SK= 0.00E+00
   4865 T=   332. E= -.69725160E+03 F= -.70342685E+03 E0= -.70342685E+03  EK= 0.61752E+01 SP= 0.00E+00 SK= 0.00E+00
       N       E                     dE             d eps       ncg     rms          rms(c)
DAV:   1    -0.690366198890E+03    0.42790E+01   -0.22071E+03 12190   0.107E+02
DAV:   2    -0.696232150011E+03   -0.58660E+01   -0.58642E+01 14436   0.156E+01
DAV:   3    -0.696293621238E+03   -0.61471E-01   -0.61467E-01 14652   0.167E+00
DAV:   4    -0.696295028459E+03   -0.14072E-02   -0.14072E-02 14484   0.240E-01    0.961E+00
DAV:   5    -0.695364681000E+03    0.93035E+00   -0.18747E+00 15084   0.445E+00    0.522E+00
DAV:   6    -0.695263549348E+03    0.10113E+00   -0.13365E+00 14756   0.336E+00    0.172E+00
DAV:   7    -0.695267907127E+03   -0.43578E-02   -0.31518E-01 14476   0.171E+00    0.623E-01
DAV:   8    -0.695259876632E+03    0.80305E-02   -0.36553E-02 14364   0.569E-01    0.331E-01
DAV:   9    -0.695252824934E+03    0.70517E-02   -0.15554E-02 13972   0.400E-01    0.179E-01
DAV:  10    -0.695249847470E+03    0.29775E-02   -0.40524E-03 16516   0.295E-01    0.806E-02
DAV:  11    -0.695248489727E+03    0.13577E-02   -0.31473E-03 14108   0.230E-01    0.829E-02
DAV:  12    -0.695247783687E+03    0.70604E-03   -0.13541E-03 15268   0.165E-01    0.434E-02
DAV:  13    -0.695247517184E+03    0.26650E-03   -0.52267E-04 13980   0.991E-02    0.336E-02
DAV:  14    -0.695247437963E+03    0.79221E-04   -0.15387E-04 10236   0.694E-02
   4866 T=   345. E= -.69716800E+03 F= -.70359050E+03 E0= -.70359050E+03  EK= 0.64225E+01 SP= 0.00E+00 SK= 0.00E+00
   4867 T=   346. E= -.69724854E+03 F= -.70369668E+03 E0= -.70369668E+03  EK= 0.64481E+01 SP= 0.00E+00 SK= 0.00E+00
   4868 T=   339. E= -.69731743E+03 F= -.70362760E+03 E0= -.70362760E+03  EK= 0.63102E+01 SP= 0.00E+00 SK= 0.00E+00
   4869 T=   332. E= -.69732507E+03 F= -.70350522E+03 E0= -.70350522E+03  EK= 0.61801E+01 SP= 0.00E+00 SK= 0.00E+00
   4870 T=   326. E= -.69736867E+03 F= -.70343147E+03 E0= -.70343147E+03  EK= 0.60628E+01 SP= 0.00E+00 SK= 0.00E+00
   4871 T=   322. E= -.69745249E+03 F= -.70344199E+03 E0= -.70344199E+03  EK= 0.59895E+01 SP= 0.00E+00 SK= 0.00E+00
   4872 T=   324. E= -.69749411E+03 F= -.70351624E+03 E0= -.70351624E+03  EK= 0.60221E+01 SP= 0.00E+00 SK= 0.00E+00
   4873 T=   327. E= -.69755505E+03 F= -.70363851E+03 E0= -.70363851E+03  EK= 0.60835E+01 SP= 0.00E+00 SK= 0.00E+00
   4874 T=   334. E= -.69750650E+03 F= -.70372550E+03 E0= -.70372550E+03  EK= 0.62190E+01 SP= 0.00E+00 SK= 0.00E+00
   4875 T=   342. E= -.69734396E+03 F= -.70370836E+03 E0= -.70370836E+03  EK= 0.63644E+01 SP= 0.00E+00 SK= 0.00E+00
       N       E                     dE             d eps       ncg     rms          rms(c)
DAV:   1    -0.688040688470E+03    0.72068E+01   -0.29756E+03 12190   0.123E+02
DAV:   2    -0.696503906395E+03   -0.84632E+01   -0.84604E+01 14460   0.187E+01
DAV:   3    -0.696594239659E+03   -0.90333E-01   -0.90325E-01 14644   0.202E+00
DAV:   4    -0.696596305490E+03   -0.20658E-02   -0.20657E-02 14484   0.288E-01    0.102E+01
DAV:   5    -0.695382416691E+03    0.12139E+01   -0.22995E+00 15044   0.455E+00    0.550E+00
DAV:   6    -0.695246144343E+03    0.13627E+00   -0.16970E+00 14668   0.326E+00    0.173E+00
DAV:   7    -0.695264574076E+03   -0.18430E-01   -0.31161E-01 14084   0.161E+00    0.645E-01
DAV:   8    -0.695260982848E+03    0.35912E-02   -0.33065E-02 13972   0.546E-01    0.315E-01
DAV:   9    -0.695258718456E+03    0.22644E-02   -0.13874E-02 13620   0.306E-01    0.177E-01
DAV:  10    -0.695257416564E+03    0.13019E-02   -0.29131E-03 16780   0.208E-01    0.517E-02
DAV:  11    -0.695257155683E+03    0.26088E-03   -0.11899E-03 13884   0.978E-02    0.430E-02
DAV:  12    -0.695256881772E+03    0.27391E-03   -0.11681E-04  9828   0.729E-02    0.185E-02
DAV:  13    -0.695256777866E+03    0.10391E-03   -0.28236E-04 11620   0.777E-02    0.229E-02
DAV:  14    -0.695256762752E+03    0.15114E-04   -0.15108E-04 10412   0.413E-02
   4876 T=   342. E= -.69724486E+03 F= -.70361056E+03 E0= -.70361056E+03  EK= 0.63657E+01 SP= 0.00E+00 SK= 0.00E+00
   4877 T=   341. E= -.69711131E+03 F= -.70346773E+03 E0= -.70346773E+03  EK= 0.63564E+01 SP= 0.00E+00 SK= 0.00E+00
   4878 T=   333. E= -.69712985E+03 F= -.70333647E+03 E0= -.70333647E+03  EK= 0.62066E+01 SP= 0.00E+00 SK= 0.00E+00
   4879 T=   322. E= -.69730173E+03 F= -.70328913E+03 E0= -.70328913E+03  EK= 0.59874E+01 SP= 0.00E+00 SK= 0.00E+00
   4880 T=   322. E= -.69732710E+03 F= -.70331417E+03 E0= -.70331417E+03  EK= 0.59871E+01 SP= 0.00E+00 SK= 0.00E+00
   4881 T=   329. E= -.69730234E+03 F= -.70341882E+03 E0= -.70341882E+03  EK= 0.61165E+01 SP= 0.00E+00 SK= 0.00E+00
   4882 T=   331. E= -.69731973E+03 F= -.70348621E+03 E0= -.70348621E+03  EK= 0.61665E+01 SP= 0.00E+00 SK= 0.00E+00
   4883 T=   326. E= -.69738563E+03 F= -.70344959E+03 E0= -.70344959E+03  EK= 0.60640E+01 SP= 0.00E+00 SK= 0.00E+00
   4884 T=   310. E= -.69755343E+03 F= -.70331713E+03 E0= -.70331713E+03  EK= 0.57637E+01 SP= 0.00E+00 SK= 0.00E+00
   4885 T=   300. E= -.69760380E+03 F= -.70318224E+03 E0= -.70318224E+03  EK= 0.55784E+01 SP= 0.00E+00 SK= 0.00E+00
       N       E                     dE             d eps       ncg     rms          rms(c)
DAV:   1    -0.687009905246E+03    0.82469E+01   -0.29295E+03 12190   0.121E+02
DAV:   2    -0.695904293455E+03   -0.88944E+01   -0.88915E+01 14460   0.189E+01
DAV:   3    -0.695995865537E+03   -0.91572E-01   -0.91564E-01 14660   0.205E+00
DAV:   4    -0.695997869036E+03   -0.20035E-02   -0.20034E-02 14516   0.288E-01    0.104E+01
DAV:   5    -0.694851912492E+03    0.11460E+01   -0.22487E+00 15268   0.453E+00    0.555E+00
DAV:   6    -0.694742305207E+03    0.10961E+00   -0.16098E+00 14620   0.316E+00    0.173E+00
DAV:   7    -0.694767968752E+03   -0.25664E-01   -0.28602E-01 14204   0.151E+00    0.629E-01
DAV:   8    -0.694766027493E+03    0.19413E-02   -0.27175E-02 14156   0.493E-01    0.307E-01
DAV:   9    -0.694764585084E+03    0.14424E-02   -0.12088E-02 13724   0.286E-01    0.160E-01
DAV:  10    -0.694763605481E+03    0.97960E-03   -0.26614E-03 16348   0.194E-01    0.440E-02
DAV:  11    -0.694763434008E+03    0.17147E-03   -0.88262E-04 13924   0.775E-02    0.385E-02
DAV:  12    -0.694763205965E+03    0.22804E-03   -0.11670E-04  9812   0.629E-02    0.131E-02
DAV:  13    -0.694763145228E+03    0.60737E-04   -0.20928E-04 11044   0.561E-02
   4886 T=   297. E= -.69759534E+03 F= -.70312945E+03 E0= -.70312945E+03  EK= 0.55341E+01 SP= 0.00E+00 SK= 0.00E+00
   4887 T=   300. E= -.69764448E+03 F= -.70321925E+03 E0= -.70321925E+03  EK= 0.55748E+01 SP= 0.00E+00 SK= 0.00E+00
   4888 T=   306. E= -.69766214E+03 F= -.70335821E+03 E0= -.70335821E+03  EK= 0.56961E+01 SP= 0.00E+00 SK= 0.00E+00
   4889 T=   315. E= -.69762988E+03 F= -.70348537E+03 E0= -.70348537E+03  EK= 0.58555E+01 SP= 0.00E+00 SK= 0.00E+00
   4890 T=   315. E= -.69764162E+03 F= -.70350450E+03 E0= -.70350450E+03  EK= 0.58629E+01 SP= 0.00E+00 SK= 0.00E+00
   4891 T=   304. E= -.69776667E+03 F= -.70342989E+03 E0= -.70342989E+03  EK= 0.56632E+01 SP= 0.00E+00 SK= 0.00E+00
   4892 T=   295. E= -.69784739E+03 F= -.70334158E+03 E0= -.70334158E+03  EK= 0.54942E+01 SP= 0.00E+00 SK= 0.00E+00
   4893 T=   293. E= -.69783617E+03 F= -.70328198E+03 E0= -.70328198E+03  EK= 0.54458E+01 SP= 0.00E+00 SK= 0.00E+00
   4894 T=   290. E= -.69788633E+03 F= -.70329052E+03 E0= -.70329052E+03  EK= 0.54042E+01 SP= 0.00E+00 SK= 0.00E+00
   4895 T=   294. E= -.69797084E+03 F= -.70344510E+03 E0= -.70344510E+03  EK= 0.54743E+01 SP= 0.00E+00 SK= 0.00E+00
   4896 T=   305. E= -.69798449E+03 F= -.70366517E+03 E0= -.70366517E+03  EK= 0.56807E+01 SP= 0.00E+00 SK= 0.00E+00
   4897 T=   317. E= -.69795632E+03 F= -.70386316E+03 E0= -.70386316E+03  EK= 0.59068E+01 SP= 0.00E+00 SK= 0.00E+00
   4898 T=   327. E= -.69790505E+03 F= -.70398826E+03 E0= -.70398826E+03  EK= 0.60832E+01 SP= 0.00E+00 SK= 0.00E+00
   4899 T=   326. E= -.69792976E+03 F= -.70400704E+03 E0= -.70400704E+03  EK= 0.60773E+01 SP= 0.00E+00 SK= 0.00E+00
   4900 T=   319. E= -.69804319E+03 F= -.70397455E+03 E0= -.70397455E+03  EK= 0.59314E+01 SP= 0.00E+00 SK= 0.00E+00
   4901 T=   309. E= -.69810083E+03 F= -.70384905E+03 E0= -.70384905E+03  EK= 0.57482E+01 SP= 0.00E+00 SK= 0.00E+00
   4902 T=   303. E= -.69808783E+03 F= -.70373185E+03 E0= -.70373185E+03  EK= 0.56440E+01 SP= 0.00E+00 SK= 0.00E+00
   4903 T=   306. E= -.69804087E+03 F= -.70373185E+03 E0= -.70373185E+03  EK= 0.56910E+01 SP= 0.00E+00 SK= 0.00E+00
   4904 T=   313. E= -.69804001E+03 F= -.70386969E+03 E0= -.70386969E+03  EK= 0.58297E+01 SP= 0.00E+00 SK= 0.00E+00
   4905 T=   328. E= -.69802980E+03 F= -.70413821E+03 E0= -.70413821E+03  EK= 0.61084E+01 SP= 0.00E+00 SK= 0.00E+00
   4906 T=   343. E= -.69801191E+03 F= -.70439453E+03 E0= -.70439453E+03  EK= 0.63826E+01 SP= 0.00E+00 SK= 0.00E+00
   4907 T=   347. E= -.69806320E+03 F= -.70451539E+03 E0= -.70451539E+03  EK= 0.64522E+01 SP= 0.00E+00 SK= 0.00E+00
   4908 T=   341. E= -.69812061E+03 F= -.70447523E+03 E0= -.70447523E+03  EK= 0.63546E+01 SP= 0.00E+00 SK= 0.00E+00
   4909 T=   326. E= -.69819606E+03 F= -.70426516E+03 E0= -.70426516E+03  EK= 0.60691E+01 SP= 0.00E+00 SK= 0.00E+00
   4910 T=   306. E= -.69829415E+03 F= -.70398864E+03 E0= -.70398864E+03  EK= 0.56945E+01 SP= 0.00E+00 SK= 0.00E+00
   4911 T=   293. E= -.69831103E+03 F= -.70376191E+03 E0= -.70376191E+03  EK= 0.54509E+01 SP= 0.00E+00 SK= 0.00E+00
   4912 T=   288. E= -.69830792E+03 F= -.70366606E+03 E0= -.70366606E+03  EK= 0.53581E+01 SP= 0.00E+00 SK= 0.00E+00
   4913 T=   289. E= -.69833509E+03 F= -.70370764E+03 E0= -.70370764E+03  EK= 0.53725E+01 SP= 0.00E+00 SK= 0.00E+00
   4914 T=   304. E= -.69823101E+03 F= -.70388396E+03 E0= -.70388396E+03  EK= 0.56530E+01 SP= 0.00E+00 SK= 0.00E+00
   4915 T=   315. E= -.69823244E+03 F= -.70409672E+03 E0= -.70409672E+03  EK= 0.58643E+01 SP= 0.00E+00 SK= 0.00E+00
   4916 T=   313. E= -.69834273E+03 F= -.70416605E+03 E0= -.70416605E+03  EK= 0.58233E+01 SP= 0.00E+00 SK= 0.00E+00
   4917 T=   302. E= -.69833989E+03 F= -.70396123E+03 E0= -.70396123E+03  EK= 0.56213E+01 SP= 0.00E+00 SK= 0.00E+00
   4918 T=   286. E= -.69829203E+03 F= -.70362443E+03 E0= -.70362443E+03  EK= 0.53324E+01 SP= 0.00E+00 SK= 0.00E+00
   4919 T=   272. E= -.69827661E+03 F= -.70333376E+03 E0= -.70333376E+03  EK= 0.50571E+01 SP= 0.00E+00 SK= 0.00E+00
   4920 T=   268. E= -.69826651E+03 F= -.70326113E+03 E0= -.70326113E+03  EK= 0.49946E+01 SP= 0.00E+00 SK= 0.00E+00
   4921 T=   279. E= -.69822343E+03 F= -.70341145E+03 E0= -.70341145E+03  EK= 0.51880E+01 SP= 0.00E+00 SK= 0.00E+00
   4922 T=   291. E= -.69818058E+03 F= -.70359476E+03 E0= -.70359476E+03  EK= 0.54142E+01 SP= 0.00E+00 SK= 0.00E+00
   4923 T=   303. E= -.69811591E+03 F= -.70376310E+03 E0= -.70376310E+03  EK= 0.56472E+01 SP= 0.00E+00 SK= 0.00E+00
   4924 T=   309. E= -.69807847E+03 F= -.70382129E+03 E0= -.70382129E+03  EK= 0.57428E+01 SP= 0.00E+00 SK= 0.00E+00
   4925 T=   302. E= -.69810797E+03 F= -.70372568E+03 E0= -.70372568E+03  EK= 0.56177E+01 SP= 0.00E+00 SK= 0.00E+00
   4926 T=   288. E= -.69817754E+03 F= -.70352976E+03 E0= -.70352976E+03  EK= 0.53522E+01 SP= 0.00E+00 SK= 0.00E+00
   4927 T=   277. E= -.69820321E+03 F= -.70335575E+03 E0= -.70335575E+03  EK= 0.51525E+01 SP= 0.00E+00 SK= 0.00E+00
   4928 T=   274. E= -.69816453E+03 F= -.70326312E+03 E0= -.70326312E+03  EK= 0.50986E+01 SP= 0.00E+00 SK= 0.00E+00
   4929 T=   282. E= -.69809817E+03 F= -.70333998E+03 E0= -.70333998E+03  EK= 0.52418E+01 SP= 0.00E+00 SK= 0.00E+00
   4930 T=   297. E= -.69811461E+03 F= -.70364717E+03 E0= -.70364717E+03  EK= 0.55326E+01 SP= 0.00E+00 SK= 0.00E+00
   4931 T=   318. E= -.69811806E+03 F= -.70403003E+03 E0= -.70403003E+03  EK= 0.59120E+01 SP= 0.00E+00 SK= 0.00E+00
   4932 T=   332. E= -.69805931E+03 F= -.70424460E+03 E0= -.70424460E+03  EK= 0.61853E+01 SP= 0.00E+00 SK= 0.00E+00
   4933 T=   331. E= -.69797867E+03 F= -.70413660E+03 E0= -.70413660E+03  EK= 0.61579E+01 SP= 0.00E+00 SK= 0.00E+00
   4934 T=   315. E= -.69797673E+03 F= -.70383775E+03 E0= -.70383775E+03  EK= 0.58610E+01 SP= 0.00E+00 SK= 0.00E+00
   4935 T=   299. E= -.69802118E+03 F= -.70359484E+03 E0= -.70359484E+03  EK= 0.55737E+01 SP= 0.00E+00 SK= 0.00E+00
   4936 T=   297. E= -.69805995E+03 F= -.70358006E+03 E0= -.70358006E+03  EK= 0.55201E+01 SP= 0.00E+00 SK= 0.00E+00
   4937 T=   302. E= -.69808495E+03 F= -.70370894E+03 E0= -.70370894E+03  EK= 0.56240E+01 SP= 0.00E+00 SK= 0.00E+00
   4938 T=   312. E= -.69804223E+03 F= -.70384420E+03 E0= -.70384420E+03  EK= 0.58020E+01 SP= 0.00E+00 SK= 0.00E+00
   4939 T=   309. E= -.69804492E+03 F= -.70379813E+03 E0= -.70379813E+03  EK= 0.57532E+01 SP= 0.00E+00 SK= 0.00E+00
   4940 T=   294. E= -.69810842E+03 F= -.70358450E+03 E0= -.70358450E+03  EK= 0.54761E+01 SP= 0.00E+00 SK= 0.00E+00
   4941 T=   284. E= -.69803743E+03 F= -.70332084E+03 E0= -.70332084E+03  EK= 0.52834E+01 SP= 0.00E+00 SK= 0.00E+00
   4942 T=   274. E= -.69798593E+03 F= -.70308782E+03 E0= -.70308782E+03  EK= 0.51019E+01 SP= 0.00E+00 SK= 0.00E+00
   4943 T=   269. E= -.69800275E+03 F= -.70300991E+03 E0= -.70300991E+03  EK= 0.50072E+01 SP= 0.00E+00 SK= 0.00E+00
   4944 T=   278. E= -.69794528E+03 F= -.70312706E+03 E0= -.70312706E+03  EK= 0.51818E+01 SP= 0.00E+00 SK= 0.00E+00
   4945 T=   293. E= -.69792718E+03 F= -.70338076E+03 E0= -.70338076E+03  EK= 0.54536E+01 SP= 0.00E+00 SK= 0.00E+00
   4946 T=   308. E= -.69788503E+03 F= -.70361865E+03 E0= -.70361865E+03  EK= 0.57336E+01 SP= 0.00E+00 SK= 0.00E+00
   4947 T=   316. E= -.69785755E+03 F= -.70373340E+03 E0= -.70373340E+03  EK= 0.58759E+01 SP= 0.00E+00 SK= 0.00E+00
   4948 T=   314. E= -.69787831E+03 F= -.70372346E+03 E0= -.70372346E+03  EK= 0.58451E+01 SP= 0.00E+00 SK= 0.00E+00
   4949 T=   312. E= -.69784351E+03 F= -.70365042E+03 E0= -.70365042E+03  EK= 0.58069E+01 SP= 0.00E+00 SK= 0.00E+00
   4950 T=   314. E= -.69779005E+03 F= -.70362985E+03 E0= -.70362985E+03  EK= 0.58398E+01 SP= 0.00E+00 SK= 0.00E+00
   4951 T=   321. E= -.69778810E+03 F= -.70376211E+03 E0= -.70376211E+03  EK= 0.59740E+01 SP= 0.00E+00 SK= 0.00E+00
   4952 T=   325. E= -.69786802E+03 F= -.70391154E+03 E0= -.70391154E+03  EK= 0.60435E+01 SP= 0.00E+00 SK= 0.00E+00
   4953 T=   327. E= -.69797141E+03 F= -.70406577E+03 E0= -.70406577E+03  EK= 0.60944E+01 SP= 0.00E+00 SK= 0.00E+00
   4954 T=   326. E= -.69811378E+03 F= -.70418660E+03 E0= -.70418660E+03  EK= 0.60728E+01 SP= 0.00E+00 SK= 0.00E+00
   4955 T=   320. E= -.69817582E+03 F= -.70412807E+03 E0= -.70412807E+03  EK= 0.59522E+01 SP= 0.00E+00 SK= 0.00E+00
   4956 T=   313. E= -.69812898E+03 F= -.70394817E+03 E0= -.70394817E+03  EK= 0.58192E+01 SP= 0.00E+00 SK= 0.00E+00
   4957 T=   302. E= -.69811509E+03 F= -.70374071E+03 E0= -.70374071E+03  EK= 0.56256E+01 SP= 0.00E+00 SK= 0.00E+00
   4958 T=   296. E= -.69813679E+03 F= -.70365249E+03 E0= -.70365249E+03  EK= 0.55157E+01 SP= 0.00E+00 SK= 0.00E+00
   4959 T=   301. E= -.69808964E+03 F= -.70368473E+03 E0= -.70368473E+03  EK= 0.55951E+01 SP= 0.00E+00 SK= 0.00E+00
   4960 T=   310. E= -.69805753E+03 F= -.70383060E+03 E0= -.70383060E+03  EK= 0.57731E+01 SP= 0.00E+00 SK= 0.00E+00
   4961 T=   314. E= -.69816443E+03 F= -.70401603E+03 E0= -.70401603E+03  EK= 0.58516E+01 SP= 0.00E+00 SK= 0.00E+00
   4962 T=   315. E= -.69827390E+03 F= -.70414036E+03 E0= -.70414036E+03  EK= 0.58665E+01 SP= 0.00E+00 SK= 0.00E+00
   4963 T=   319. E= -.69825525E+03 F= -.70419901E+03 E0= -.70419901E+03  EK= 0.59438E+01 SP= 0.00E+00 SK= 0.00E+00
   4964 T=   319. E= -.69826346E+03 F= -.70419816E+03 E0= -.70419816E+03  EK= 0.59347E+01 SP= 0.00E+00 SK= 0.00E+00
   4965 T=   320. E= -.69817044E+03 F= -.70413168E+03 E0= -.70413168E+03  EK= 0.59612E+01 SP= 0.00E+00 SK= 0.00E+00
   4966 T=   318. E= -.69812102E+03 F= -.70404451E+03 E0= -.70404451E+03  EK= 0.59235E+01 SP= 0.00E+00 SK= 0.00E+00
   4967 T=   321. E= -.69808540E+03 F= -.70406258E+03 E0= -.70406258E+03  EK= 0.59772E+01 SP= 0.00E+00 SK= 0.00E+00
   4968 T=   331. E= -.69803537E+03 F= -.70419416E+03 E0= -.70419416E+03  EK= 0.61588E+01 SP= 0.00E+00 SK= 0.00E+00
   4969 T=   338. E= -.69801339E+03 F= -.70429636E+03 E0= -.70429636E+03  EK= 0.62830E+01 SP= 0.00E+00 SK= 0.00E+00
   4970 T=   340. E= -.69800132E+03 F= -.70433784E+03 E0= -.70433784E+03  EK= 0.63365E+01 SP= 0.00E+00 SK= 0.00E+00
   4971 T=   334. E= -.69806646E+03 F= -.70428782E+03 E0= -.70428782E+03  EK= 0.62214E+01 SP= 0.00E+00 SK= 0.00E+00
   4972 T=   324. E= -.69816647E+03 F= -.70418834E+03 E0= -.70418834E+03  EK= 0.60219E+01 SP= 0.00E+00 SK= 0.00E+00
   4973 T=   317. E= -.69817397E+03 F= -.70407023E+03 E0= -.70407023E+03  EK= 0.58963E+01 SP= 0.00E+00 SK= 0.00E+00
   4974 T=   316. E= -.69809069E+03 F= -.70397204E+03 E0= -.70397204E+03  EK= 0.58813E+01 SP= 0.00E+00 SK= 0.00E+00
   4975 T=   311. E= -.69810942E+03 F= -.70389370E+03 E0= -.70389370E+03  EK= 0.57843E+01 SP= 0.00E+00 SK= 0.00E+00
   4976 T=   302. E= -.69819358E+03 F= -.70380995E+03 E0= -.70380995E+03  EK= 0.56164E+01 SP= 0.00E+00 SK= 0.00E+00
   4977 T=   297. E= -.69819894E+03 F= -.70373046E+03 E0= -.70373046E+03  EK= 0.55315E+01 SP= 0.00E+00 SK= 0.00E+00
   4978 T=   300. E= -.69810571E+03 F= -.70368120E+03 E0= -.70368120E+03  EK= 0.55755E+01 SP= 0.00E+00 SK= 0.00E+00
   4979 T=   308. E= -.69801070E+03 F= -.70374717E+03 E0= -.70374717E+03  EK= 0.57365E+01 SP= 0.00E+00 SK= 0.00E+00
   4980 T=   314. E= -.69803060E+03 F= -.70387360E+03 E0= -.70387360E+03  EK= 0.58430E+01 SP= 0.00E+00 SK= 0.00E+00
   4981 T=   318. E= -.69811215E+03 F= -.70402963E+03 E0= -.70402963E+03  EK= 0.59175E+01 SP= 0.00E+00 SK= 0.00E+00
   4982 T=   322. E= -.69811673E+03 F= -.70410920E+03 E0= -.70410920E+03  EK= 0.59925E+01 SP= 0.00E+00 SK= 0.00E+00
   4983 T=   322. E= -.69808766E+03 F= -.70408406E+03 E0= -.70408406E+03  EK= 0.59964E+01 SP= 0.00E+00 SK= 0.00E+00
   4984 T=   323. E= -.69798946E+03 F= -.70400601E+03 E0= -.70400601E+03  EK= 0.60165E+01 SP= 0.00E+00 SK= 0.00E+00
   4985 T=   317. E= -.69806524E+03 F= -.70396620E+03 E0= -.70396620E+03  EK= 0.59010E+01 SP= 0.00E+00 SK= 0.00E+00
   4986 T=   310. E= -.69824773E+03 F= -.70401031E+03 E0= -.70401031E+03  EK= 0.57626E+01 SP= 0.00E+00 SK= 0.00E+00
   4987 T=   309. E= -.69838731E+03 F= -.70413046E+03 E0= -.70413046E+03  EK= 0.57432E+01 SP= 0.00E+00 SK= 0.00E+00
   4988 T=   308. E= -.69851990E+03 F= -.70425670E+03 E0= -.70425670E+03  EK= 0.57368E+01 SP= 0.00E+00 SK= 0.00E+00
   4989 T=   307. E= -.69859637E+03 F= -.70431239E+03 E0= -.70431239E+03  EK= 0.57160E+01 SP= 0.00E+00 SK= 0.00E+00
   4990 T=   302. E= -.69866363E+03 F= -.70428853E+03 E0= -.70428853E+03  EK= 0.56249E+01 SP= 0.00E+00 SK= 0.00E+00
   4991 T=   296. E= -.69867215E+03 F= -.70417721E+03 E0= -.70417721E+03  EK= 0.55051E+01 SP= 0.00E+00 SK= 0.00E+00
   4992 T=   291. E= -.69858201E+03 F= -.70400160E+03 E0= -.70400160E+03  EK= 0.54196E+01 SP= 0.00E+00 SK= 0.00E+00
   4993 T=   287. E= -.69849713E+03 F= -.70383320E+03 E0= -.70383320E+03  EK= 0.53361E+01 SP= 0.00E+00 SK= 0.00E+00
   4994 T=   281. E= -.69849724E+03 F= -.70372903E+03 E0= -.70372903E+03  EK= 0.52318E+01 SP= 0.00E+00 SK= 0.00E+00
   4995 T=   282. E= -.69851897E+03 F= -.70376682E+03 E0= -.70376682E+03  EK= 0.52478E+01 SP= 0.00E+00 SK= 0.00E+00
   4996 T=   291. E= -.69852774E+03 F= -.70395017E+03 E0= -.70395017E+03  EK= 0.54224E+01 SP= 0.00E+00 SK= 0.00E+00
   4997 T=   302. E= -.69857889E+03 F= -.70419677E+03 E0= -.70419677E+03  EK= 0.56179E+01 SP= 0.00E+00 SK= 0.00E+00
   4998 T=   309. E= -.69861548E+03 F= -.70437492E+03 E0= -.70437492E+03  EK= 0.57594E+01 SP= 0.00E+00 SK= 0.00E+00
   4999 T=   310. E= -.69865569E+03 F= -.70443150E+03 E0= -.70443150E+03  EK= 0.57758E+01 SP= 0.00E+00 SK= 0.00E+00
   5000 T=   308. E= -.69868689E+03 F= -.70441757E+03 E0= -.70441757E+03  EK= 0.57307E+01 SP= 0.00E+00 SK= 0.00E+00
