H24 O12
1.0
   7.5042206100000000    0.0000000000000000    0.0000000000000005
   0.0000000000000018   12.9976913677255137    0.0000000000000014
   0.0000000000000000    0.0000000000000000   14.1252869600000004
H O
96 48
direct
   0.9583568400000000    0.1653785400000000    0.2392531800000000 H+
   0.9583568400000000    0.1653785400000000    0.7392531800000000 H+
   0.4583568400000000    0.6653785400000001    0.2392531800000000 H+
   0.4583568400000000    0.6653785400000001    0.7392531800000001 H+
   0.7311106100000001    0.0618676900000000    0.4892531800000001 H+
   0.7311106100000001    0.0618676900000000    0.9892531800000001 H+
   0.2311106100000000    0.5618676900000000    0.4892531800000001 H+
   0.2311106100000000    0.5618676900000000    0.9892531800000001 H+
   0.2727537700000001    0.3964891500000000    0.2392531800000000 H+
   0.2727537700000001    0.3964891500000000    0.7392531800000000 H+
   0.7727537700000000    0.8964891500000000    0.2392531800000000 H+
   0.7727537700000000    0.8964891500000000    0.7392531800000001 H+
   0.5416431599999998    0.3346214600000000    0.4892531800000000 H+
   0.5416431599999998    0.3346214600000000    0.9892531800000001 H+
   0.0416431599999998    0.8346214600000000    0.4892531800000000 H+
   0.0416431599999998    0.8346214600000000    0.9892531800000001 H+
   0.7688893900000000    0.4381323100000000    0.2392531800000000 H+
   0.7688893900000000    0.4381323100000000    0.7392531800000000 H+
   0.2688893900000000    0.9381323100000000    0.2392531800000000 H+
   0.2688893900000000    0.9381323100000000    0.7392531800000001 H+
   0.2272462300000000    0.1035108500000000    0.4892531800000000 H+
   0.2272462300000000    0.1035108500000000    0.9892531800000000 H+
   0.7272462300000000    0.6035108500000000    0.4892531800000000 H+
   0.7272462300000000    0.6035108500000000    0.9892531800000000 H+
   0.2688893900000000    0.0618676900000000    0.2392531800000000 H+
   0.2688893900000000    0.0618676900000000    0.7392531800000000 H+
   0.7688893900000000    0.5618676900000000    0.2392531800000000 H+
   0.7688893900000000    0.5618676900000000    0.7392531800000001 H+
   0.7272462300000000    0.3964891500000000    0.4892531800000001 H+
   0.7272462300000000    0.3964891500000000    0.9892531800000001 H+
   0.2272462299999999    0.8964891500000000    0.4892531800000001 H+
   0.2272462299999999    0.8964891500000000    0.9892531800000001 H+
   0.4583568400000000    0.3346214600000000    0.2392531800000000 H+
   0.4583568400000000    0.3346214600000000    0.7392531800000000 H+
   0.9583568399999999    0.8346214600000000    0.2392531800000000 H+
   0.9583568399999999    0.8346214600000000    0.7392531800000001 H+
   0.2311106100000001    0.4381323100000000    0.4892531800000000 H+
   0.2311106100000001    0.4381323100000000    0.9892531800000001 H+
   0.7311106100000001    0.9381323100000000    0.4892531800000000 H+
   0.7311106100000001    0.9381323100000000    0.9892531800000001 H+
   0.7727537699999999    0.1035108500000000    0.2392531800000000 H+
   0.7727537699999999    0.1035108500000000    0.7392531800000000 H+
   0.2727537699999998    0.6035108500000000    0.2392531800000000 H+
   0.2727537699999998    0.6035108500000000    0.7392531800000001 H+
   0.0416431600000000    0.1653785400000000    0.4892531800000000 H+
   0.0416431600000000    0.1653785400000000    0.9892531800000000 H+
   0.5416431600000000    0.6653785400000001    0.4892531800000000 H+
   0.5416431600000000    0.6653785400000001    0.9892531800000000 H+
   0.8319913900000000    0.1680086100000000    0.0980154350000000 H+
   0.8319913900000000    0.1680086100000000    0.5980154350000000 H+
   0.3319913900000000    0.6680086100000001    0.0980154350000000 H+
   0.3319913900000000    0.6680086100000001    0.5980154350000001 H+
   0.6639827800000000    0.0000000000000000    0.3480154350000000 H+
   0.6639827800000000    0.0000000000000000    0.8480154350000001 H+
   0.1639827800000000    0.5000000000000000    0.3480154350000000 H+
   0.1639827800000000    0.5000000000000000    0.8480154350000000 H+
   0.3319913900000000    0.3319913900000000    0.0980154350000000 H+
   0.3319913900000000    0.3319913900000000    0.5980154350000000 H+
   0.8319913899999999    0.8319913900000000    0.0980154350000000 H+
   0.8319913899999999    0.8319913900000000    0.5980154350000000 H+
   0.6680086100000000    0.3319913900000000    0.3480154350000000 H+
   0.6680086100000000    0.3319913900000000    0.8480154350000001 H+
   0.1680086100000000    0.8319913900000000    0.3480154350000000 H+
   0.1680086100000000    0.8319913900000000    0.8480154350000000 H+
   0.3360172200000000    0.0000000000000000    0.0980154350000000 H+
   0.3360172200000000    0.0000000000000000    0.5980154350000000 H+
   0.8360172199999999    0.5000000000000000    0.0980154350000000 H+
   0.8360172199999999    0.5000000000000000    0.5980154350000001 H+
   0.1680086100000000    0.1680086100000000    0.3480154350000000 H+
   0.1680086100000000    0.1680086100000000    0.8480154350000001 H+
   0.6680086100000000    0.6680086100000001    0.3480154350000000 H+
   0.6680086100000000    0.6680086100000001    0.8480154350000000 H+
   0.7697993100000000    0.2302006900000000    0.0056964750000000 H+
   0.7697993100000000    0.2302006900000000    0.5056964750000000 H+
   0.2697993100000000    0.7302006900000001    0.0056964750000000 H+
   0.2697993100000000    0.7302006900000001    0.5056964750000000 H+
   0.5395986200000000    0.0000000000000000    0.2556964750000000 H+
   0.5395986200000000    0.0000000000000000    0.7556964750000000 H+
   0.0395986199999998    0.5000000000000000    0.2556964750000000 H+
   0.0395986199999998    0.5000000000000000    0.7556964750000000 H+
   0.2697993100000000    0.2697993100000000    0.0056964750000000 H+
   0.2697993100000000    0.2697993100000000    0.5056964750000000 H+
   0.7697993100000000    0.7697993100000000    0.0056964750000000 H+
   0.7697993100000000    0.7697993100000000    0.5056964750000000 H+
   0.7302006900000000    0.2697993100000000    0.2556964750000000 H+
   0.7302006900000000    0.2697993100000000    0.7556964750000000 H+
   0.2302006900000000    0.7697993100000000    0.2556964750000000 H+
   0.2302006900000000    0.7697993100000000    0.7556964750000000 H+
   0.4604013800000000    0.0000000000000000    0.0056964750000000 H+
   0.4604013800000000    0.0000000000000000    0.5056964750000000 H+
   0.9604013800000000    0.5000000000000000    0.0056964750000000 H+
   0.9604013800000000    0.5000000000000000    0.5056964750000000 H+
   0.2302006900000000    0.2302006900000000    0.2556964750000000 H+
   0.2302006900000000    0.2302006900000000    0.7556964750000000 H+
   0.7302006899999999    0.7302006900000001    0.2556964750000000 H+
   0.7302006899999999    0.7302006900000001    0.7556964749999999 H+
   0.8337071150000001    0.1662928850000000    0.2152032800000000 O2-
   0.8337071150000001    0.1662928850000000    0.7152032800000000 O2-
   0.3337071149999999    0.6662928849999999    0.2152032800000000 O2-
   0.3337071149999999    0.6662928849999999    0.7152032800000000 O2-
   0.6674142300000000    0.0000000000000000    0.4652032800000000 O2-
   0.6674142300000000    0.0000000000000000    0.9652032799999999 O2-
   0.1674142299999999    0.5000000000000000    0.4652032800000000 O2-
   0.1674142299999999    0.5000000000000000    0.9652032800000000 O2-
   0.3337071150000000    0.3337071150000000    0.2152032800000000 O2-
   0.3337071150000000    0.3337071150000000    0.7152032800000000 O2-
   0.8337071149999999    0.8337071149999999    0.2152032800000000 O2-
   0.8337071149999999    0.8337071149999999    0.7152032800000000 O2-
   0.6662928850000001    0.3337071150000000    0.4652032800000000 O2-
   0.6662928850000001    0.3337071150000000    0.9652032799999999 O2-
   0.1662928850000000    0.8337071149999999    0.4652032800000000 O2-
   0.1662928850000000    0.8337071149999999    0.9652032800000000 O2-
   0.3325857699999999    0.0000000000000000    0.2152032800000000 O2-
   0.3325857699999999    0.0000000000000000    0.7152032800000000 O2-
   0.8325857700000000    0.5000000000000000    0.2152032800000000 O2-
   0.8325857700000000    0.5000000000000000    0.7152032800000000 O2-
   0.1662928850000000    0.1662928850000000    0.4652032800000000 O2-
   0.1662928850000000    0.1662928850000000    0.9652032799999999 O2-
   0.6662928849999999    0.6662928849999999    0.4652032800000000 O2-
   0.6662928849999999    0.6662928849999999    0.9652032800000000 O2-
   0.8328843700000000    0.1671156300000000    0.0275784550000000 O2-
   0.8328843700000000    0.1671156300000000    0.5275784550000000 O2-
   0.3328843700000000    0.6671156300000001    0.0275784550000000 O2-
   0.3328843700000000    0.6671156300000001    0.5275784550000000 O2-
   0.6657687400000001    0.0000000000000000    0.2775784550000000 O2-
   0.6657687400000001    0.0000000000000000    0.7775784550000000 O2-
   0.1657687399999999    0.5000000000000000    0.2775784550000000 O2-
   0.1657687399999999    0.5000000000000000    0.7775784550000000 O2-
   0.3328843700000000    0.3328843700000000    0.0275784550000000 O2-
   0.3328843700000000    0.3328843700000000    0.5275784550000000 O2-
   0.8328843699999999    0.8328843700000000    0.0275784550000000 O2-
   0.8328843699999999    0.8328843700000000    0.5275784550000000 O2-
   0.6671156300000000    0.3328843700000000    0.2775784550000000 O2-
   0.6671156300000000    0.3328843700000000    0.7775784550000000 O2-
   0.1671156299999999    0.8328843700000000    0.2775784550000000 O2-
   0.1671156299999999    0.8328843700000000    0.7775784550000000 O2-
   0.3342312600000000    0.0000000000000000    0.0275784550000000 O2-
   0.3342312600000000    0.0000000000000000    0.5275784550000000 O2-
   0.8342312599999999    0.5000000000000000    0.0275784550000000 O2-
   0.8342312599999999    0.5000000000000000    0.5275784550000000 O2-
   0.1671156300000000    0.1671156300000000    0.2775784550000000 O2-
   0.1671156300000000    0.1671156300000000    0.7775784550000000 O2-
   0.6671156300000001    0.6671156300000001    0.2775784550000000 O2-
   0.6671156300000001    0.6671156300000001    0.7775784550000000 O2-
