   1   1   0   0
  0.8000000E+04  0.2000000E-08  0.2000000E-08  0.2000000E-08  0.5000000E-15
  1.000000000000000E-004
  CAR 
 unknown system                          
      1.63097117    -25.26869863  301     -8.95566441      1.00000000
    -25.269  0.0000E+00  0.0000E+00
    -25.179  0.0000E+00  0.0000E+00
    -25.089  0.0000E+00  0.0000E+00
    -25.000  0.0000E+00  0.0000E+00
    -24.910  0.0000E+00  0.0000E+00
    -24.820  0.0000E+00  0.0000E+00
    -24.731  0.0000E+00  0.0000E+00
    -24.641  0.0000E+00  0.0000E+00
    -24.551  0.9873E-11  0.8853E-12
    -24.462  0.4597E-07  0.4123E-08
    -24.372  0.4462E-04  0.4005E-05
    -24.282  0.9196E-02  0.8286E-03
    -24.193  0.4144E+00  0.3799E-01
    -24.103  0.4257E+01  0.4197E+00
    -24.013  0.1043E+02  0.1355E+01
    -23.924  0.6256E+01  0.1916E+01
    -23.834  0.9039E+00  0.1997E+01
    -23.744  0.3016E-01  0.2000E+01
    -23.655  0.2223E-03  0.2000E+01
    -23.565  0.3502E-06  0.2000E+01
    -23.475  0.1155E-09  0.2000E+01
    -23.386  0.7429E-14  0.2000E+01
    -23.296  0.0000E+00  0.2000E+01
    -23.206  0.0000E+00  0.2000E+01
    -23.117  0.0000E+00  0.2000E+01
    -23.027  0.0000E+00  0.2000E+01
    -22.937  0.0000E+00  0.2000E+01
    -22.848  0.0000E+00  0.2000E+01
    -22.758  0.0000E+00  0.2000E+01
    -22.668  0.0000E+00  0.2000E+01
    -22.579  0.0000E+00  0.2000E+01
    -22.489  0.0000E+00  0.2000E+01
    -22.399  0.0000E+00  0.2000E+01
    -22.310  0.0000E+00  0.2000E+01
    -22.220  0.0000E+00  0.2000E+01
    -22.130  0.0000E+00  0.2000E+01
    -22.041  0.0000E+00  0.2000E+01
    -21.951  0.0000E+00  0.2000E+01
    -21.861  0.0000E+00  0.2000E+01
    -21.772  0.0000E+00  0.2000E+01
    -21.682  0.0000E+00  0.2000E+01
    -21.592  0.0000E+00  0.2000E+01
    -21.503  0.0000E+00  0.2000E+01
    -21.413  0.0000E+00  0.2000E+01
    -21.323  0.0000E+00  0.2000E+01
    -21.234  0.0000E+00  0.2000E+01
    -21.144  0.0000E+00  0.2000E+01
    -21.054  0.0000E+00  0.2000E+01
    -20.965  0.0000E+00  0.2000E+01
    -20.875  0.0000E+00  0.2000E+01
    -20.785  0.0000E+00  0.2000E+01
    -20.696  0.0000E+00  0.2000E+01
    -20.606  0.0000E+00  0.2000E+01
    -20.516  0.0000E+00  0.2000E+01
    -20.427  0.0000E+00  0.2000E+01
    -20.337  0.0000E+00  0.2000E+01
    -20.247  0.0000E+00  0.2000E+01
    -20.158  0.0000E+00  0.2000E+01
    -20.068  0.0000E+00  0.2000E+01
    -19.978  0.0000E+00  0.2000E+01
    -19.889  0.0000E+00  0.2000E+01
    -19.799  0.0000E+00  0.2000E+01
    -19.709  0.0000E+00  0.2000E+01
    -19.620  0.0000E+00  0.2000E+01
    -19.530  0.0000E+00  0.2000E+01
    -19.440  0.0000E+00  0.2000E+01
    -19.351  0.0000E+00  0.2000E+01
    -19.261  0.0000E+00  0.2000E+01
    -19.171  0.0000E+00  0.2000E+01
    -19.082  0.0000E+00  0.2000E+01
    -18.992  0.0000E+00  0.2000E+01
    -18.902  0.0000E+00  0.2000E+01
    -18.813  0.0000E+00  0.2000E+01
    -18.723  0.0000E+00  0.2000E+01
    -18.633  0.0000E+00  0.2000E+01
    -18.544  0.0000E+00  0.2000E+01
    -18.454  0.0000E+00  0.2000E+01
    -18.364  0.0000E+00  0.2000E+01
    -18.275  0.0000E+00  0.2000E+01
    -18.185  0.0000E+00  0.2000E+01
    -18.095  0.0000E+00  0.2000E+01
    -18.006  0.0000E+00  0.2000E+01
    -17.916  0.0000E+00  0.2000E+01
    -17.826  0.0000E+00  0.2000E+01
    -17.737  0.0000E+00  0.2000E+01
    -17.647  0.0000E+00  0.2000E+01
    -17.557  0.0000E+00  0.2000E+01
    -17.468  0.0000E+00  0.2000E+01
    -17.378  0.0000E+00  0.2000E+01
    -17.288  0.0000E+00  0.2000E+01
    -17.199  0.0000E+00  0.2000E+01
    -17.109  0.0000E+00  0.2000E+01
    -17.019  0.0000E+00  0.2000E+01
    -16.930  0.0000E+00  0.2000E+01
    -16.840  0.0000E+00  0.2000E+01
    -16.750  0.0000E+00  0.2000E+01
    -16.661  0.0000E+00  0.2000E+01
    -16.571  0.0000E+00  0.2000E+01
    -16.481  0.0000E+00  0.2000E+01
    -16.392  0.0000E+00  0.2000E+01
    -16.302  0.0000E+00  0.2000E+01
    -16.212  0.0000E+00  0.2000E+01
    -16.123  0.0000E+00  0.2000E+01
    -16.033  0.0000E+00  0.2000E+01
    -15.943  0.0000E+00  0.2000E+01
    -15.854  0.0000E+00  0.2000E+01
    -15.764  0.0000E+00  0.2000E+01
    -15.674  0.0000E+00  0.2000E+01
    -15.585  0.0000E+00  0.2000E+01
    -15.495  0.0000E+00  0.2000E+01
    -15.405  0.0000E+00  0.2000E+01
    -15.316  0.0000E+00  0.2000E+01
    -15.226  0.0000E+00  0.2000E+01
    -15.136  0.0000E+00  0.2000E+01
    -15.047  0.0000E+00  0.2000E+01
    -14.957  0.0000E+00  0.2000E+01
    -14.867  0.0000E+00  0.2000E+01
    -14.778  0.0000E+00  0.2000E+01
    -14.688  0.0000E+00  0.2000E+01
    -14.598  0.0000E+00  0.2000E+01
    -14.509  0.0000E+00  0.2000E+01
    -14.419  0.0000E+00  0.2000E+01
    -14.329  0.0000E+00  0.2000E+01
    -14.240  0.0000E+00  0.2000E+01
    -14.150  0.0000E+00  0.2000E+01
    -14.061  0.0000E+00  0.2000E+01
    -13.971  0.0000E+00  0.2000E+01
    -13.881  0.0000E+00  0.2000E+01
    -13.792  0.0000E+00  0.2000E+01
    -13.702  0.0000E+00  0.2000E+01
    -13.612  0.0000E+00  0.2000E+01
    -13.523  0.0000E+00  0.2000E+01
    -13.433  0.0000E+00  0.2000E+01
    -13.343  0.0000E+00  0.2000E+01
    -13.254  0.0000E+00  0.2000E+01
    -13.164  0.0000E+00  0.2000E+01
    -13.074  0.0000E+00  0.2000E+01
    -12.985  0.0000E+00  0.2000E+01
    -12.895  0.0000E+00  0.2000E+01
    -12.805  0.0000E+00  0.2000E+01
    -12.716  0.0000E+00  0.2000E+01
    -12.626  0.0000E+00  0.2000E+01
    -12.536  0.0000E+00  0.2000E+01
    -12.447  0.0000E+00  0.2000E+01
    -12.357  0.0000E+00  0.2000E+01
    -12.267  0.0000E+00  0.2000E+01
    -12.178  0.0000E+00  0.2000E+01
    -12.088  0.0000E+00  0.2000E+01
    -11.998  0.0000E+00  0.2000E+01
    -11.909  0.0000E+00  0.2000E+01
    -11.819  0.0000E+00  0.2000E+01
    -11.729  0.0000E+00  0.2000E+01
    -11.640  0.0000E+00  0.2000E+01
    -11.550  0.0000E+00  0.2000E+01
    -11.460  0.0000E+00  0.2000E+01
    -11.371  0.0000E+00  0.2000E+01
    -11.281  0.0000E+00  0.2000E+01
    -11.191  0.0000E+00  0.2000E+01
    -11.102  0.0000E+00  0.2000E+01
    -11.012  0.0000E+00  0.2000E+01
    -10.922  0.0000E+00  0.2000E+01
    -10.833  0.0000E+00  0.2000E+01
    -10.743  0.0000E+00  0.2000E+01
    -10.653  0.0000E+00  0.2000E+01
    -10.564  0.0000E+00  0.2000E+01
    -10.474  0.0000E+00  0.2000E+01
    -10.384  0.0000E+00  0.2000E+01
    -10.295  0.0000E+00  0.2000E+01
    -10.205  0.0000E+00  0.2000E+01
    -10.115  0.0000E+00  0.2000E+01
    -10.026  0.0000E+00  0.2000E+01
     -9.936  0.0000E+00  0.2000E+01
     -9.846  0.0000E+00  0.2000E+01
     -9.757  0.0000E+00  0.2000E+01
     -9.667  0.0000E+00  0.2000E+01
     -9.577  0.3715E-14  0.2000E+01
     -9.488  0.4451E-10  0.2000E+01
     -9.398  0.1932E-06  0.2000E+01
     -9.308  0.1750E-03  0.2000E+01
     -9.219  0.3370E-01  0.2003E+01
     -9.129  0.1421E+01  0.2130E+01
     -9.039  0.1369E+02  0.3358E+01
     -8.950  0.3152E+02  0.6184E+01
     -8.860  0.1776E+02  0.7777E+01
     -8.770  0.2409E+01  0.7993E+01
     -8.681  0.7528E-01  0.8000E+01
     -8.591  0.5189E-03  0.8000E+01
     -8.501  0.7638E-06  0.8000E+01
     -8.412  0.2352E-09  0.8000E+01
     -8.322  0.1486E-13  0.8000E+01
     -8.232  0.0000E+00  0.8000E+01
     -8.143  0.0000E+00  0.8000E+01
     -8.053  0.0000E+00  0.8000E+01
     -7.963  0.0000E+00  0.8000E+01
     -7.874  0.0000E+00  0.8000E+01
     -7.784  0.0000E+00  0.8000E+01
     -7.694  0.0000E+00  0.8000E+01
     -7.605  0.0000E+00  0.8000E+01
     -7.515  0.0000E+00  0.8000E+01
     -7.425  0.0000E+00  0.8000E+01
     -7.336  0.0000E+00  0.8000E+01
     -7.246  0.0000E+00  0.8000E+01
     -7.156  0.0000E+00  0.8000E+01
     -7.067  0.0000E+00  0.8000E+01
     -6.977  0.0000E+00  0.8000E+01
     -6.887  0.0000E+00  0.8000E+01
     -6.798  0.0000E+00  0.8000E+01
     -6.708  0.0000E+00  0.8000E+01
     -6.618  0.0000E+00  0.8000E+01
     -6.529  0.0000E+00  0.8000E+01
     -6.439  0.0000E+00  0.8000E+01
     -6.349  0.0000E+00  0.8000E+01
     -6.260  0.0000E+00  0.8000E+01
     -6.170  0.0000E+00  0.8000E+01
     -6.080  0.0000E+00  0.8000E+01
     -5.991  0.0000E+00  0.8000E+01
     -5.901  0.0000E+00  0.8000E+01
     -5.811  0.0000E+00  0.8000E+01
     -5.722  0.0000E+00  0.8000E+01
     -5.632  0.0000E+00  0.8000E+01
     -5.542  0.0000E+00  0.8000E+01
     -5.453  0.0000E+00  0.8000E+01
     -5.363  0.0000E+00  0.8000E+01
     -5.273  0.0000E+00  0.8000E+01
     -5.184  0.0000E+00  0.8000E+01
     -5.094  0.0000E+00  0.8000E+01
     -5.004  0.0000E+00  0.8000E+01
     -4.915  0.0000E+00  0.8000E+01
     -4.825  0.0000E+00  0.8000E+01
     -4.735  0.0000E+00  0.8000E+01
     -4.646  0.0000E+00  0.8000E+01
     -4.556  0.0000E+00  0.8000E+01
     -4.466  0.0000E+00  0.8000E+01
     -4.377  0.0000E+00  0.8000E+01
     -4.287  0.0000E+00  0.8000E+01
     -4.197  0.0000E+00  0.8000E+01
     -4.108  0.0000E+00  0.8000E+01
     -4.018  0.0000E+00  0.8000E+01
     -3.928  0.0000E+00  0.8000E+01
     -3.839  0.0000E+00  0.8000E+01
     -3.749  0.0000E+00  0.8000E+01
     -3.659  0.0000E+00  0.8000E+01
     -3.570  0.0000E+00  0.8000E+01
     -3.480  0.0000E+00  0.8000E+01
     -3.390  0.0000E+00  0.8000E+01
     -3.301  0.0000E+00  0.8000E+01
     -3.211  0.0000E+00  0.8000E+01
     -3.121  0.0000E+00  0.8000E+01
     -3.032  0.0000E+00  0.8000E+01
     -2.942  0.0000E+00  0.8000E+01
     -2.852  0.0000E+00  0.8000E+01
     -2.763  0.0000E+00  0.8000E+01
     -2.673  0.0000E+00  0.8000E+01
     -2.583  0.0000E+00  0.8000E+01
     -2.494  0.0000E+00  0.8000E+01
     -2.404  0.0000E+00  0.8000E+01
     -2.314  0.0000E+00  0.8000E+01
     -2.225  0.0000E+00  0.8000E+01
     -2.135  0.0000E+00  0.8000E+01
     -2.045  0.0000E+00  0.8000E+01
     -1.956  0.0000E+00  0.8000E+01
     -1.866  0.0000E+00  0.8000E+01
     -1.776  0.0000E+00  0.8000E+01
     -1.687  0.0000E+00  0.8000E+01
     -1.597  0.0000E+00  0.8000E+01
     -1.507  0.0000E+00  0.8000E+01
     -1.418  0.0000E+00  0.8000E+01
     -1.328  0.0000E+00  0.8000E+01
     -1.238  0.0000E+00  0.8000E+01
     -1.149  0.0000E+00  0.8000E+01
     -1.059  0.0000E+00  0.8000E+01
     -0.969  0.0000E+00  0.8000E+01
     -0.880  0.0000E+00  0.8000E+01
     -0.790  0.2275E-13  0.8000E+01
     -0.700  0.2689E-09  0.8000E+01
     -0.611  0.6702E-06  0.8000E+01
     -0.521  0.3571E-03  0.8000E+01
     -0.431  0.4156E-01  0.8004E+01
     -0.342  0.1091E+01  0.8102E+01
     -0.252  0.6749E+01  0.8707E+01
     -0.162  0.1024E+02  0.9625E+01
     -0.073  0.4204E+01  0.1000E+02
      0.017  0.3944E+01  0.1036E+02
      0.107  0.1289E+02  0.1151E+02
      0.196  0.2050E+02  0.1335E+02
      0.286  0.1441E+02  0.1464E+02
      0.376  0.7850E+01  0.1535E+02
      0.465  0.5401E+01  0.1583E+02
      0.555  0.1739E+01  0.1599E+02
      0.645  0.1573E+00  0.1600E+02
      0.734  0.3403E-02  0.1600E+02
      0.824  0.1632E-04  0.1600E+02
      0.914  0.1668E-07  0.1600E+02
      1.003  0.3556E-11  0.1600E+02
      1.093  0.0000E+00  0.1600E+02
      1.183  0.0000E+00  0.1600E+02
      1.272  0.0000E+00  0.1600E+02
      1.362  0.0000E+00  0.1600E+02
      1.452  0.0000E+00  0.1600E+02
      1.541  0.0000E+00  0.1600E+02
      1.631  0.0000E+00  0.1600E+02
