    1    1    1    1
  0.8000000E+04  0.2000000E-08  0.2000000E-08  0.2000000E-08  0.5000000E-15
  1.000000000000000E-004
  CAR 
 unknown system                          
      6      8      8
 
  0.0000000E+00  0.0000000E+00  0.0000000E+00  0.1250000E+00
      1        -24.045986   1.000000
      2         -8.987020   0.671274
      3         -8.985684   0.664413
      4         -8.985660   0.664290
      5         -0.239932   0.000000
      6          0.063291   0.000000
      7          0.329467   0.000000
      8          0.330015   0.000000
 
  0.5000000E+00  0.0000000E+00  0.0000000E+00  0.1250000E+00
      1        -24.045986   1.000000
      2         -8.987021   0.671278
      3         -8.985690   0.664446
      4         -8.985661   0.664294
      5         -0.228781   0.000000
      6          0.057592   0.000000
      7          0.179781   0.000000
      8          0.407428   0.000000
 
  0.0000000E+00  0.5000000E+00  0.0000000E+00  0.1250000E+00
      1        -24.045986   1.000000
      2         -8.987023   0.671289
      3         -8.985685   0.664421
      4         -8.985663   0.664307
      5         -0.228735   0.000000
      6          0.057379   0.000000
      7          0.179710   0.000000
      8          0.408259   0.000000
 
  0.0000000E+00  0.0000000E+00  0.5000000E+00  0.1250000E+00
      1        -24.045986   1.000000
      2         -8.987023   0.671292
      3         -8.985685   0.664420
      4         -8.985663   0.664305
      5         -0.228753   0.000000
      6          0.057657   0.000000
      7          0.179260   0.000000
      8          0.407894   0.000000
 
  0.5000000E+00  0.5000000E+00  0.0000000E+00  0.1250000E+00
      1        -24.045986   1.000000
      2         -8.987022   0.671285
      3         -8.985687   0.664431
      4         -8.985662   0.664301
      5         -0.220589   0.000000
      6          0.144269   0.000000
      7          0.144684   0.000000
      8          0.158560   0.000000
 
  0.0000000E+00  0.5000000E+00  0.5000000E+00  0.1250000E+00
      1        -24.045986   1.000000
      2         -8.987022   0.671287
      3         -8.985686   0.664422
      4         -8.985663   0.664304
      5         -0.220555   0.000000
      6          0.143867   0.000000
      7          0.144494   0.000000
      8          0.158961   0.000000
 
  0.5000000E+00  0.0000000E+00  0.5000000E+00  0.1250000E+00
      1        -24.045986   1.000000
      2         -8.987022   0.671285
      3         -8.985687   0.664431
      4         -8.985662   0.664299
      5         -0.220602   0.000000
      6          0.144441   0.000000
      7          0.144586   0.000000
      8          0.158816   0.000000
 
  0.5000000E+00  0.5000000E+00  0.5000000E+00  0.1250000E+00
      1        -24.045986   1.000000
      2         -8.987016   0.671255
      3         -8.985681   0.664398
      4         -8.985656   0.664271
      5         -0.214158   0.000000
      6          0.229856   0.000000
      7          0.230904   0.000000
      8          0.231514   0.000000
