       N       E                     dE             d eps       ncg     rms          rms(c)
DAV:   1     0.481208631544E+02    0.48121E+02   -0.68749E+02   128   0.322E+02
DAV:   2     0.357728951775E+02   -0.12348E+02   -0.12289E+02   128   0.490E+01
DAV:   3     0.919277269027E+01   -0.26580E+02   -0.25789E+02   256   0.295E+01
DAV:   4     0.139675867162E+00   -0.90531E+01   -0.90247E+01   128   0.346E+01
DAV:   5    -0.158568845085E+00   -0.29824E+00   -0.20739E+00   128   0.813E+00    0.108E-01
DAV:   6    -0.165198293522E+00   -0.66294E-02   -0.68982E-02   184   0.109E+00    0.128E-01
DAV:   7    -0.165233782806E+00   -0.35489E-04   -0.87539E-04   208   0.118E-01
   1 F= -.16523438E+00 E0= -.88106326E-01  d E =-.154256E+00
