H2O_liquid
1.0
  12.5163422232076691    0.0000233914035418    0.0000148478021513
   0.0000000000114008   12.5162286489880472    0.0000199363611203
   0.0000000000209813    0.0000000000005105   12.5176610723470780
H O
126 63
direct
   0.2282617284551465    0.0100328590137529    0.8873612109343894 H
   0.9746403004006459    0.7523539916388846    0.7392571842415325 H
   0.5495157277709571    0.8457364197593650    0.7522126852497308 H
   0.8285605776747957    0.3957130438711647    0.3236429564827718 H
   0.7772914822330327    0.4827858883979471    0.6904243173615018 H
   0.0577768259920047    0.2223168123471880    0.2391250040326304 H
   0.9446580715027482    0.1212973211581765    0.3550426042339572 H
   0.8506873790066947    0.1718425528358722    0.6288341575238712 H
   0.6762596340888892    0.6505044169314104    0.2894195166948972 H
   0.5611370443226182    0.9666475876272143    0.5214208317960167 H
   0.6816550720303126    0.8788788170142297    0.4073898872723471 H
   0.9980109015831524    0.4469736864199069    0.7701748771760492 H
   0.6678832112330954    0.5234479361650100    0.1656392748166443 H
   0.5040346446185426    0.5390736385800624    0.3470193329922442 H
   0.6410360744431883    0.2034330133853826    0.4795190499461129 H
   0.5009140032853824    0.0194465602602765    0.0680968735186743 H
   0.1286687923693957    0.4815796673077014    0.1056405447614227 H
   0.3281242572016398    0.9413255495423652    0.2791126768723411 H
   0.2745979045721432    0.6605001257033906    0.1708686731589134 H
   0.4889175843208496    0.3992133071729653    0.6662361557283188 H
   0.1680688935402925    0.7448174915883062    0.4840737703429457 H
   0.5441535549963540    0.2562238170486451    0.8066784078564349 H
   0.7539782822013665    0.4393165162255908    0.8888789119229100 H
   0.7158370742172643    0.2516648581738293    0.0129481804279206 H
   0.2713582658190841    0.2279864583332417    0.7834880348568036 H
   0.9024539921023629    0.8815337591291713    0.6213800486657953 H
   0.4615161508482398    0.2475213172787736    0.4504737358928211 H
   0.0118559400607643    0.7424282505541469    0.0746984790656740 H
   0.2903967612053814    0.3755361842352651    0.5760967580335238 H
   0.3231287130417146    0.7657698148287657    0.5644926299025137 H
   0.0376988097955901    0.0758439375796752    0.9244363752787482 H
   0.3490021766854268    0.9855487593995863    0.8713436612506795 H
   0.9105647459905236    0.7180137269788829    0.8369661577001187 H
   0.6217984736501840    0.7636375746785418    0.7014185487942284 H
   0.7745581203120666    0.3708044347688073    0.2161898767275624 H
   0.6604329281507487    0.4588369178206191    0.6638505715678867 H
   0.9367092142161492    0.2566478031322914    0.2342847298172183 H
   0.9210696992439242    0.0100086011945200    0.3831186344742445 H
   0.7198461947247682    0.1832700676815498    0.6289634217232680 H
   0.5794490968641994    0.6650526418110994    0.2084878611072036 H
   0.4451295011889302    0.0227193097626150    0.5285299460037345 H
   0.6493078638087474    0.7880491290917739    0.4952750816523580 H
   0.9786031188935814    0.5691499073939285    0.7498421879775161 H
   0.7284271721290199    0.4873101999963645    0.0606006569966631 H
   0.4910977185777734    0.5607404559463554    0.4688446654579101 H
   0.5685724756690831    0.1303057766954432    0.5479373565712746 H
   0.5834889098964630    0.9606882347596553    0.0036536368035990 H
   0.0401204359334022    0.5623696717124362    0.0540990885930118 H
   0.2824173065014235    0.0145062237175715    0.3666813391539134 H
   0.3486617682267537    0.7065850290831557    0.0822130144717180 H
   0.5730104678470570    0.3084776512554136    0.6220956625895938 H
   0.0696111366994306    0.7429990748207962    0.4037397615014190 H
   0.5502677722150517    0.2295680823859727    0.9226446169968734 H
   0.6629391487219132    0.5328361705119534    0.8849480049937259 H
   0.6250848388543612    0.3083123187101773    0.0765665590910336 H
   0.3662802395551557    0.2702906914452067    0.8616834980576800 H
   0.9736705556543800    0.8200947716610851    0.5343666577034214 H
   0.4295248327300012    0.3704736742659817    0.4332641348308674 H
   0.8980973959825628    0.6990554008415506    0.0343927673672955 H
   0.2875819013957733    0.4057639685103899    0.6956069253179774 H
   0.2339822436285078    0.7745846329456394    0.6458551118383669 H
   0.0595055035190402    0.9435105597880638    0.9097274904512673 H
   0.8934974071042586    0.3290512561302191    0.8603972804418396 H
   0.5553026810346389    0.6918749861685528    0.8648052870098396 H
   0.7595162123757241    0.2391418457892084    0.3402576351144293 H
   0.1473261899861980    0.3709222233120330    0.4682213790034302 H
   0.1421840618221771    0.3140746572683427    0.8878237868462783 H
   0.3389241568069978    0.3988616347426453    0.1635703018210843 H
   0.7551084938455630    0.7563953018862059    0.9263849022512434 H
   0.7590706624915531    0.4910146399954628    0.4684780730777085 H
   0.7950571409085634    0.7192143646959017    0.5985905369710599 H
   0.1316279824003455    0.0999687910648197    0.7533188747497124 H
   0.1904139474335156    0.7791943520426338    0.0571106523349340 H
   0.2220229066248534    0.3192108772536086    0.2369051680927172 H
   0.3612775881033622    0.0855989478292645    0.1403208309917672 H
   0.8638727300194351    0.6820997653177969    0.2354821840318570 H
   0.4087521084198726    0.5912825002582747    0.6358439098196149 H
   0.1239762404674222    0.7546282143520640    0.7995962524321725 H
   0.3254524437469295    0.5629691201597067    0.3724966107408161 H
   0.4753895829795802    0.0167551557396182    0.7120469261102015 H
   0.2608638376650217    0.0575489302906138    0.5689964057513199 H
   0.1643499778763993    0.9878520821198175    0.2274680280884254 H
   0.5044272836232667    0.8110101942793367    0.0969173862764161 H
   0.0108484544264800    0.2499932639019371    0.9676710970755344 H
   0.4604847395188030    0.8142078927395213    0.3648781664672482 H
   0.9323610323869838    0.9704637106493759    0.7871165868504495 H
   0.4846115199200384    0.2254773218591808    0.1655080485768635 H
   0.7546930244801831    0.9283849256193616    0.8541595795735338 H
   0.9706434056979190    0.1154826414004460    0.5267461552592998 H
   0.9138384297302846    0.8190159383772972    0.3446565271740946 H
   0.8442013982186719    0.9692951947716774    0.1425354846866949 H
   0.6887583721043200    0.0654555145745237    0.2683125737537906 H
   0.0027728188337521    0.5023071178777798    0.5774163023671341 H
   0.2932985504962016    0.5692646782719462    0.9368592413035413 H
   0.4716460351076925    0.6993549392273799    0.6601847017954563 H
   0.2065050455598290    0.8340729505249687    0.8450634415203715 H
   0.7134717637166987    0.6306375489985552    0.5979355450208014 H
   0.1305819547597963    0.1628983978276421    0.6489352069792226 H
   0.1272197155625575    0.8779790277321273    0.1016609192978390 H
   0.2490179100185559    0.1997381130828568    0.2661804901290689 H
   0.3538940004316671    0.0865346934520785    0.0162268012094167 H
   0.8351855745204109    0.6328837747686877    0.3517458960703262 H
   0.3576963330025944    0.7464528472467502    0.3451642885788545 H
   0.8487292936800965    0.0447723975378184    0.7370562480777335 H
   0.2082920817694131    0.6238194842808575    0.3627405505637077 H
   0.4818735663404834    0.0797305025898344    0.8149171190132681 H
   0.2714920258235731    0.9437115667773756    0.5398585008814204 H
   0.0598987571605861    0.0109519535694200    0.1622926257298793 H
   0.5118223005328099    0.7093326123936365    0.0219508170746381 H
   0.9862800303912808    0.1828001523416312    0.0677466130856736 H
   0.0595449212229817    0.5431076873367398    0.4696699291222288 H
   0.2934388789888798    0.6286357417906868    0.8317124418946874 H
   0.4618116975337169    0.2958921133995223    0.2670334121905841 H
   0.7539636581184406    0.9360985551615451    0.9751891078274804 H
   0.9998082474973725    0.2364748213827927    0.5458537302387204 H
   0.0084172701408917    0.9010704866093379    0.3093318069018441 H
   0.9033157610523457    0.8696069720174994    0.1228072425414686 H
   0.6604461112340703    0.9892487041136045    0.1825505778817879 H
   0.7885276375808787    0.6294686108635517    0.9262073263846415 H
   0.8840546243663174    0.5053739463625377    0.4526376410385395 H
   0.8074749932462770    0.2947711469591280    0.7787234411725377 H
   0.4632367138215856    0.6097289940035490    0.8854507133856762 H
   0.7775247539743841    0.1357560792893380    0.4055163611357055 H
   0.2117515661833950    0.2832304177268588    0.4122050502626490 H
   0.0768107057290735    0.4027427851525467    0.9484833437578770 H
   0.2669405505626230    0.4880120983162565    0.2202021018146102 H
   0.2919481531025963    0.9902963167783492    0.9270042944918756 O
   0.9840898695695925    0.7046088238612841    0.8019699214790947 O
   0.5582639462588442    0.7673812911725254    0.7412266527174263 O
   0.8220678952661906    0.3361683524558097    0.2699860947274584 O
   0.7257118638315225    0.4999486906307656    0.6412374880809832 O
   0.9840533309540256    0.1935938619023044    0.2231904902509352 O
   0.9155392077434708    0.0805930191162569    0.4138690591165022 O
   0.7862174758070717    0.1816706702550143    0.6732485622988889 O
   0.6132430910865457    0.6183045290387048    0.2587122784691759 O
   0.5240798045171384    0.0270658373485661    0.5490772798003927 O
   0.6227258931836714    0.8486531060355034    0.4514026249947363 O
   0.9638867643770986    0.4954513053854325    0.7212510085139069 O
   0.7159100053950270    0.4678155943640417    0.1349439087134111 O
   0.4582333315581760    0.5168500155232567    0.4094860848574138 O
   0.6020128307710225    0.2064430441579375    0.5493444541356041 O
   0.5521951499401644    0.9590467759911693    0.0741168885795418 O
   0.0781674762106039    0.4954947302196762    0.0441857869962515 O
   0.2877834938552375    0.0081337644237061    0.2888612376304034 O
   0.2732518381606885    0.6896936163069508    0.0984742851109190 O
   0.5595086990259246    0.3696506726448117    0.6743217671307982 O
   0.1240887034225702    0.6960193789405823    0.4337932939025890 O
   0.5086138696669937    0.2114646205434219    0.8597306424241260 O
   0.7313300345574206    0.5088192316865796    0.9151585892576654 O
   0.6392500541546888    0.2452966478859945    0.0290217369836307 O
   0.2906220813433669    0.2834501467738138    0.8387842673344067 O
   0.9265368908511590    0.8113142890814056    0.5950530730285820 O
   0.4191322585983637    0.2968514680208339    0.4065358381730697 O
   0.9503223312345728    0.6924078287564821    0.0976010227803059 O
   0.3171226540194806    0.4277726129695098    0.6291827895026040 O
   0.2523597102929802    0.7992029127084535    0.5748589302998105 O
   0.0542894643082081    0.0098095875712209    0.8745594472255889 O
   0.8149723267353921    0.7064002231521372    0.9190614601897292 O
   0.8146436675316787    0.5091462597700946    0.4152356140927696 O
   0.8203699138320668    0.3369968354028824    0.8455921310438892 O
   0.5350509729728494    0.6295527668603674    0.9102304780657455 O
   0.7193764908855955    0.1838347476185205    0.3819141293957220 O
   0.1910314352006382    0.3094472630165150    0.4823838977521944 O
   0.0687276874475614    0.3407534564140682    0.9038206050206816 O
   0.2668203814128003    0.4259424135404398    0.1731136054217358 O
   0.4280856307534187    0.6584589779898570    0.6012619513268567 O
   0.1963611411889725    0.7804022094739607    0.7889725004507582 O
   0.7214250257605557    0.7065604538172952    0.5794991635695482 O
   0.1776849231487917    0.1234852797096138    0.6937893559514705 O
   0.1285406853584958    0.8283735895779946    0.0360212378784548 O
   0.1982000164502744    0.2527276897017764    0.2755163953762200 O
   0.3971884946158640    0.1135585073114126    0.0762033607013268 O
   0.8322890561512991    0.6976010251448760    0.3070009760429893 O
   0.3843291659064216    0.8193455259209733    0.3487638347163066 O
   0.8629122724884459    0.9705034891565326    0.7526972827056088 O
   0.2742057504147322    0.5976400628879622    0.3238891214955297 O
   0.4681381611246405    0.0080818685930206    0.7875962423618043 O
   0.2988391245755818    0.0128379546679014    0.5215141172374251 O
   0.0979325070909129    0.9559351747734792    0.2036472418484847 O
   0.4871098095650768    0.7338406006728810    0.0958159235212488 O
   0.9840996652256983    0.1761359392656111    0.9913772867806721 O
   0.0181722221064600    0.4832974111083591    0.5006206125516319 O
   0.3336737594231565    0.5733445036683216    0.8701294276086065 O
   0.4805509314794579    0.2981571227457179    0.1930037183242462 O
   0.7146125697156993    0.8998617569525493    0.9145452976881076 O
   0.9916627840023351    0.1683363103812550    0.5804316669886708 O
   0.9610863667808670    0.8758329916458560    0.3673868562951956 O
   0.8956869974284227    0.9413019988993427    0.0867714766274296 O
   0.7097227556462733    0.9934862114531017    0.2391419679113634 O
