H2O_liquid                              
    1.000000000000000     
    12.5106301206355912    0.0000089548034730   -0.0000290028558023
     0.0000000000142416   12.5105202701358902    0.0000325024173496
     0.0000000000213362    0.0000000000007860   12.5119526616227947
  H               O             
   126    63
Direct
  0.2995651265061995  0.1422767720805254  0.9409320146198964
  0.8989137814075699  0.9842542172090107  0.8567880617336034
  0.5059096212805589  0.8163435866563830  0.8729265552549748
  0.7471698771127242  0.3187977106084792  0.4841976969801908
  0.7915679788025876  0.6886598693878534  0.5991277038034341
  0.0139946930583925  0.4823366977340215  0.2950068591938995
  1.1774666658617856  0.2340613590859670  0.4085024043440576
  0.9659114217939982  0.4494393507370413  0.7322158594866810
  0.6815181538617372  0.6929697916032433  0.4261057699084682
  0.5273330327151370  0.9726792275785401  0.5878339181535932
  0.7248819322977368  0.9139747674049039  0.5724647303596667
  0.9279498652653601  0.6543066762222814  0.7502724416669576
  0.6975270867664526  0.4241709537485279  0.2068671710696642
  0.4724528660866452  0.6540650362022777  0.4268445592660351
  0.4969354008841146  0.3762834165244607  0.7323074715333004
  0.5931094293476793  0.0281987987151552  0.2757127813270856
  0.0054602810430190  0.6522646384796116  0.0983066070399858
  0.3516968876913794  1.0556453691292176  0.3061107058845078
  0.4051311897423517  0.8309988473059465  0.1077593443941902
  0.6283415508729738  0.5545937965222141  0.7905880065304226
  0.1116699399189352  0.7839739805133938  0.5583184662989308
  0.6489200169293907  0.1315239944440530  0.9607665907987052
  0.6948672594722705  0.5190804553177459  1.0066588236067711
  0.7146869828837661  0.3176827330925481  0.0312886579037932
  0.4337987021311180  0.3170779913524949  0.9037914119811827
  0.7676004934608633  1.1495672101703087  0.8057286391633900
  0.5667273926122984  0.3481882549586450  0.5296027044254047
  0.0023667973532949  0.9299920383388880  0.0961662406889550
  0.2054869289422905  0.5671162337171580  0.8166128296083359
  0.3090667571724240  0.8241199397130039  0.6241839462443646
  0.0568461170868396  0.2447710160976526  0.9687294955614937
  0.3560094540754421  1.0252218920111413  0.9341502295689706
  0.9273025195872584  0.8642194757234724  0.8511304634931646
  0.5319242619325445  0.6920134070446299  0.8583071758917189
  0.8663921302802560  0.3251380618262618  0.4427755041300304
  0.6916918724833893  0.6210922039499829  0.6209452973000812
  1.0267676448169980  0.4197202212535125  0.3867114661922609
  0.1476733780533154  0.1568453731195341  0.4981322696888264
  0.8621572969412900  0.4210006637118491  0.6788011919499395
  0.6274608428760604  0.7102637446318311  0.3175886856787646
  0.4319449811706019  0.0546575204567926  0.5877558364940507
  0.6825929260898556  0.8663184764123419  0.4657560238870665
  0.9891904637838586  0.7511545769277375  0.6935055395888688
  0.7277100818695343  0.5124110126034387  0.2921467199264101
  0.3977566650686153  0.6351702590116421  0.5229921698018850
  0.4003417363604145  0.3889306158389048  0.6611318949818759
  0.5061667990804076  0.9965610151753903  0.1899357819565904
 -0.0798718795285636  0.7359294195819095  0.0734032335825811
  0.4096409689904241  0.1678486109054562  0.3065622693806488
  0.2859289910500674  0.8155170110521143  0.0884423560089109
  0.5570679200049523  0.5209767929218712  0.6911453813134029
  0.0174419107722725  0.7401870561234876  0.4989333421118142
  0.5857601142052660  0.1832273497291165  0.8677394241549197
  0.5707555364843856  0.5394640148003728  0.9921768461973909
  0.6027856640232306  0.2857028029028774  0.0736675976641341
  0.5512528226207216  0.3748272705724115  0.9253673706666933
  0.8099661220137239  1.1102033234637880  0.6933028592517477
  0.6098746287033651  0.3869110982945222  0.4133833941703546
  0.9045621246564232  0.8974914479892444  0.0251107388276432
  0.2593083622460721  0.6597622562887397  0.8867900414486983
  0.2145019513805780  0.8799164870701771  0.6844072280947813
  0.0840817565234185  1.1230336109750723  0.9754116092293541
  0.9084933956213349  0.5565874685344011  0.9927205927049544
  0.4096904340154077  0.6062516431004651  0.9838491375963954
  0.8861983177930804  0.2041985592607231  0.5607292923401753
  0.1836518914458546  0.3147921175838056  0.6208789926920352
  0.2766494663736743  0.3304920616650625  0.8032142545706037
  0.1243297670936871  0.5463298471223290  0.1743437479678052
  0.7100303953043442  0.7626722289985577  0.9884042020816641
  0.8126351972242501  0.6003441385304400  0.4436143487509355
  0.7544294933514766  0.9387771403130255  0.7350952346965984
  0.0728655480422602  0.2154543014840683  0.7877948546339344
  0.1797323069725234  1.0176675118451752  0.0110074408045540
  0.3760134856189322  0.4655715357182280  0.3465541971574227
  0.3031108498640014  0.2153521113692338  0.1466841069972697
  0.8398110101126758  0.8973458082801612  0.2138198895657248
  0.3459858449972102  0.6707850464687596  0.7196545013944862
  0.0820215676122995  0.9177353850692259  0.8085878970926100
  0.2452070920012575  0.7734012521664407  0.2929252030390951
  0.4830734839661866 -0.0436164145436083  0.7889835532848688
  0.2190273569723922  0.1002542189099156  0.6450817319361968
  0.1068747777582289  0.1651509793150679  0.3128612081551235
  0.5956144687506799  0.8217784205777636  0.1940075751136897
  0.0344184353587187  0.4239473512023612  0.9663302828524616
  0.4172414045409985  0.8860659825815668  0.3424309775493516
  0.8347736821062884  1.2259785509541514  0.9404559266269142
  0.3191907914769763  0.4739933281959309  0.1147158924369530
  0.8523970033059158  1.0404183033903132  1.0440435209744323
  0.1379537527529610  0.4637711437867150  0.6503777968807415
  0.9139894268161688  0.9099684237274184  0.3743748638598516
  0.7983464766816022  1.1717582963343418  0.3108379473318108
  0.6265697513348651  0.1450835576910188  0.4240263844349141
  0.1406097314907495  0.5989022305389693  0.4844334287036605
  0.1039530125120890  0.7330287885312474  0.9788529183962913
  0.4676176917776622  0.6861750085063383  0.6831084041567476
  0.1849801204467937  0.9729455324633622  0.8280287321202123
  0.7969464740401523  0.8279159544003897  0.7435088726224782
  0.0142404982060903  0.2001493669824831  0.6686399504469387
  0.1267264545824112  1.0623230707424300  0.1219811763515641
  0.3018194653681617  0.4065135182036655  0.2806444357835380
  0.1758970285255161  0.2281392171613578  0.1440436413453545
  0.7561009900586956  0.8352495582669814  0.2775445750495781
  0.3626334482525279  0.8843709445634089  0.4565036260920432
  0.8284845211624243  0.3170273769824861  0.8570158806645000
  0.2654073494288377  0.6739143826896986  0.3614161953057832
  0.5299077627538971  0.0152512783112875  0.8814915845988617
  0.2598533359143924  1.0148672353008976  0.5779313964558835
  0.0089093152489156  0.1678306966681377  0.2377289598575023
  0.5458103683182421  0.7224629424217254  0.1336210311744019
  1.1354133139603162  0.4286070074166921  0.0395392791283728
  0.2076718356908198  0.5162440419636446  0.4199101418471010
  0.1751293427281399  0.8115748299147021  0.9120884668701275
  0.2495133281066771  0.3703700214709402  0.1368234140071017
  0.7820372359570785  1.1260448793369855  0.1152270649920036
  0.1017018268316722  0.5821802325352882  0.6552277705033169
  0.0277494801488077  0.9412098740100011  0.3871906649177826
  0.8418775571114926  1.2698701679591107  0.2563897594271682
  0.6970172858535011  1.0356036236060384  0.4152466899231866
  0.7300140965552152  0.7952711137825228  0.8806945500025691
  0.9018253062177820  0.5503864123276931  0.3693510399461444
  0.8544433039004975  0.5026924475886676  0.8900932960025583
  0.3879108567625620  0.5115314584554507  0.9227218494718974
  0.9294529079181417  0.0840995562729839  0.5240578101715708
  0.2485809057869101  0.3693499037216455  0.5409853787594519
  0.2082912218681127  0.3207728382438331  0.8989961232644508
  0.1235980518247656  0.6497873947123461  0.2518695425133847
  0.2869819109272090  1.0650704019974098  0.9273025135059206
  0.9566010215769575  0.9333124194720341  0.8720222254598161
  0.5061093158817025  0.7436855728604622  0.9092135791329840
  0.8228179094191984  0.3368225075791898  0.5028644395645009
  0.7506445953205267  0.6279681367745236  0.5716997408453398
 -0.0239185424995276  0.4244329292707200  0.3251453670166961
  1.1223903262253614  0.2175633906609747  0.4543411762691746
  0.8890550498171620  0.4560761139212630  0.7406637445659392
  0.6260104378543275  0.7358470230889620  0.3940257346397763
  0.4580842685843439 -0.0150154372413923  0.6198432142740405
  0.6958521228184278  0.9350112452374884  0.5045229825490138
  0.9423926406413866  0.7307772783631661  0.7554887849163616
  0.6880881518028097  0.4487697887596093  0.2787173397673767
  0.3974739174857404  0.6305629447823071  0.4452694441500573
  0.4750485320348974  0.4031390794235392  0.6555770993761660
  0.5472210289520109  0.9683310480820440  0.2458071644772968
 -0.0341502471544304  0.6832209662885378  0.0396424761524096
  0.3432739020177708  0.1332478865094505  0.2781109867021612
  0.3356235892767079  0.8645784514129807  0.1283856340141717
  0.5950616915413327  0.5848815942557685  0.7193793866759211
  0.0588756406301963  0.7277765090545742  0.5660095432104802
  0.5808857972920254  0.1317532791779979  0.9303752868148425
  0.6378439471575627  0.5268708358007332  0.9517608406945610
  0.6704522552458563  0.3191589356744922  0.0986581848019247
  0.5000482993089087  0.3419264226805242  0.8725236324364365
  0.7821512021998330  1.0785933006552855  0.7592643850351815
  0.6053370048083961  0.3267715451972915  0.4649916576019824
 -0.0653232251282095  0.8920820913981323  0.1016462545873851
  0.2772589270941619  0.5992546355503519  0.8324916418943012
  0.2455276317324792  0.8669994402039302  0.6098969970384502
  0.0427930082751262  0.1771574914875304  0.9324984886297764
  0.7653886316770140  0.7976476195314712  0.9527343882339052
  0.8522716087247076  0.6123547365868183  0.3797666987881250
  0.8748202671900307  0.4906346348630738  0.9663120360374621
  0.4208703719424170  0.5286382985719450  0.9910391301046598
  0.9016759989744181  0.1306131724786267  0.5835847408451268
  0.2402406621113502  0.3644289720686711  0.6179452985934611
  0.2748296447465118  0.2980643411554294  0.8713835050540447
  0.0722682019767816  0.5917649429710432  0.2162023168412002
  0.3938199870393889  0.6993020265655604  0.6662645328672865
  0.1592600328201995  0.9053852727584015  0.7969391330981771
  0.7286766419171008  0.8653442389575116  0.7362153375042806
  0.0805802892405860  0.2289090660127827  0.7124331163583716
  0.1190618903627476  1.0113896989012365  0.0573176545717007
  0.3110358811989174  0.4201601987734737  0.3581084452870648
  0.2455245592879891  0.2478787418293783  0.1066367539202341
  0.8131151663012317  0.8937740292484919  0.2863504929664348
  0.3515086046446163  0.8967207009280931  0.3801873838872566
  0.7882586184913475  1.2592385963111279  0.8883895259487701
  0.2067868462129781  0.7098196730768402  0.3211403811108234
  0.4788871515534635 -0.0427976725480644  0.8671156749173572
  0.2461072548899125  0.0899449123058788  0.5715698924280315
  0.0856806323067240  0.1538509123599144  0.2349547038819073
  0.5996844334408505  0.7450937657933964  0.1855782296054547
  1.0948236840669296  0.3809227857705441  0.9921594191831670
  0.1482703581396397  0.5247523589005660  0.4725711156679337
  0.1778202250257246  0.7481142530017714  0.9583682634740769
  0.2599352368544683  0.4487209568939698  0.1524219257959032
  0.8066200167267527  1.1097494637821612  1.0459562599159156
  0.0965702417363532  0.5121586466251994  0.6953792809066567
  0.9715511882761845  0.9174584035384612  0.4309405140133147
  0.8478587384807762  1.1907422712084139  0.2575575928785721
  0.6651705894816751  1.1006246147416947  0.3751813413305313
Lattice velocities and vectors
            1
 -0.44065676E-03  0.13416916E-02 -0.21543427E-02
 -0.13277441E-02 -0.44212882E-03 -0.10265145E-02
  0.21616848E-02  0.10262569E-02 -0.44174870E-03
  0.12509969E+02  0.29454695E-04 -0.18576381E-04
  0.14241362E-10  0.12509857E+02  0.32456010E-04
  0.21335219E-10  0.78385181E-12  0.12511290E+02
 
  0.62395188E-02 -0.71236239E-02  0.54029575E-02
 -0.45165080E-02 -0.37916530E-02 -0.11314599E-01
  0.12334650E-01  0.71581164E-02 -0.77218808E-02
 -0.23056233E-02 -0.17539809E-02 -0.50078524E-02
  0.43803497E-02 -0.25991604E-02  0.62651932E-02
  0.86745930E-02 -0.56470454E-02  0.49400923E-02
  0.10136400E-01 -0.68060972E-02 -0.61910093E-02
  0.45403397E-02  0.13634744E-01 -0.32880773E-02
  0.86736803E-02 -0.83422676E-02  0.30700008E-02
 -0.37115258E-02 -0.12493263E-01 -0.57893832E-02
 -0.86115855E-03  0.49748172E-03  0.12875427E-01
  0.86979619E-02  0.17517026E-02 -0.18919479E-02
  0.10773856E-01 -0.27488425E-02 -0.31674746E-02
 -0.85726485E-03 -0.90992287E-02  0.22237088E-02
 -0.11232413E-01  0.23970286E-02 -0.55962698E-02
  0.84029730E-02  0.25772584E-02  0.75117835E-02
 -0.13068360E-02 -0.17452692E-02  0.29296291E-02
 -0.21237656E-02 -0.40001645E-02 -0.69684219E-03
  0.60447673E-03 -0.61729919E-03 -0.37821932E-02
 -0.28485402E-02 -0.52193686E-02  0.13472952E-01
  0.16403309E-02  0.21416674E-02  0.37116231E-02
  0.92736281E-04  0.99683628E-02 -0.53707063E-02
 -0.29785295E-03 -0.44659493E-02 -0.99621805E-02
  0.41807431E-02 -0.43030854E-02 -0.26817428E-02
  0.35536441E-02 -0.62535864E-02  0.54022686E-02
  0.35439065E-02 -0.10713632E-02 -0.36290472E-02
  0.11253450E-01 -0.91551733E-03 -0.57969758E-02
 -0.27010461E-02  0.25729591E-02 -0.34423930E-02
  0.66724961E-02 -0.78284801E-03  0.64126105E-02
  0.56558025E-02 -0.69458611E-02 -0.25770067E-02
  0.10944055E-01  0.89777113E-02 -0.39934635E-02
  0.23746417E-02 -0.18501064E-02  0.33799076E-02
 -0.10796356E-01  0.15323795E-02  0.45867684E-02
  0.75885822E-02  0.33688596E-02  0.86080407E-02
  0.11764686E-02  0.16087781E-02  0.10198835E-01
 -0.19035126E-02  0.38658948E-02 -0.10629885E-02
 -0.61906690E-03 -0.28259980E-02  0.71860247E-02
  0.13563628E-02 -0.45723645E-02 -0.49774167E-02
 -0.17996767E-02  0.61435408E-02 -0.12764336E-02
  0.28625423E-02  0.12802648E-01  0.22946721E-02
  0.49077514E-02  0.13841781E-02 -0.15027870E-01
 -0.78348299E-02  0.11170344E-02 -0.52698706E-02
  0.34011128E-03 -0.53032660E-02 -0.61336378E-02
 -0.87103235E-04  0.77493669E-02 -0.18254299E-02
  0.27757685E-02  0.13347028E-01 -0.83091634E-02
  0.83303355E-02 -0.44828058E-02  0.89395609E-02
  0.22879848E-02  0.29724184E-02 -0.13742591E-02
  0.36423233E-02  0.29353385E-02  0.68129085E-02
 -0.84136802E-02  0.32441068E-02 -0.20885873E-02
 -0.58043324E-02 -0.70361998E-02  0.50015626E-02
  0.39851110E-03  0.15755274E-02  0.14013773E-02
 -0.45126556E-02 -0.82049171E-03  0.37145597E-02
 -0.53437589E-02  0.70223324E-02  0.62978133E-02
 -0.19083108E-02 -0.11513997E-01  0.33332529E-03
  0.41758339E-02  0.28027032E-02  0.58133168E-03
 -0.57072874E-02  0.46396829E-02 -0.68082551E-03
  0.15126511E-02  0.13064500E-03  0.57062112E-02
 -0.59563008E-02  0.60404684E-03  0.15349428E-02
  0.41128939E-03 -0.17595839E-01  0.33062304E-03
 -0.59307741E-02  0.57346703E-02  0.10181163E-01
 -0.66480083E-02  0.51776388E-02 -0.44375074E-02
 -0.14180707E-03  0.10690778E-02  0.33502948E-02
  0.16036298E-03  0.55036306E-02  0.15344075E-02
  0.22508788E-02 -0.69478541E-03 -0.67055915E-02
 -0.32991975E-02 -0.39745864E-02  0.35800717E-02
  0.10742494E-01 -0.41359994E-02  0.22220969E-02
 -0.11394888E-01  0.46507849E-02 -0.63802058E-02
 -0.10071803E-01 -0.32230271E-02  0.62847627E-02
 -0.99506404E-02 -0.12035058E-01  0.12884930E-01
  0.19310972E-01  0.15163706E-02  0.11273444E-01
  0.27911639E-02 -0.73074335E-02  0.39129947E-02
 -0.43748699E-02 -0.41037835E-02  0.90939994E-02
  0.10254685E-02  0.60232523E-02 -0.12674617E-02
  0.63449720E-03 -0.52104049E-02  0.98198381E-02
 -0.10063309E-01  0.15731041E-01  0.67600840E-02
  0.10105593E-01 -0.91675748E-02 -0.63425973E-02
 -0.49839313E-02 -0.25657001E-02  0.30439429E-02
 -0.89258098E-02 -0.51572415E-03  0.56875346E-02
  0.29897803E-02  0.31568078E-02 -0.79903210E-02
  0.39206461E-02 -0.41995529E-02 -0.11849930E-01
 -0.27111231E-02  0.52827545E-02 -0.16712111E-02
  0.18872242E-02  0.51657571E-02 -0.54237567E-02
  0.89335895E-02  0.88183313E-02  0.55337039E-02
 -0.73861873E-02  0.13573127E-01 -0.22983678E-02
 -0.11312344E-01  0.84883854E-02  0.25539486E-03
 -0.15005237E-02 -0.31658850E-02 -0.40314916E-02
 -0.13172447E-02  0.65091468E-02  0.62710188E-02
 -0.16763155E-01 -0.36236613E-02 -0.74766373E-03
  0.12637439E-01  0.54353942E-02 -0.78660026E-03
 -0.28522244E-02  0.65682873E-02 -0.14566286E-02
 -0.67655654E-02  0.71568766E-02  0.45448649E-02
  0.56965473E-02  0.13991807E-01 -0.11048376E-02
 -0.88576175E-02  0.10725668E-01  0.11035275E-02
  0.29454624E-02 -0.12762315E-02  0.12823980E-02
  0.35408989E-02  0.42267191E-02 -0.19775832E-02
 -0.61850486E-02 -0.47660186E-02  0.18485141E-02
  0.20210685E-02  0.56803697E-02  0.32537831E-02
  0.39763345E-02 -0.18937591E-02  0.37252020E-02
  0.76361025E-02  0.11579009E-01 -0.52970328E-02
  0.37638738E-02  0.49689846E-02  0.71580195E-03
 -0.19782319E-02  0.48316970E-02 -0.23565456E-02
  0.48745087E-02  0.49836417E-02 -0.61318605E-03
 -0.12505687E-01 -0.80137634E-02 -0.29139306E-03
  0.23178655E-02 -0.63532224E-02  0.30998703E-02
 -0.73611347E-02  0.73292671E-02  0.86884051E-03
 -0.29045998E-02  0.90878870E-02  0.21624597E-02
  0.31454262E-02  0.33354666E-02  0.52328526E-03
  0.55649258E-02  0.93667480E-02  0.29338835E-02
  0.57509395E-02 -0.62844412E-02 -0.20657516E-02
  0.28549529E-02  0.94174922E-03 -0.35638119E-02
 -0.95179839E-02  0.10873784E-02 -0.46215794E-02
 -0.47448695E-02  0.18577391E-02  0.17753828E-02
 -0.11480390E-01 -0.47764555E-02 -0.60280652E-02
  0.15208745E-02  0.51450315E-02  0.53065634E-02
  0.50247276E-02  0.20388764E-02  0.75397010E-02
  0.38958019E-02 -0.32205895E-02 -0.27639568E-02
 -0.18279798E-02 -0.10024587E-02  0.12173539E-02
  0.34901193E-02 -0.77725518E-02 -0.49700585E-02
  0.40896457E-02 -0.29264209E-02 -0.86429389E-02
 -0.48571545E-02  0.40609957E-03  0.33179594E-02
  0.52666993E-02  0.14036031E-01 -0.10370345E-02
 -0.33464560E-02 -0.11641797E-01 -0.23126111E-02
 -0.25851821E-02 -0.16725370E-02 -0.10977404E-01
  0.12410392E-01 -0.36151693E-02 -0.36475213E-02
 -0.37544512E-02  0.51565595E-02  0.76551404E-02
  0.18086347E-02  0.10814134E-01 -0.26968366E-02
  0.19143749E-02  0.14761255E-02 -0.45804389E-02
  0.64700528E-02  0.64390832E-02 -0.38956384E-05
 -0.48128578E-02 -0.14468843E-02 -0.26249730E-02
 -0.55986824E-02  0.11666577E-01  0.24795111E-02
 -0.32835072E-02  0.67499987E-02  0.25981682E-02
 -0.47308079E-02 -0.50564094E-02  0.81832424E-03
 -0.33422994E-02 -0.63212123E-02 -0.24756550E-02
 -0.15212442E-02  0.10553610E-02  0.48550354E-02
  0.27376956E-02  0.39448834E-02  0.11501399E-01
 -0.55080386E-02  0.48660742E-02  0.12824830E-02
  0.22482084E-02 -0.61360594E-04  0.54798264E-02
 -0.20921357E-02  0.41015944E-03  0.38810772E-02
 -0.19050045E-02 -0.60134055E-02  0.23718254E-02
  0.40152359E-02  0.43349018E-02 -0.81568459E-02
  0.13134611E-02 -0.69370061E-03  0.16863322E-02
  0.62640113E-03 -0.24514267E-02  0.40253561E-02
  0.39452254E-02  0.69817220E-02 -0.56444167E-02
  0.23820684E-02 -0.14110199E-02 -0.46158369E-02
 -0.12462890E-02 -0.25302253E-02 -0.89072115E-02
  0.30239747E-02  0.18850415E-02  0.70672817E-02
  0.14272729E-02 -0.15158387E-02  0.28965214E-02
 -0.88348714E-03 -0.15081751E-02 -0.22144567E-02
 -0.23230443E-02 -0.40889521E-02 -0.26030018E-02
  0.92013192E-03 -0.37369663E-02  0.26773074E-02
  0.27099995E-02 -0.20106189E-02  0.45011469E-02
  0.13603964E-02 -0.23899602E-02 -0.26311052E-04
 -0.11428091E-02 -0.25209609E-02  0.25833632E-02
 -0.29435253E-02 -0.22604214E-02 -0.64080826E-02
 -0.21217841E-02  0.42218605E-03  0.29828167E-02
 -0.13365349E-02 -0.95276721E-02  0.14446512E-03
  0.26938520E-03 -0.20958623E-02 -0.15043087E-03
  0.34252808E-02 -0.35300793E-03  0.25608837E-02
  0.67939104E-03 -0.11919357E-02  0.14610960E-02
  0.16912054E-02  0.32403857E-02 -0.55678498E-02
  0.51712232E-02  0.48765070E-02 -0.18136236E-02
  0.27639829E-02 -0.40276803E-02 -0.29985653E-03
  0.50693458E-02  0.35505132E-03  0.69961322E-02
  0.57077442E-02  0.25379622E-02  0.51888802E-02
 -0.11241503E-02  0.16187641E-02  0.56239503E-02
  0.34252151E-02 -0.68559290E-02  0.18777834E-02
  0.12281902E-02 -0.91768233E-02  0.10614952E-01
  0.22312767E-02 -0.34190309E-03  0.22932421E-02
 -0.66309674E-02  0.24939771E-02  0.23070272E-03
  0.61804950E-03  0.22601181E-02 -0.28746762E-03
 -0.32602737E-02 -0.15191453E-02  0.77503896E-03
 -0.19578965E-02 -0.94671199E-02  0.34839305E-02
 -0.23747565E-04 -0.93488490E-02  0.28438916E-02
 -0.28736132E-02  0.80761027E-02 -0.33404179E-02
 -0.29957508E-02  0.12648921E-02  0.60499884E-02
 -0.76425164E-02 -0.32945315E-02 -0.23474072E-02
  0.69014078E-03 -0.52210331E-03 -0.25935556E-02
  0.38698005E-02 -0.59457518E-02 -0.28896175E-02
 -0.71833512E-02  0.20447714E-02  0.23753984E-02
  0.17565874E-02 -0.21950775E-02 -0.63807201E-02
 -0.97106527E-02  0.79865587E-03  0.39012774E-02
 -0.23739171E-02 -0.34668813E-02  0.33770855E-02
 -0.70097364E-03  0.55394510E-02 -0.71840302E-02
 -0.44770100E-02 -0.58773870E-03 -0.38448227E-02
  0.42469411E-02  0.50389610E-02  0.15598993E-02
 -0.14401297E-02  0.69429498E-02 -0.40634767E-02
  0.43330369E-03 -0.20763131E-02  0.12951939E-02
 -0.11318363E-01  0.25484402E-02  0.32436952E-02
 -0.10833412E-02  0.18047266E-02  0.18776362E-02
 
            1
    1.500000000000000     
  0.10000000E+01  0.00000000E+00  0.00000000E+00  0.00000000E+00
  0.30031327E+00  0.14142261E+00  0.94157979E+00
  0.89837223E+00  0.98379958E+00  0.85543154E+00
  0.50738860E+00  0.81720188E+00  0.87200077E+00
  0.74689342E+00  0.31858740E+00  0.48359730E+00
  0.79209320E+00  0.68834821E+00  0.59987885E+00
  0.15034815E-01  0.48165958E+00  0.29559914E+00
  0.17868206E+00  0.23324527E+00  0.40776016E+00
  0.96645583E+00  0.45107423E+00  0.73182164E+00
  0.68255817E+00  0.69196951E+00  0.42647384E+00
  0.52688800E+00  0.97118122E+00  0.58713982E+00
  0.72477868E+00  0.91403442E+00  0.57400839E+00
  0.92899279E+00  0.65451671E+00  0.75004561E+00
  0.69881892E+00  0.42384135E+00  0.20648742E+00
  0.47235008E+00  0.65297399E+00  0.42711117E+00
  0.49558859E+00  0.37657084E+00  0.73163652E+00
  0.59411698E+00  0.28507824E-01  0.27661338E+00
  0.53035857E-02  0.65205537E+00  0.98657846E-01
  0.35144224E+00  0.55165728E-01  0.30602716E+00
  0.40520367E+00  0.83092483E+00  0.10730589E+00
  0.62800000E+00  0.55396797E+00  0.79220330E+00
  0.11186662E+00  0.78423078E+00  0.55876346E+00
  0.64893114E+00  0.13271926E+00  0.96012268E+00
  0.69483155E+00  0.51854496E+00  0.54644420E-02
  0.71518827E+00  0.31716677E+00  0.30967141E-01
  0.43422480E+00  0.31632815E+00  0.90443910E+00
  0.76802542E+00  0.14943875E+00  0.80529355E+00
  0.56807673E+00  0.34807848E+00  0.52890770E+00
  0.20429301E-02  0.93030055E+00  0.95753525E-01
  0.20628699E+00  0.56702236E+00  0.81738165E+00
  0.30974491E+00  0.82328709E+00  0.62387499E+00
  0.58158357E-01  0.24584749E+00  0.96825071E+00
  0.35629418E+00  0.25000054E-01  0.93455545E+00
  0.92600799E+00  0.86440322E+00  0.85168038E+00
  0.53283417E+00  0.69241735E+00  0.85933921E+00
  0.86653319E+00  0.32533096E+00  0.44399826E+00
  0.69146363E+00  0.62155575E+00  0.62081785E+00
  0.26693416E-01  0.41938137E+00  0.38757301E+00
  0.14783601E+00  0.15629712E+00  0.49753552E+00
  0.86194151E+00  0.42173731E+00  0.67864816E+00
  0.62780407E+00  0.71179885E+00  0.31786379E+00
  0.43253344E+00  0.54823490E-01  0.58595412E+00
  0.68165350E+00  0.86645242E+00  0.46512421E+00
  0.98923124E+00  0.75051869E+00  0.69277017E+00
  0.72769964E+00  0.51334020E+00  0.29192786E+00
  0.39808949E+00  0.63677064E+00  0.52199597E+00
  0.40134058E+00  0.38839310E+00  0.66220368E+00
  0.50644114E+00  0.99691742E+00  0.18977102E+00
  0.92056485E+00  0.73628138E+00  0.74220045E-01
  0.40863213E+00  0.16823760E+00  0.30631186E+00
  0.28523303E+00  0.81467333E+00  0.89042003E-01
  0.55711570E+00  0.52116571E+00  0.69131339E+00
  0.16900824E-01  0.74008868E+00  0.49937869E+00
  0.58511937E+00  0.18406937E+00  0.86849448E+00
  0.57052672E+00  0.53808342E+00  0.99221681E+00
  0.60328636E+00  0.28603886E+00  0.73737294E-01
  0.55056849E+00  0.37538360E+00  0.92528574E+00
  0.81014750E+00  0.11021899E+00  0.69398699E+00
  0.60916044E+00  0.38698353E+00  0.41356742E+00
  0.90461144E+00  0.89538161E+00  0.25150383E-01
  0.25859724E+00  0.66044988E+00  0.88801068E+00
  0.21370483E+00  0.88053732E+00  0.68387520E+00
  0.84064753E-01  0.12316180E+00  0.97581328E+00
  0.90851262E+00  0.55724738E+00  0.99290455E+00
  0.40996032E+00  0.60616833E+00  0.98304519E+00
  0.88580273E+00  0.20372199E+00  0.56115851E+00
  0.18493996E+00  0.31429619E+00  0.62114541E+00
  0.27528317E+00  0.33104972E+00  0.80244932E+00
  0.12312211E+00  0.54594339E+00  0.17509724E+00
  0.70883727E+00  0.76122916E+00  0.98994900E+00
  0.81495067E+00  0.60052595E+00  0.44496594E+00
  0.75476417E+00  0.93790094E+00  0.73556437E+00
  0.72340982E-01  0.21496224E+00  0.78888515E+00
  0.17985527E+00  0.18389732E-01  0.10855481E-01
  0.37608956E+00  0.46494678E+00  0.34773152E+00
  0.30190422E+00  0.21723835E+00  0.14749458E+00
  0.84102271E+00  0.89624656E+00  0.21305947E+00
  0.34538825E+00  0.67047741E+00  0.72001944E+00
  0.80951324E-01  0.91767355E+00  0.80926978E+00
  0.24556558E+00  0.77377977E+00  0.29196723E+00
  0.48354359E+00  0.95588004E+00  0.78756285E+00
  0.21870228E+00  0.10088765E+00  0.64488137E+00
  0.10710106E+00  0.16577038E+00  0.31221094E+00
  0.59668565E+00  0.82283578E+00  0.19467102E+00
  0.33532799E-01  0.42557485E+00  0.96605472E+00
  0.41588500E+00  0.88708379E+00  0.34246159E+00
  0.83459376E+00  0.22559894E+00  0.93997258E+00
  0.31903285E+00  0.47477381E+00  0.11546773E+00
  0.85038703E+00  0.39983811E-01  0.43953880E-01
  0.13946904E+00  0.46442287E+00  0.65028349E+00
  0.91364743E+00  0.91075600E+00  0.37420022E+00
  0.79753526E+00  0.17261645E+00  0.31138284E+00
  0.62725279E+00  0.14676125E+00  0.42389392E+00
  0.13954766E+00  0.60018830E+00  0.48456573E+00
  0.10430619E+00  0.73287576E+00  0.97900667E+00
  0.46804226E+00  0.68668181E+00  0.68287131E+00
  0.18423851E+00  0.97237406E+00  0.82825035E+00
  0.79718881E+00  0.82859706E+00  0.74389897E+00
  0.14717278E-01  0.19992229E+00  0.66908657E+00
  0.12764206E+00  0.63711455E-01  0.12134610E+00
  0.30227077E+00  0.40710933E+00  0.28073025E+00
  0.17565983E+00  0.22871856E+00  0.14376111E+00
  0.75668546E+00  0.83584712E+00  0.27747106E+00
  0.36113396E+00  0.88341005E+00  0.45646869E+00
  0.82876244E+00  0.31626559E+00  0.85738753E+00
  0.26452472E+00  0.67479320E+00  0.36152036E+00
  0.52955949E+00  0.16340966E-01  0.88175084E+00
  0.26023049E+00  0.15267175E-01  0.57799413E+00
  0.95765742E-02  0.16895382E+00  0.23808071E+00
  0.54649993E+00  0.72170940E+00  0.13337337E+00
  0.13575564E+00  0.42871993E+00  0.39112008E-01
  0.20653059E+00  0.51637443E+00  0.41935605E+00
  0.17456041E+00  0.81179758E+00  0.91230132E+00
  0.24813678E+00  0.36979730E+00  0.13610070E+00
  0.78221960E+00  0.12666180E+00  0.11586328E+00
  0.10230431E+00  0.58242470E+00  0.65613172E+00
  0.28216604E-01  0.94082371E+00  0.38685929E+00
  0.84165837E+00  0.26974997E+00  0.25653571E+00
  0.69743577E+00  0.34671651E-01  0.41465082E+00
  0.73050446E+00  0.79492022E+00  0.87965833E+00
  0.90124291E+00  0.55043511E+00  0.36974883E+00
  0.85507480E+00  0.50437544E+00  0.88996896E+00
  0.38750960E+00  0.51013554E+00  0.92244459E+00
  0.92914293E+00  0.83899011E-01  0.52274171E+00
  0.25006897E+00  0.36891642E+00  0.54054807E+00
  0.20784105E+00  0.32139114E+00  0.89991391E+00
  0.12381492E+00  0.65108407E+00  0.25154621E+00
  0.28721145E+00  0.65247397E-01  0.92675336E+00
  0.95737681E+00  0.93408450E+00  0.87202176E+00
  0.50553223E+00  0.74351208E+00  0.90889887E+00
  0.82214660E+00  0.33822140E+00  0.50316171E+00
  0.75025089E+00  0.62877750E+00  0.57201124E+00
  0.97551421E+00  0.42382664E+00  0.32524348E+00
  0.12198957E+00  0.21680544E+00  0.45404437E+00
  0.88887265E+00  0.45620266E+00  0.74124582E+00
  0.62633870E+00  0.73632004E+00  0.39540466E+00
  0.45742383E+00  0.98556803E+00  0.61999697E+00
  0.69612169E+00  0.93500389E+00  0.50517997E+00
  0.94214178E+00  0.73082646E+00  0.75595409E+00
  0.68785973E+00  0.44804875E+00  0.27900170E+00
  0.39795536E+00  0.63108272E+00  0.44429151E+00
  0.47520602E+00  0.40305590E+00  0.65577928E+00
  0.54729614E+00  0.96803711E+00  0.24628977E+00
  0.96632280E+00  0.68405811E+00  0.38965756E-01
  0.34355952E+00  0.13307870E+00  0.27755759E+00
  0.33547415E+00  0.86427506E+00  0.12731773E+00
  0.59542428E+00  0.58510762E+00  0.72022670E+00
  0.59046777E-01  0.72759475E+00  0.56635681E+00
  0.58077986E+00  0.13157244E+00  0.93010979E+00
  0.63756540E+00  0.52638055E+00  0.95144876E+00
  0.67056258E+00  0.31871085E+00  0.98979173E-01
  0.50037324E+00  0.34168534E+00  0.87306328E+00
  0.78231432E+00  0.78306731E-01  0.75926123E+00
  0.60519998E+00  0.32646927E+00  0.46530138E+00
  0.93432383E+00  0.89181106E+00  0.10087798E+00
  0.27700452E+00  0.59930526E+00  0.83284926E+00
  0.24536738E+00  0.86585702E+00  0.60991432E+00
  0.42825309E-01  0.17690619E+00  0.93248045E+00
  0.76579934E+00  0.79760529E+00  0.95304142E+00
  0.85235307E+00  0.61221182E+00  0.37994187E+00
  0.87502305E+00  0.49102317E+00  0.96564450E+00
  0.42149042E+00  0.52922302E+00  0.99082169E+00
  0.90200741E+00  0.13013023E+00  0.58354879E+00
  0.24084850E+00  0.36447154E+00  0.61878408E+00
  0.27551403E+00  0.29836866E+00  0.87200561E+00
  0.72133411E-01  0.59195904E+00  0.21687658E+00
  0.39423069E+00  0.69847996E+00  0.66648967E+00
  0.15940730E+00  0.90428492E+00  0.79821178E+00
  0.72894418E+00  0.86530324E+00  0.73649028E+00
  0.79785207E-01  0.22920811E+00  0.71246077E+00
  0.11913600E+00  0.11660699E-01  0.57283189E-01
  0.31064496E+00  0.41997805E+00  0.35820137E+00
  0.24528980E+00  0.24674358E+00  0.10705445E+00
  0.81311232E+00  0.89265305E+00  0.28669145E+00
  0.35116405E+00  0.89768907E+00  0.37978689E+00
  0.78789941E+00  0.25939026E+00  0.88911487E+00
  0.20587048E+00  0.70942464E+00  0.32085895E+00
  0.47896990E+00  0.95713972E+00  0.86680473E+00
  0.24657126E+00  0.89231983E-01  0.57122345E+00
  0.84819317E-01  0.15409609E+00  0.23523949E+00
  0.59989506E+00  0.74483056E+00  0.18481324E+00
  0.93659334E-01  0.38101855E+00  0.99262715E+00
  0.14798572E+00  0.52433666E+00  0.47297600E+00
  0.17773618E+00  0.74877846E+00  0.95750696E+00
  0.25939842E+00  0.44865049E+00  0.15196096E+00
  0.80712924E+00  0.11035366E+00  0.46143278E-01
  0.96397564E-01  0.51299114E+00  0.69489210E+00
  0.97160314E+00  0.91720944E+00  0.43109580E+00
  0.84650162E+00  0.19104785E+00  0.25794648E+00
  0.66504069E+00  0.10084101E+00  0.37540645E+00
  0.00000000E+00  0.00000000E+00  0.00000000E+00
  0.00000000E+00  0.00000000E+00  0.00000000E+00
  0.00000000E+00  0.00000000E+00  0.00000000E+00
  0.00000000E+00  0.00000000E+00  0.00000000E+00
  0.00000000E+00  0.00000000E+00  0.00000000E+00
  0.00000000E+00  0.00000000E+00  0.00000000E+00
  0.00000000E+00  0.00000000E+00  0.00000000E+00
  0.00000000E+00  0.00000000E+00  0.00000000E+00
  0.00000000E+00  0.00000000E+00  0.00000000E+00
  0.00000000E+00  0.00000000E+00  0.00000000E+00
  0.00000000E+00  0.00000000E+00  0.00000000E+00
  0.00000000E+00  0.00000000E+00  0.00000000E+00
  0.00000000E+00  0.00000000E+00  0.00000000E+00
  0.00000000E+00  0.00000000E+00  0.00000000E+00
  0.00000000E+00  0.00000000E+00  0.00000000E+00
  0.00000000E+00  0.00000000E+00  0.00000000E+00
  0.00000000E+00  0.00000000E+00  0.00000000E+00
  0.00000000E+00  0.00000000E+00  0.00000000E+00
  0.00000000E+00  0.00000000E+00  0.00000000E+00
  0.00000000E+00  0.00000000E+00  0.00000000E+00
  0.00000000E+00  0.00000000E+00  0.00000000E+00
  0.00000000E+00  0.00000000E+00  0.00000000E+00
  0.00000000E+00  0.00000000E+00  0.00000000E+00
  0.00000000E+00  0.00000000E+00  0.00000000E+00
  0.00000000E+00  0.00000000E+00  0.00000000E+00
  0.00000000E+00  0.00000000E+00  0.00000000E+00
  0.00000000E+00  0.00000000E+00  0.00000000E+00
  0.00000000E+00  0.00000000E+00  0.00000000E+00
  0.00000000E+00  0.00000000E+00  0.00000000E+00
  0.00000000E+00  0.00000000E+00  0.00000000E+00
  0.00000000E+00  0.00000000E+00  0.00000000E+00
  0.00000000E+00  0.00000000E+00  0.00000000E+00
  0.00000000E+00  0.00000000E+00  0.00000000E+00
  0.00000000E+00  0.00000000E+00  0.00000000E+00
  0.00000000E+00  0.00000000E+00  0.00000000E+00
  0.00000000E+00  0.00000000E+00  0.00000000E+00
  0.00000000E+00  0.00000000E+00  0.00000000E+00
  0.00000000E+00  0.00000000E+00  0.00000000E+00
  0.00000000E+00  0.00000000E+00  0.00000000E+00
  0.00000000E+00  0.00000000E+00  0.00000000E+00
  0.00000000E+00  0.00000000E+00  0.00000000E+00
  0.00000000E+00  0.00000000E+00  0.00000000E+00
  0.00000000E+00  0.00000000E+00  0.00000000E+00
  0.00000000E+00  0.00000000E+00  0.00000000E+00
  0.00000000E+00  0.00000000E+00  0.00000000E+00
  0.00000000E+00  0.00000000E+00  0.00000000E+00
  0.00000000E+00  0.00000000E+00  0.00000000E+00
  0.00000000E+00  0.00000000E+00  0.00000000E+00
  0.00000000E+00  0.00000000E+00  0.00000000E+00
  0.00000000E+00  0.00000000E+00  0.00000000E+00
  0.00000000E+00  0.00000000E+00  0.00000000E+00
  0.00000000E+00  0.00000000E+00  0.00000000E+00
  0.00000000E+00  0.00000000E+00  0.00000000E+00
  0.00000000E+00  0.00000000E+00  0.00000000E+00
  0.00000000E+00  0.00000000E+00  0.00000000E+00
  0.00000000E+00  0.00000000E+00  0.00000000E+00
  0.00000000E+00  0.00000000E+00  0.00000000E+00
  0.00000000E+00  0.00000000E+00  0.00000000E+00
  0.00000000E+00  0.00000000E+00  0.00000000E+00
  0.00000000E+00  0.00000000E+00  0.00000000E+00
  0.00000000E+00  0.00000000E+00  0.00000000E+00
  0.00000000E+00  0.00000000E+00  0.00000000E+00
  0.00000000E+00  0.00000000E+00  0.00000000E+00
  0.00000000E+00  0.00000000E+00  0.00000000E+00
  0.00000000E+00  0.00000000E+00  0.00000000E+00
  0.00000000E+00  0.00000000E+00  0.00000000E+00
  0.00000000E+00  0.00000000E+00  0.00000000E+00
  0.00000000E+00  0.00000000E+00  0.00000000E+00
  0.00000000E+00  0.00000000E+00  0.00000000E+00
  0.00000000E+00  0.00000000E+00  0.00000000E+00
  0.00000000E+00  0.00000000E+00  0.00000000E+00
  0.00000000E+00  0.00000000E+00  0.00000000E+00
  0.00000000E+00  0.00000000E+00  0.00000000E+00
  0.00000000E+00  0.00000000E+00  0.00000000E+00
  0.00000000E+00  0.00000000E+00  0.00000000E+00
  0.00000000E+00  0.00000000E+00  0.00000000E+00
  0.00000000E+00  0.00000000E+00  0.00000000E+00
  0.00000000E+00  0.00000000E+00  0.00000000E+00
  0.00000000E+00  0.00000000E+00  0.00000000E+00
  0.00000000E+00  0.00000000E+00  0.00000000E+00
  0.00000000E+00  0.00000000E+00  0.00000000E+00
  0.00000000E+00  0.00000000E+00  0.00000000E+00
  0.00000000E+00  0.00000000E+00  0.00000000E+00
  0.00000000E+00  0.00000000E+00  0.00000000E+00
  0.00000000E+00  0.00000000E+00  0.00000000E+00
  0.00000000E+00  0.00000000E+00  0.00000000E+00
  0.00000000E+00  0.00000000E+00  0.00000000E+00
  0.00000000E+00  0.00000000E+00  0.00000000E+00
  0.00000000E+00  0.00000000E+00  0.00000000E+00
  0.00000000E+00  0.00000000E+00  0.00000000E+00
  0.00000000E+00  0.00000000E+00  0.00000000E+00
  0.00000000E+00  0.00000000E+00  0.00000000E+00
  0.00000000E+00  0.00000000E+00  0.00000000E+00
  0.00000000E+00  0.00000000E+00  0.00000000E+00
  0.00000000E+00  0.00000000E+00  0.00000000E+00
  0.00000000E+00  0.00000000E+00  0.00000000E+00
  0.00000000E+00  0.00000000E+00  0.00000000E+00
  0.00000000E+00  0.00000000E+00  0.00000000E+00
  0.00000000E+00  0.00000000E+00  0.00000000E+00
  0.00000000E+00  0.00000000E+00  0.00000000E+00
  0.00000000E+00  0.00000000E+00  0.00000000E+00
  0.00000000E+00  0.00000000E+00  0.00000000E+00
  0.00000000E+00  0.00000000E+00  0.00000000E+00
  0.00000000E+00  0.00000000E+00  0.00000000E+00
  0.00000000E+00  0.00000000E+00  0.00000000E+00
  0.00000000E+00  0.00000000E+00  0.00000000E+00
  0.00000000E+00  0.00000000E+00  0.00000000E+00
  0.00000000E+00  0.00000000E+00  0.00000000E+00
  0.00000000E+00  0.00000000E+00  0.00000000E+00
  0.00000000E+00  0.00000000E+00  0.00000000E+00
  0.00000000E+00  0.00000000E+00  0.00000000E+00
  0.00000000E+00  0.00000000E+00  0.00000000E+00
  0.00000000E+00  0.00000000E+00  0.00000000E+00
  0.00000000E+00  0.00000000E+00  0.00000000E+00
  0.00000000E+00  0.00000000E+00  0.00000000E+00
  0.00000000E+00  0.00000000E+00  0.00000000E+00
  0.00000000E+00  0.00000000E+00  0.00000000E+00
  0.00000000E+00  0.00000000E+00  0.00000000E+00
  0.00000000E+00  0.00000000E+00  0.00000000E+00
  0.00000000E+00  0.00000000E+00  0.00000000E+00
  0.00000000E+00  0.00000000E+00  0.00000000E+00
  0.00000000E+00  0.00000000E+00  0.00000000E+00
  0.00000000E+00  0.00000000E+00  0.00000000E+00
  0.00000000E+00  0.00000000E+00  0.00000000E+00
  0.00000000E+00  0.00000000E+00  0.00000000E+00
  0.00000000E+00  0.00000000E+00  0.00000000E+00
  0.00000000E+00  0.00000000E+00  0.00000000E+00
  0.00000000E+00  0.00000000E+00  0.00000000E+00
  0.00000000E+00  0.00000000E+00  0.00000000E+00
  0.00000000E+00  0.00000000E+00  0.00000000E+00
  0.00000000E+00  0.00000000E+00  0.00000000E+00
  0.00000000E+00  0.00000000E+00  0.00000000E+00
  0.00000000E+00  0.00000000E+00  0.00000000E+00
  0.00000000E+00  0.00000000E+00  0.00000000E+00
  0.00000000E+00  0.00000000E+00  0.00000000E+00
  0.00000000E+00  0.00000000E+00  0.00000000E+00
  0.00000000E+00  0.00000000E+00  0.00000000E+00
  0.00000000E+00  0.00000000E+00  0.00000000E+00
  0.00000000E+00  0.00000000E+00  0.00000000E+00
  0.00000000E+00  0.00000000E+00  0.00000000E+00
  0.00000000E+00  0.00000000E+00  0.00000000E+00
  0.00000000E+00  0.00000000E+00  0.00000000E+00
  0.00000000E+00  0.00000000E+00  0.00000000E+00
  0.00000000E+00  0.00000000E+00  0.00000000E+00
  0.00000000E+00  0.00000000E+00  0.00000000E+00
  0.00000000E+00  0.00000000E+00  0.00000000E+00
  0.00000000E+00  0.00000000E+00  0.00000000E+00
  0.00000000E+00  0.00000000E+00  0.00000000E+00
  0.00000000E+00  0.00000000E+00  0.00000000E+00
  0.00000000E+00  0.00000000E+00  0.00000000E+00
  0.00000000E+00  0.00000000E+00  0.00000000E+00
  0.00000000E+00  0.00000000E+00  0.00000000E+00
  0.00000000E+00  0.00000000E+00  0.00000000E+00
  0.00000000E+00  0.00000000E+00  0.00000000E+00
  0.00000000E+00  0.00000000E+00  0.00000000E+00
  0.00000000E+00  0.00000000E+00  0.00000000E+00
  0.00000000E+00  0.00000000E+00  0.00000000E+00
  0.00000000E+00  0.00000000E+00  0.00000000E+00
  0.00000000E+00  0.00000000E+00  0.00000000E+00
  0.00000000E+00  0.00000000E+00  0.00000000E+00
  0.00000000E+00  0.00000000E+00  0.00000000E+00
  0.00000000E+00  0.00000000E+00  0.00000000E+00
  0.00000000E+00  0.00000000E+00  0.00000000E+00
  0.00000000E+00  0.00000000E+00  0.00000000E+00
  0.00000000E+00  0.00000000E+00  0.00000000E+00
  0.00000000E+00  0.00000000E+00  0.00000000E+00
  0.00000000E+00  0.00000000E+00  0.00000000E+00
  0.00000000E+00  0.00000000E+00  0.00000000E+00
  0.00000000E+00  0.00000000E+00  0.00000000E+00
  0.00000000E+00  0.00000000E+00  0.00000000E+00
  0.00000000E+00  0.00000000E+00  0.00000000E+00
  0.00000000E+00  0.00000000E+00  0.00000000E+00
  0.00000000E+00  0.00000000E+00  0.00000000E+00
  0.00000000E+00  0.00000000E+00  0.00000000E+00
  0.00000000E+00  0.00000000E+00  0.00000000E+00
  0.00000000E+00  0.00000000E+00  0.00000000E+00
  0.00000000E+00  0.00000000E+00  0.00000000E+00
  0.00000000E+00  0.00000000E+00  0.00000000E+00
  0.00000000E+00  0.00000000E+00  0.00000000E+00
  0.00000000E+00  0.00000000E+00  0.00000000E+00
  0.00000000E+00  0.00000000E+00  0.00000000E+00
  0.00000000E+00  0.00000000E+00  0.00000000E+00
  0.00000000E+00  0.00000000E+00  0.00000000E+00
  0.00000000E+00  0.00000000E+00  0.00000000E+00
  0.00000000E+00  0.00000000E+00  0.00000000E+00
  0.00000000E+00  0.00000000E+00  0.00000000E+00
  0.00000000E+00  0.00000000E+00  0.00000000E+00
  0.00000000E+00  0.00000000E+00  0.00000000E+00
  0.00000000E+00  0.00000000E+00  0.00000000E+00
  0.00000000E+00  0.00000000E+00  0.00000000E+00
  0.00000000E+00  0.00000000E+00  0.00000000E+00
  0.00000000E+00  0.00000000E+00  0.00000000E+00
  0.00000000E+00  0.00000000E+00  0.00000000E+00
  0.00000000E+00  0.00000000E+00  0.00000000E+00
  0.00000000E+00  0.00000000E+00  0.00000000E+00
  0.00000000E+00  0.00000000E+00  0.00000000E+00
  0.00000000E+00  0.00000000E+00  0.00000000E+00
  0.00000000E+00  0.00000000E+00  0.00000000E+00
  0.00000000E+00  0.00000000E+00  0.00000000E+00
  0.00000000E+00  0.00000000E+00  0.00000000E+00
  0.00000000E+00  0.00000000E+00  0.00000000E+00
  0.00000000E+00  0.00000000E+00  0.00000000E+00
  0.00000000E+00  0.00000000E+00  0.00000000E+00
  0.00000000E+00  0.00000000E+00  0.00000000E+00
  0.00000000E+00  0.00000000E+00  0.00000000E+00
  0.00000000E+00  0.00000000E+00  0.00000000E+00
  0.00000000E+00  0.00000000E+00  0.00000000E+00
  0.00000000E+00  0.00000000E+00  0.00000000E+00
  0.00000000E+00  0.00000000E+00  0.00000000E+00
  0.00000000E+00  0.00000000E+00  0.00000000E+00
  0.00000000E+00  0.00000000E+00  0.00000000E+00
  0.00000000E+00  0.00000000E+00  0.00000000E+00
  0.00000000E+00  0.00000000E+00  0.00000000E+00
  0.00000000E+00  0.00000000E+00  0.00000000E+00
  0.00000000E+00  0.00000000E+00  0.00000000E+00
  0.00000000E+00  0.00000000E+00  0.00000000E+00
  0.00000000E+00  0.00000000E+00  0.00000000E+00
  0.00000000E+00  0.00000000E+00  0.00000000E+00
  0.00000000E+00  0.00000000E+00  0.00000000E+00
  0.00000000E+00  0.00000000E+00  0.00000000E+00
  0.00000000E+00  0.00000000E+00  0.00000000E+00
  0.00000000E+00  0.00000000E+00  0.00000000E+00
  0.00000000E+00  0.00000000E+00  0.00000000E+00
  0.00000000E+00  0.00000000E+00  0.00000000E+00
  0.00000000E+00  0.00000000E+00  0.00000000E+00
  0.00000000E+00  0.00000000E+00  0.00000000E+00
  0.00000000E+00  0.00000000E+00  0.00000000E+00
  0.00000000E+00  0.00000000E+00  0.00000000E+00
  0.00000000E+00  0.00000000E+00  0.00000000E+00
  0.00000000E+00  0.00000000E+00  0.00000000E+00
  0.00000000E+00  0.00000000E+00  0.00000000E+00
  0.00000000E+00  0.00000000E+00  0.00000000E+00
  0.00000000E+00  0.00000000E+00  0.00000000E+00
  0.00000000E+00  0.00000000E+00  0.00000000E+00
  0.00000000E+00  0.00000000E+00  0.00000000E+00
  0.00000000E+00  0.00000000E+00  0.00000000E+00
  0.00000000E+00  0.00000000E+00  0.00000000E+00
  0.00000000E+00  0.00000000E+00  0.00000000E+00
  0.00000000E+00  0.00000000E+00  0.00000000E+00
  0.00000000E+00  0.00000000E+00  0.00000000E+00
  0.00000000E+00  0.00000000E+00  0.00000000E+00
  0.00000000E+00  0.00000000E+00  0.00000000E+00
  0.00000000E+00  0.00000000E+00  0.00000000E+00
  0.00000000E+00  0.00000000E+00  0.00000000E+00
  0.00000000E+00  0.00000000E+00  0.00000000E+00
  0.00000000E+00  0.00000000E+00  0.00000000E+00
  0.00000000E+00  0.00000000E+00  0.00000000E+00
  0.00000000E+00  0.00000000E+00  0.00000000E+00
  0.00000000E+00  0.00000000E+00  0.00000000E+00
  0.00000000E+00  0.00000000E+00  0.00000000E+00
  0.00000000E+00  0.00000000E+00  0.00000000E+00
  0.00000000E+00  0.00000000E+00  0.00000000E+00
  0.00000000E+00  0.00000000E+00  0.00000000E+00
  0.00000000E+00  0.00000000E+00  0.00000000E+00
  0.00000000E+00  0.00000000E+00  0.00000000E+00
  0.00000000E+00  0.00000000E+00  0.00000000E+00
  0.00000000E+00  0.00000000E+00  0.00000000E+00
  0.00000000E+00  0.00000000E+00  0.00000000E+00
  0.00000000E+00  0.00000000E+00  0.00000000E+00
  0.00000000E+00  0.00000000E+00  0.00000000E+00
  0.00000000E+00  0.00000000E+00  0.00000000E+00
  0.00000000E+00  0.00000000E+00  0.00000000E+00
  0.00000000E+00  0.00000000E+00  0.00000000E+00
  0.00000000E+00  0.00000000E+00  0.00000000E+00
  0.00000000E+00  0.00000000E+00  0.00000000E+00
  0.00000000E+00  0.00000000E+00  0.00000000E+00
  0.00000000E+00  0.00000000E+00  0.00000000E+00
  0.00000000E+00  0.00000000E+00  0.00000000E+00
  0.00000000E+00  0.00000000E+00  0.00000000E+00
  0.00000000E+00  0.00000000E+00  0.00000000E+00
  0.00000000E+00  0.00000000E+00  0.00000000E+00
  0.00000000E+00  0.00000000E+00  0.00000000E+00
  0.00000000E+00  0.00000000E+00  0.00000000E+00
  0.00000000E+00  0.00000000E+00  0.00000000E+00
  0.00000000E+00  0.00000000E+00  0.00000000E+00
  0.00000000E+00  0.00000000E+00  0.00000000E+00
  0.00000000E+00  0.00000000E+00  0.00000000E+00
  0.00000000E+00  0.00000000E+00  0.00000000E+00
  0.00000000E+00  0.00000000E+00  0.00000000E+00
  0.00000000E+00  0.00000000E+00  0.00000000E+00
  0.00000000E+00  0.00000000E+00  0.00000000E+00
  0.00000000E+00  0.00000000E+00  0.00000000E+00
  0.00000000E+00  0.00000000E+00  0.00000000E+00
  0.00000000E+00  0.00000000E+00  0.00000000E+00
  0.00000000E+00  0.00000000E+00  0.00000000E+00
  0.00000000E+00  0.00000000E+00  0.00000000E+00
  0.00000000E+00  0.00000000E+00  0.00000000E+00
  0.00000000E+00  0.00000000E+00  0.00000000E+00
  0.00000000E+00  0.00000000E+00  0.00000000E+00
  0.00000000E+00  0.00000000E+00  0.00000000E+00
  0.00000000E+00  0.00000000E+00  0.00000000E+00
  0.00000000E+00  0.00000000E+00  0.00000000E+00
  0.00000000E+00  0.00000000E+00  0.00000000E+00
  0.00000000E+00  0.00000000E+00  0.00000000E+00
  0.00000000E+00  0.00000000E+00  0.00000000E+00
  0.00000000E+00  0.00000000E+00  0.00000000E+00
  0.00000000E+00  0.00000000E+00  0.00000000E+00
  0.00000000E+00  0.00000000E+00  0.00000000E+00
  0.00000000E+00  0.00000000E+00  0.00000000E+00
  0.00000000E+00  0.00000000E+00  0.00000000E+00
  0.00000000E+00  0.00000000E+00  0.00000000E+00
  0.00000000E+00  0.00000000E+00  0.00000000E+00
  0.00000000E+00  0.00000000E+00  0.00000000E+00
  0.00000000E+00  0.00000000E+00  0.00000000E+00
  0.00000000E+00  0.00000000E+00  0.00000000E+00
  0.00000000E+00  0.00000000E+00  0.00000000E+00
  0.00000000E+00  0.00000000E+00  0.00000000E+00
  0.00000000E+00  0.00000000E+00  0.00000000E+00
  0.00000000E+00  0.00000000E+00  0.00000000E+00
  0.00000000E+00  0.00000000E+00  0.00000000E+00
  0.00000000E+00  0.00000000E+00  0.00000000E+00
  0.00000000E+00  0.00000000E+00  0.00000000E+00
  0.00000000E+00  0.00000000E+00  0.00000000E+00
  0.00000000E+00  0.00000000E+00  0.00000000E+00
  0.00000000E+00  0.00000000E+00  0.00000000E+00
  0.00000000E+00  0.00000000E+00  0.00000000E+00
  0.00000000E+00  0.00000000E+00  0.00000000E+00
  0.00000000E+00  0.00000000E+00  0.00000000E+00
  0.00000000E+00  0.00000000E+00  0.00000000E+00
  0.00000000E+00  0.00000000E+00  0.00000000E+00
  0.00000000E+00  0.00000000E+00  0.00000000E+00
  0.00000000E+00  0.00000000E+00  0.00000000E+00
  0.00000000E+00  0.00000000E+00  0.00000000E+00
  0.00000000E+00  0.00000000E+00  0.00000000E+00
  0.00000000E+00  0.00000000E+00  0.00000000E+00
  0.00000000E+00  0.00000000E+00  0.00000000E+00
  0.00000000E+00  0.00000000E+00  0.00000000E+00
  0.00000000E+00  0.00000000E+00  0.00000000E+00
  0.00000000E+00  0.00000000E+00  0.00000000E+00
  0.00000000E+00  0.00000000E+00  0.00000000E+00
  0.00000000E+00  0.00000000E+00  0.00000000E+00
  0.00000000E+00  0.00000000E+00  0.00000000E+00
  0.00000000E+00  0.00000000E+00  0.00000000E+00
  0.00000000E+00  0.00000000E+00  0.00000000E+00
  0.00000000E+00  0.00000000E+00  0.00000000E+00
  0.00000000E+00  0.00000000E+00  0.00000000E+00
  0.00000000E+00  0.00000000E+00  0.00000000E+00
  0.00000000E+00  0.00000000E+00  0.00000000E+00
  0.00000000E+00  0.00000000E+00  0.00000000E+00
  0.00000000E+00  0.00000000E+00  0.00000000E+00
  0.00000000E+00  0.00000000E+00  0.00000000E+00
  0.00000000E+00  0.00000000E+00  0.00000000E+00
  0.00000000E+00  0.00000000E+00  0.00000000E+00
  0.00000000E+00  0.00000000E+00  0.00000000E+00
  0.00000000E+00  0.00000000E+00  0.00000000E+00
  0.00000000E+00  0.00000000E+00  0.00000000E+00
  0.00000000E+00  0.00000000E+00  0.00000000E+00
  0.00000000E+00  0.00000000E+00  0.00000000E+00
  0.00000000E+00  0.00000000E+00  0.00000000E+00
  0.00000000E+00  0.00000000E+00  0.00000000E+00
  0.00000000E+00  0.00000000E+00  0.00000000E+00
  0.00000000E+00  0.00000000E+00  0.00000000E+00
  0.00000000E+00  0.00000000E+00  0.00000000E+00
  0.00000000E+00  0.00000000E+00  0.00000000E+00
  0.00000000E+00  0.00000000E+00  0.00000000E+00
  0.00000000E+00  0.00000000E+00  0.00000000E+00
  0.00000000E+00  0.00000000E+00  0.00000000E+00
  0.00000000E+00  0.00000000E+00  0.00000000E+00
  0.00000000E+00  0.00000000E+00  0.00000000E+00
  0.00000000E+00  0.00000000E+00  0.00000000E+00
  0.00000000E+00  0.00000000E+00  0.00000000E+00
  0.00000000E+00  0.00000000E+00  0.00000000E+00
  0.00000000E+00  0.00000000E+00  0.00000000E+00
  0.00000000E+00  0.00000000E+00  0.00000000E+00
  0.00000000E+00  0.00000000E+00  0.00000000E+00
  0.00000000E+00  0.00000000E+00  0.00000000E+00
  0.00000000E+00  0.00000000E+00  0.00000000E+00
  0.00000000E+00  0.00000000E+00  0.00000000E+00
  0.00000000E+00  0.00000000E+00  0.00000000E+00
  0.00000000E+00  0.00000000E+00  0.00000000E+00
  0.00000000E+00  0.00000000E+00  0.00000000E+00
  0.00000000E+00  0.00000000E+00  0.00000000E+00
  0.00000000E+00  0.00000000E+00  0.00000000E+00
  0.00000000E+00  0.00000000E+00  0.00000000E+00
  0.00000000E+00  0.00000000E+00  0.00000000E+00
  0.00000000E+00  0.00000000E+00  0.00000000E+00
  0.00000000E+00  0.00000000E+00  0.00000000E+00
  0.00000000E+00  0.00000000E+00  0.00000000E+00
