   1   1   0   0
  0.8000000E+04  0.2000000E-08  0.2000000E-08  0.2000000E-08  0.5000000E-15
  1.000000000000000E-004
  CAR 
 unknown system                          
      1.45440616     -7.58959785  301     -6.58959783      1.00000000
     -7.590  0.0000E+00  0.0000E+00
     -7.559  0.0000E+00  0.0000E+00
     -7.529  0.0000E+00  0.0000E+00
     -7.499  0.0000E+00  0.0000E+00
     -7.469  0.0000E+00  0.0000E+00
     -7.439  0.0000E+00  0.0000E+00
     -7.409  0.0000E+00  0.0000E+00
     -7.379  0.0000E+00  0.0000E+00
     -7.348  0.0000E+00  0.0000E+00
     -7.318  0.0000E+00  0.0000E+00
     -7.288  0.0000E+00  0.0000E+00
     -7.258  0.0000E+00  0.0000E+00
     -7.228  0.0000E+00  0.0000E+00
     -7.198  0.0000E+00  0.0000E+00
     -7.168  0.1105E-13  0.3331E-15
     -7.137  0.3020E-12  0.9437E-14
     -7.107  0.7870E-11  0.2467E-12
     -7.077  0.1713E-09  0.5410E-11
     -7.047  0.3114E-08  0.9928E-10
     -7.017  0.4729E-07  0.1525E-08
     -6.987  0.6001E-06  0.1961E-07
     -6.957  0.6362E-05  0.2114E-06
     -6.926  0.5635E-04  0.1910E-05
     -6.896  0.4172E-03  0.1449E-04
     -6.866  0.2581E-02  0.9229E-04
     -6.836  0.1334E-01  0.4946E-03
     -6.806  0.5767E-01  0.2233E-02
     -6.776  0.2083E+00  0.8513E-02
     -6.745  0.6291E+00  0.2748E-01
     -6.715  0.1588E+01  0.7535E-01
     -6.685  0.3351E+01  0.1764E+00
     -6.655  0.5913E+01  0.3546E+00
     -6.625  0.8722E+01  0.6176E+00
     -6.595  0.1076E+02  0.9418E+00
     -6.565  0.1109E+02  0.1276E+01
     -6.534  0.9562E+01  0.1564E+01
     -6.504  0.6892E+01  0.1772E+01
     -6.474  0.4153E+01  0.1897E+01
     -6.444  0.2092E+01  0.1960E+01
     -6.414  0.8813E+00  0.1987E+01
     -6.384  0.3103E+00  0.1996E+01
     -6.354  0.9134E-01  0.1999E+01
     -6.323  0.2247E-01  0.2000E+01
     -6.293  0.4621E-02  0.2000E+01
     -6.263  0.7943E-03  0.2000E+01
     -6.233  0.1141E-03  0.2000E+01
     -6.203  0.1370E-04  0.2000E+01
     -6.173  0.1374E-05  0.2000E+01
     -6.143  0.1151E-06  0.2000E+01
     -6.112  0.8063E-08  0.2000E+01
     -6.082  0.4717E-09  0.2000E+01
     -6.052  0.2305E-10  0.2000E+01
     -6.022  0.9428E-12  0.2000E+01
     -5.992  0.2946E-13  0.2000E+01
     -5.962  0.0000E+00  0.2000E+01
     -5.932  0.0000E+00  0.2000E+01
     -5.901  0.0000E+00  0.2000E+01
     -5.871  0.0000E+00  0.2000E+01
     -5.841  0.0000E+00  0.2000E+01
     -5.811  0.0000E+00  0.2000E+01
     -5.781  0.0000E+00  0.2000E+01
     -5.751  0.0000E+00  0.2000E+01
     -5.721  0.0000E+00  0.2000E+01
     -5.690  0.0000E+00  0.2000E+01
     -5.660  0.0000E+00  0.2000E+01
     -5.630  0.0000E+00  0.2000E+01
     -5.600  0.0000E+00  0.2000E+01
     -5.570  0.0000E+00  0.2000E+01
     -5.540  0.0000E+00  0.2000E+01
     -5.509  0.0000E+00  0.2000E+01
     -5.479  0.0000E+00  0.2000E+01
     -5.449  0.0000E+00  0.2000E+01
     -5.419  0.0000E+00  0.2000E+01
     -5.389  0.0000E+00  0.2000E+01
     -5.359  0.0000E+00  0.2000E+01
     -5.329  0.0000E+00  0.2000E+01
     -5.298  0.0000E+00  0.2000E+01
     -5.268  0.0000E+00  0.2000E+01
     -5.238  0.0000E+00  0.2000E+01
     -5.208  0.0000E+00  0.2000E+01
     -5.178  0.0000E+00  0.2000E+01
     -5.148  0.0000E+00  0.2000E+01
     -5.118  0.0000E+00  0.2000E+01
     -5.087  0.0000E+00  0.2000E+01
     -5.057  0.0000E+00  0.2000E+01
     -5.027  0.0000E+00  0.2000E+01
     -4.997  0.0000E+00  0.2000E+01
     -4.967  0.0000E+00  0.2000E+01
     -4.937  0.0000E+00  0.2000E+01
     -4.907  0.0000E+00  0.2000E+01
     -4.876  0.0000E+00  0.2000E+01
     -4.846  0.0000E+00  0.2000E+01
     -4.816  0.0000E+00  0.2000E+01
     -4.786  0.0000E+00  0.2000E+01
     -4.756  0.0000E+00  0.2000E+01
     -4.726  0.0000E+00  0.2000E+01
     -4.696  0.0000E+00  0.2000E+01
     -4.665  0.0000E+00  0.2000E+01
     -4.635  0.0000E+00  0.2000E+01
     -4.605  0.0000E+00  0.2000E+01
     -4.575  0.0000E+00  0.2000E+01
     -4.545  0.0000E+00  0.2000E+01
     -4.515  0.0000E+00  0.2000E+01
     -4.484  0.0000E+00  0.2000E+01
     -4.454  0.0000E+00  0.2000E+01
     -4.424  0.0000E+00  0.2000E+01
     -4.394  0.0000E+00  0.2000E+01
     -4.364  0.0000E+00  0.2000E+01
     -4.334  0.0000E+00  0.2000E+01
     -4.304  0.0000E+00  0.2000E+01
     -4.273  0.0000E+00  0.2000E+01
     -4.243  0.0000E+00  0.2000E+01
     -4.213  0.0000E+00  0.2000E+01
     -4.183  0.0000E+00  0.2000E+01
     -4.153  0.0000E+00  0.2000E+01
     -4.123  0.0000E+00  0.2000E+01
     -4.093  0.0000E+00  0.2000E+01
     -4.062  0.0000E+00  0.2000E+01
     -4.032  0.0000E+00  0.2000E+01
     -4.002  0.0000E+00  0.2000E+01
     -3.972  0.0000E+00  0.2000E+01
     -3.942  0.0000E+00  0.2000E+01
     -3.912  0.0000E+00  0.2000E+01
     -3.882  0.0000E+00  0.2000E+01
     -3.851  0.0000E+00  0.2000E+01
     -3.821  0.0000E+00  0.2000E+01
     -3.791  0.0000E+00  0.2000E+01
     -3.761  0.0000E+00  0.2000E+01
     -3.731  0.0000E+00  0.2000E+01
     -3.701  0.0000E+00  0.2000E+01
     -3.671  0.0000E+00  0.2000E+01
     -3.640  0.0000E+00  0.2000E+01
     -3.610  0.0000E+00  0.2000E+01
     -3.580  0.0000E+00  0.2000E+01
     -3.550  0.0000E+00  0.2000E+01
     -3.520  0.0000E+00  0.2000E+01
     -3.490  0.0000E+00  0.2000E+01
     -3.460  0.0000E+00  0.2000E+01
     -3.429  0.0000E+00  0.2000E+01
     -3.399  0.0000E+00  0.2000E+01
     -3.369  0.0000E+00  0.2000E+01
     -3.339  0.0000E+00  0.2000E+01
     -3.309  0.0000E+00  0.2000E+01
     -3.279  0.0000E+00  0.2000E+01
     -3.248  0.0000E+00  0.2000E+01
     -3.218  0.0000E+00  0.2000E+01
     -3.188  0.0000E+00  0.2000E+01
     -3.158  0.0000E+00  0.2000E+01
     -3.128  0.0000E+00  0.2000E+01
     -3.098  0.0000E+00  0.2000E+01
     -3.068  0.0000E+00  0.2000E+01
     -3.037  0.0000E+00  0.2000E+01
     -3.007  0.0000E+00  0.2000E+01
     -2.977  0.0000E+00  0.2000E+01
     -2.947  0.0000E+00  0.2000E+01
     -2.917  0.0000E+00  0.2000E+01
     -2.887  0.0000E+00  0.2000E+01
     -2.857  0.0000E+00  0.2000E+01
     -2.826  0.0000E+00  0.2000E+01
     -2.796  0.0000E+00  0.2000E+01
     -2.766  0.0000E+00  0.2000E+01
     -2.736  0.0000E+00  0.2000E+01
     -2.706  0.0000E+00  0.2000E+01
     -2.676  0.0000E+00  0.2000E+01
     -2.646  0.0000E+00  0.2000E+01
     -2.615  0.0000E+00  0.2000E+01
     -2.585  0.0000E+00  0.2000E+01
     -2.555  0.0000E+00  0.2000E+01
     -2.525  0.0000E+00  0.2000E+01
     -2.495  0.0000E+00  0.2000E+01
     -2.465  0.0000E+00  0.2000E+01
     -2.435  0.0000E+00  0.2000E+01
     -2.404  0.0000E+00  0.2000E+01
     -2.374  0.0000E+00  0.2000E+01
     -2.344  0.0000E+00  0.2000E+01
     -2.314  0.0000E+00  0.2000E+01
     -2.284  0.0000E+00  0.2000E+01
     -2.254  0.0000E+00  0.2000E+01
     -2.223  0.0000E+00  0.2000E+01
     -2.193  0.0000E+00  0.2000E+01
     -2.163  0.0000E+00  0.2000E+01
     -2.133  0.0000E+00  0.2000E+01
     -2.103  0.0000E+00  0.2000E+01
     -2.073  0.0000E+00  0.2000E+01
     -2.043  0.0000E+00  0.2000E+01
     -2.012  0.0000E+00  0.2000E+01
     -1.982  0.0000E+00  0.2000E+01
     -1.952  0.0000E+00  0.2000E+01
     -1.922  0.0000E+00  0.2000E+01
     -1.892  0.0000E+00  0.2000E+01
     -1.862  0.0000E+00  0.2000E+01
     -1.832  0.0000E+00  0.2000E+01
     -1.801  0.0000E+00  0.2000E+01
     -1.771  0.0000E+00  0.2000E+01
     -1.741  0.0000E+00  0.2000E+01
     -1.711  0.0000E+00  0.2000E+01
     -1.681  0.0000E+00  0.2000E+01
     -1.651  0.0000E+00  0.2000E+01
     -1.621  0.0000E+00  0.2000E+01
     -1.590  0.0000E+00  0.2000E+01
     -1.560  0.0000E+00  0.2000E+01
     -1.530  0.0000E+00  0.2000E+01
     -1.500  0.0000E+00  0.2000E+01
     -1.470  0.0000E+00  0.2000E+01
     -1.440  0.0000E+00  0.2000E+01
     -1.410  0.0000E+00  0.2000E+01
     -1.379  0.0000E+00  0.2000E+01
     -1.349  0.0000E+00  0.2000E+01
     -1.319  0.0000E+00  0.2000E+01
     -1.289  0.0000E+00  0.2000E+01
     -1.259  0.0000E+00  0.2000E+01
     -1.229  0.0000E+00  0.2000E+01
     -1.199  0.0000E+00  0.2000E+01
     -1.168  0.0000E+00  0.2000E+01
     -1.138  0.0000E+00  0.2000E+01
     -1.108  0.0000E+00  0.2000E+01
     -1.078  0.0000E+00  0.2000E+01
     -1.048  0.0000E+00  0.2000E+01
     -1.018  0.0000E+00  0.2000E+01
     -0.987  0.0000E+00  0.2000E+01
     -0.957  0.0000E+00  0.2000E+01
     -0.927  0.0000E+00  0.2000E+01
     -0.897  0.0000E+00  0.2000E+01
     -0.867  0.0000E+00  0.2000E+01
     -0.837  0.0000E+00  0.2000E+01
     -0.807  0.0000E+00  0.2000E+01
     -0.776  0.0000E+00  0.2000E+01
     -0.746  0.0000E+00  0.2000E+01
     -0.716  0.0000E+00  0.2000E+01
     -0.686  0.0000E+00  0.2000E+01
     -0.656  0.4603E-15  0.2000E+01
     -0.626  0.2164E-13  0.2000E+01
     -0.596  0.5791E-12  0.2000E+01
     -0.565  0.1302E-10  0.2000E+01
     -0.535  0.2447E-09  0.2000E+01
     -0.505  0.3845E-08  0.2000E+01
     -0.475  0.5058E-07  0.2000E+01
     -0.445  0.5571E-06  0.2000E+01
     -0.415  0.5144E-05  0.2000E+01
     -0.385  0.3987E-04  0.2000E+01
     -0.354  0.2599E-03  0.2000E+01
     -0.324  0.1428E-02  0.2000E+01
     -0.294  0.6640E-02  0.2000E+01
     -0.264  0.2623E-01  0.2001E+01
     -0.234  0.8852E-01  0.2004E+01
     -0.204  0.2571E+00  0.2011E+01
     -0.174  0.6480E+00  0.2031E+01
     -0.143  0.1431E+01  0.2074E+01
     -0.113  0.2792E+01  0.2158E+01
     -0.083  0.4864E+01  0.2305E+01
     -0.053  0.7622E+01  0.2535E+01
     -0.023  0.1083E+02  0.2861E+01
      0.007  0.1411E+02  0.3287E+01
      0.038  0.1704E+02  0.3800E+01
      0.068  0.1942E+02  0.4386E+01
      0.098  0.2125E+02  0.5026E+01
      0.128  0.2266E+02  0.5710E+01
      0.158  0.2386E+02  0.6429E+01
      0.188  0.2517E+02  0.7188E+01
      0.218  0.2701E+02  0.8002E+01
      0.249  0.2944E+02  0.8889E+01
      0.279  0.3189E+02  0.9851E+01
      0.309  0.3329E+02  0.1085E+02
      0.339  0.3281E+02  0.1184E+02
      0.369  0.3050E+02  0.1276E+02
      0.399  0.2713E+02  0.1358E+02
      0.429  0.2335E+02  0.1428E+02
      0.460  0.1933E+02  0.1487E+02
      0.490  0.1497E+02  0.1532E+02
      0.520  0.1047E+02  0.1563E+02
      0.550  0.6419E+01  0.1583E+02
      0.580  0.3385E+01  0.1593E+02
      0.610  0.1517E+01  0.1598E+02
      0.640  0.5737E+00  0.1599E+02
      0.671  0.1824E+00  0.1600E+02
      0.701  0.4867E-01  0.1600E+02
      0.731  0.1088E-01  0.1600E+02
      0.761  0.2038E-02  0.1600E+02
      0.791  0.3194E-03  0.1600E+02
      0.821  0.4189E-04  0.1600E+02
      0.851  0.4597E-05  0.1600E+02
      0.882  0.4219E-06  0.1600E+02
      0.912  0.3239E-07  0.1600E+02
      0.942  0.2079E-08  0.1600E+02
      0.972  0.1116E-09  0.1600E+02
      1.002  0.5011E-11  0.1600E+02
      1.032  0.1878E-12  0.1600E+02
      1.062  0.5524E-14  0.1600E+02
      1.093  0.0000E+00  0.1600E+02
      1.123  0.0000E+00  0.1600E+02
      1.153  0.0000E+00  0.1600E+02
      1.183  0.0000E+00  0.1600E+02
      1.213  0.0000E+00  0.1600E+02
      1.243  0.0000E+00  0.1600E+02
      1.274  0.0000E+00  0.1600E+02
      1.304  0.0000E+00  0.1600E+02
      1.334  0.0000E+00  0.1600E+02
      1.364  0.0000E+00  0.1600E+02
      1.394  0.0000E+00  0.1600E+02
      1.424  0.0000E+00  0.1600E+02
      1.454  0.0000E+00  0.1600E+02
