    1    1    1    1
  0.8000000E+04  0.2000000E-08  0.2000000E-08  0.2000000E-08  0.5000000E-15
  1.000000000000000E-004
  CAR 
 unknown system                          
      1      8      8
 
  0.0000000E+00  0.0000000E+00  0.0000000E+00  0.1250000E+00
      1         -6.589598   0.500000
      2         -0.072854   0.000000
      3          0.232146   0.000000
      4          0.261316   0.000000
      5          0.261317   0.000000
      6          0.261317   0.000000
      7          0.353978   0.000000
      8          0.353978   0.000000
 
  0.5000000E+00  0.0000000E+00  0.0000000E+00  0.1250000E+00
      1         -6.589598   0.500000
      2         -0.015798   0.000000
      3          0.055455   0.000000
      4          0.295601   0.000000
      5          0.295614   0.000000
      6          0.328881   0.000000
      7          0.363414   0.000000
      8          0.439489   0.000000
 
  0.0000000E+00  0.5000000E+00  0.0000000E+00  0.1250000E+00
      1         -6.589598   0.500000
      2         -0.015798   0.000000
      3          0.055455   0.000000
      4          0.295602   0.000000
      5          0.295605   0.000000
      6          0.328880   0.000000
      7          0.363400   0.000000
      8          0.439458   0.000000
 
  0.0000000E+00  0.0000000E+00  0.5000000E+00  0.1250000E+00
      1         -6.589598   0.500000
      2         -0.015798   0.000000
      3          0.055456   0.000000
      4          0.295603   0.000000
      5          0.295605   0.000000
      6          0.328886   0.000000
      7          0.363300   0.000000
      8          0.444223   0.000000
 
  0.5000000E+00  0.5000000E+00  0.0000000E+00  0.1250000E+00
      1         -6.589598   0.500000
      2          0.030270   0.000000
      3          0.126231   0.000000
      4          0.126231   0.000000
      5          0.172943   0.000000
      6          0.319896   0.000000
      7          0.448820   0.000000
      8          0.454403   0.000000
 
  0.0000000E+00  0.5000000E+00  0.5000000E+00  0.1250000E+00
      1         -6.589598   0.500000
      2          0.030270   0.000000
      3          0.126232   0.000000
      4          0.126239   0.000000
      5          0.172944   0.000000
      6          0.319897   0.000000
      7          0.445638   0.000000
      8          0.454405   0.000000
 
  0.5000000E+00  0.0000000E+00  0.5000000E+00  0.1250000E+00
      1         -6.589598   0.500000
      2          0.030270   0.000000
      3          0.126232   0.000000
      4          0.126238   0.000000
      5          0.172944   0.000000
      6          0.319896   0.000000
      7          0.445750   0.000000
      8          0.454406   0.000000
 
  0.5000000E+00  0.5000000E+00  0.5000000E+00  0.1250000E+00
      1         -6.589598   0.500000
      2          0.067554   0.000000
      3          0.183141   0.000000
      4          0.183141   0.000000
      5          0.183151   0.000000
      6          0.264916   0.000000
      7          0.264916   0.000000
      8          0.265005   0.000000
