       N       E                     dE             d eps       ncg     rms          rms(c)
DAV:   1     0.111750470445E+01    0.11175E+01   -0.36350E+01   128   0.228E+01
DAV:   2    -0.117114804834E+00   -0.12346E+01   -0.12072E+01   128   0.695E+00
DAV:   3    -0.180447800257E+00   -0.63333E-01   -0.59828E-01   232   0.251E+00
DAV:   4    -0.180504611700E+00   -0.56811E-04   -0.56759E-04   192   0.543E-02
DAV:   5    -0.180504641745E+00   -0.30045E-07   -0.30032E-07   240   0.120E-03    0.726E-02
DAV:   6    -0.180462034184E+00    0.42608E-04   -0.39038E-05   208   0.159E-02
   1 F= -.18046232E+00 E0= -.15225284E+00  d E =-.564190E-01
